        3801
  Built with Packmol                                             
  C            0.000000        0.000000       19.000000
  C            1.418000        0.000000       19.000000
  C            2.127000        1.228024       19.000000
  C            3.545000        1.228024       19.000000
  C            0.000000        2.456048       19.000000
  C            1.418000        2.456048       19.000000
  C            2.127000        3.684072       19.000000
  C            3.545000        3.684072       19.000000
  C            0.000000        4.912096       19.000000
  C            1.418000        4.912096       19.000000
  C            2.127000        6.140120       19.000000
  C            3.545000        6.140120       19.000000
  C            0.000000        7.368144       19.000000
  C            1.418000        7.368144       19.000000
  C            2.127000        8.596168       19.000000
  C            3.545000        8.596168       19.000000
  C            0.000000        9.824192       19.000000
  C            1.418000        9.824192       19.000000
  C            2.127000       11.052216       19.000000
  C            3.545000       11.052216       19.000000
  C            0.000000       12.280240       19.000000
  C            1.418000       12.280240       19.000000
  C            2.127000       13.508264       19.000000
  C            3.545000       13.508264       19.000000
  C            0.000000       14.736288       19.000000
  C            1.418000       14.736288       19.000000
  C            2.127000       15.964312       19.000000
  C            3.545000       15.964312       19.000000
  C            0.000000       17.192336       19.000000
  C            1.418000       17.192336       19.000000
  C            2.127000       18.420360       19.000000
  C            3.545000       18.420360       19.000000
  C            0.000000       19.648384       19.000000
  C            1.418000       19.648384       19.000000
  C            2.127000       20.876408       19.000000
  C            3.545000       20.876408       19.000000
  C            0.000000       22.104432       19.000000
  C            1.418000       22.104432       19.000000
  C            2.127000       23.332456       19.000000
  C            3.545000       23.332456       19.000000
  C            0.000000       24.560480       19.000000
  C            1.418000       24.560480       19.000000
  C            2.127000       25.788504       19.000000
  C            3.545000       25.788504       19.000000
  C            0.000000       27.016528       19.000000
  C            1.418000       27.016528       19.000000
  C            2.127000       28.244553       19.000000
  C            3.545000       28.244553       19.000000
  C            0.000000       29.472577       19.000000
  C            1.418000       29.472577       19.000000
  C            2.127000       30.700601       19.000000
  C            3.545000       30.700601       19.000000
  C            0.000000       31.928625       19.000000
  C            1.418000       31.928625       19.000000
  C            2.127000       33.156649       19.000000
  C            3.545000       33.156649       19.000000
  C            4.254000        0.000000       19.000000
  C            5.672000        0.000000       19.000000
  C            6.381000        1.228024       19.000000
  C            7.799000        1.228024       19.000000
  C            4.254000        2.456048       19.000000
  C            5.672000        2.456048       19.000000
  C            6.381000        3.684072       19.000000
  C            7.799000        3.684072       19.000000
  C            4.254000        4.912096       19.000000
  C            5.672000        4.912096       19.000000
  C            6.381000        6.140120       19.000000
  C            7.799000        6.140120       19.000000
  C            4.254000        7.368144       19.000000
  C            5.672000        7.368144       19.000000
  C            6.381000        8.596168       19.000000
  C            7.799000        8.596168       19.000000
  C            4.254000        9.824192       19.000000
  C            5.672000        9.824192       19.000000
  C            6.381000       11.052216       19.000000
  C            7.799000       11.052216       19.000000
  C            4.254000       12.280240       19.000000
  C            5.672000       12.280240       19.000000
  C            6.381000       13.508264       19.000000
  C            7.799000       13.508264       19.000000
  C            4.254000       14.736288       19.000000
  C            5.672000       14.736288       19.000000
  C            6.381000       15.964312       19.000000
  C            7.799000       15.964312       19.000000
  C            4.254000       17.192336       19.000000
  C            5.672000       17.192336       19.000000
  C            6.381000       18.420360       19.000000
  C            7.799000       18.420360       19.000000
  C            4.254000       19.648384       19.000000
  C            5.672000       19.648384       19.000000
  C            6.381000       20.876408       19.000000
  C            7.799000       20.876408       19.000000
  C            4.254000       22.104432       19.000000
  C            5.672000       22.104432       19.000000
  C            6.381000       23.332456       19.000000
  C            7.799000       23.332456       19.000000
  C            4.254000       24.560480       19.000000
  C            5.672000       24.560480       19.000000
  C            6.381000       25.788504       19.000000
  C            7.799000       25.788504       19.000000
  C            4.254000       27.016528       19.000000
  C            5.672000       27.016528       19.000000
  C            6.381000       28.244553       19.000000
  C            7.799000       28.244553       19.000000
  C            4.254000       29.472577       19.000000
  C            5.672000       29.472577       19.000000
  C            6.381000       30.700601       19.000000
  C            7.799000       30.700601       19.000000
  C            4.254000       31.928625       19.000000
  C            5.672000       31.928625       19.000000
  C            6.381000       33.156649       19.000000
  C            7.799000       33.156649       19.000000
  C            8.508000        0.000000       19.000000
  C            9.926000        0.000000       19.000000
  C           10.635000        1.228024       19.000000
  C           12.053000        1.228024       19.000000
  C            8.508000        2.456048       19.000000
  C            9.926000        2.456048       19.000000
  C           10.635000        3.684072       19.000000
  C           12.053000        3.684072       19.000000
  C            8.508000        4.912096       19.000000
  C            9.926000        4.912096       19.000000
  C           10.635000        6.140120       19.000000
  C           12.053000        6.140120       19.000000
  C            8.508000        7.368144       19.000000
  C            9.926000        7.368144       19.000000
  C           10.635000        8.596168       19.000000
  C           12.053000        8.596168       19.000000
  C            8.508000        9.824192       19.000000
  C            9.926000        9.824192       19.000000
  C           10.635000       11.052216       19.000000
  C           12.053000       11.052216       19.000000
  C            8.508000       12.280240       19.000000
  C            9.926000       12.280240       19.000000
  C           10.635000       13.508264       19.000000
  C           12.053000       13.508264       19.000000
  C            8.508000       14.736288       19.000000
  C            9.926000       14.736288       19.000000
  C           10.635000       15.964312       19.000000
  C           12.053000       15.964312       19.000000
  C            8.508000       17.192336       19.000000
  C            9.926000       17.192336       19.000000
  C           10.635000       18.420360       19.000000
  C           12.053000       18.420360       19.000000
  C            8.508000       19.648384       19.000000
  C            9.926000       19.648384       19.000000
  C           10.635000       20.876408       19.000000
  C           12.053000       20.876408       19.000000
  C            8.508000       22.104432       19.000000
  C            9.926000       22.104432       19.000000
  C           10.635000       23.332456       19.000000
  C           12.053000       23.332456       19.000000
  C            8.508000       24.560480       19.000000
  C            9.926000       24.560480       19.000000
  C           10.635000       25.788504       19.000000
  C           12.053000       25.788504       19.000000
  C            8.508000       27.016528       19.000000
  C            9.926000       27.016528       19.000000
  C           10.635000       28.244553       19.000000
  C           12.053000       28.244553       19.000000
  C            8.508000       29.472577       19.000000
  C            9.926000       29.472577       19.000000
  C           10.635000       30.700601       19.000000
  C           12.053000       30.700601       19.000000
  C            8.508000       31.928625       19.000000
  C            9.926000       31.928625       19.000000
  C           10.635000       33.156649       19.000000
  C           12.053000       33.156649       19.000000
  C           12.762000        0.000000       19.000000
  C           14.180000        0.000000       19.000000
  C           14.889000        1.228024       19.000000
  C           16.307000        1.228024       19.000000
  C           12.762000        2.456048       19.000000
  C           14.180000        2.456048       19.000000
  C           14.889000        3.684072       19.000000
  C           16.307000        3.684072       19.000000
  C           12.762000        4.912096       19.000000
  C           14.180000        4.912096       19.000000
  C           14.889000        6.140120       19.000000
  C           16.307000        6.140120       19.000000
  C           12.762000        7.368144       19.000000
  C           14.180000        7.368144       19.000000
  C           14.889000        8.596168       19.000000
  C           16.307000        8.596168       19.000000
  C           12.762000        9.824192       19.000000
  C           14.180000        9.824192       19.000000
  C           14.889000       11.052216       19.000000
  C           16.307000       11.052216       19.000000
  C           12.762000       12.280240       19.000000
  C           14.180000       12.280240       19.000000
  C           14.889000       13.508264       19.000000
  C           16.307000       13.508264       19.000000
  C           12.762000       14.736288       19.000000
  C           14.180000       14.736288       19.000000
  C           14.889000       15.964312       19.000000
  C           16.307000       15.964312       19.000000
  C           12.762000       17.192336       19.000000
  C           14.180000       17.192336       19.000000
  C           14.889000       18.420360       19.000000
  C           16.307000       18.420360       19.000000
  C           12.762000       19.648384       19.000000
  C           14.180000       19.648384       19.000000
  C           14.889000       20.876408       19.000000
  C           16.307000       20.876408       19.000000
  C           12.762000       22.104432       19.000000
  C           14.180000       22.104432       19.000000
  C           14.889000       23.332456       19.000000
  C           16.307000       23.332456       19.000000
  C           12.762000       24.560480       19.000000
  C           14.180000       24.560480       19.000000
  C           14.889000       25.788504       19.000000
  C           16.307000       25.788504       19.000000
  C           12.762000       27.016528       19.000000
  C           14.180000       27.016528       19.000000
  C           14.889000       28.244553       19.000000
  C           16.307000       28.244553       19.000000
  C           12.762000       29.472577       19.000000
  C           14.180000       29.472577       19.000000
  C           14.889000       30.700601       19.000000
  C           16.307000       30.700601       19.000000
  C           12.762000       31.928625       19.000000
  C           14.180000       31.928625       19.000000
  C           14.889000       33.156649       19.000000
  C           16.307000       33.156649       19.000000
  C           17.016000        0.000000       19.000000
  C           18.434000        0.000000       19.000000
  C           19.143000        1.228024       19.000000
  C           20.561000        1.228024       19.000000
  C           17.016000        2.456048       19.000000
  C           18.434000        2.456048       19.000000
  C           19.143000        3.684072       19.000000
  C           20.561000        3.684072       19.000000
  C           17.016000        4.912096       19.000000
  C           18.434000        4.912096       19.000000
  C           19.143000        6.140120       19.000000
  C           20.561000        6.140120       19.000000
  C           17.016000        7.368144       19.000000
  C           18.434000        7.368144       19.000000
  C           19.143000        8.596168       19.000000
  C           20.561000        8.596168       19.000000
  C           17.016000        9.824192       19.000000
  C           18.434000        9.824192       19.000000
  C           19.143000       11.052216       19.000000
  C           20.561000       11.052216       19.000000
  C           17.016000       12.280240       19.000000
  C           18.434000       12.280240       19.000000
  C           19.143000       13.508264       19.000000
  C           20.561000       13.508264       19.000000
  C           17.016000       14.736288       19.000000
  C           18.434000       14.736288       19.000000
  C           19.143000       15.964312       19.000000
  C           20.561000       15.964312       19.000000
  C           17.016000       17.192336       19.000000
  C           18.434000       17.192336       19.000000
  C           19.143000       18.420360       19.000000
  C           20.561000       18.420360       19.000000
  C           17.016000       19.648384       19.000000
  C           18.434000       19.648384       19.000000
  C           19.143000       20.876408       19.000000
  C           20.561000       20.876408       19.000000
  C           17.016000       22.104432       19.000000
  C           18.434000       22.104432       19.000000
  C           19.143000       23.332456       19.000000
  C           20.561000       23.332456       19.000000
  C           17.016000       24.560480       19.000000
  C           18.434000       24.560480       19.000000
  C           19.143000       25.788504       19.000000
  C           20.561000       25.788504       19.000000
  C           17.016000       27.016528       19.000000
  C           18.434000       27.016528       19.000000
  C           19.143000       28.244553       19.000000
  C           20.561000       28.244553       19.000000
  C           17.016000       29.472577       19.000000
  C           18.434000       29.472577       19.000000
  C           19.143000       30.700601       19.000000
  C           20.561000       30.700601       19.000000
  C           17.016000       31.928625       19.000000
  C           18.434000       31.928625       19.000000
  C           19.143000       33.156649       19.000000
  C           20.561000       33.156649       19.000000
  C           21.270000        0.000000       19.000000
  C           22.688000        0.000000       19.000000
  C           23.397000        1.228024       19.000000
  C           24.815000        1.228024       19.000000
  C           21.270000        2.456048       19.000000
  C           22.688000        2.456048       19.000000
  C           23.397000        3.684072       19.000000
  C           24.815000        3.684072       19.000000
  C           21.270000        4.912096       19.000000
  C           22.688000        4.912096       19.000000
  C           23.397000        6.140120       19.000000
  C           24.815000        6.140120       19.000000
  C           21.270000        7.368144       19.000000
  C           22.688000        7.368144       19.000000
  C           23.397000        8.596168       19.000000
  C           24.815000        8.596168       19.000000
  C           21.270000        9.824192       19.000000
  C           22.688000        9.824192       19.000000
  C           23.397000       11.052216       19.000000
  C           24.815000       11.052216       19.000000
  C           21.270000       12.280240       19.000000
  C           22.688000       12.280240       19.000000
  C           23.397000       13.508264       19.000000
  C           24.815000       13.508264       19.000000
  C           21.270000       14.736288       19.000000
  C           22.688000       14.736288       19.000000
  C           23.397000       15.964312       19.000000
  C           24.815000       15.964312       19.000000
  C           21.270000       17.192336       19.000000
  C           22.688000       17.192336       19.000000
  C           23.397000       18.420360       19.000000
  C           24.815000       18.420360       19.000000
  C           21.270000       19.648384       19.000000
  C           22.688000       19.648384       19.000000
  C           23.397000       20.876408       19.000000
  C           24.815000       20.876408       19.000000
  C           21.270000       22.104432       19.000000
  C           22.688000       22.104432       19.000000
  C           23.397000       23.332456       19.000000
  C           24.815000       23.332456       19.000000
  C           21.270000       24.560480       19.000000
  C           22.688000       24.560480       19.000000
  C           23.397000       25.788504       19.000000
  C           24.815000       25.788504       19.000000
  C           21.270000       27.016528       19.000000
  C           22.688000       27.016528       19.000000
  C           23.397000       28.244553       19.000000
  C           24.815000       28.244553       19.000000
  C           21.270000       29.472577       19.000000
  C           22.688000       29.472577       19.000000
  C           23.397000       30.700601       19.000000
  C           24.815000       30.700601       19.000000
  C           21.270000       31.928625       19.000000
  C           22.688000       31.928625       19.000000
  C           23.397000       33.156649       19.000000
  C           24.815000       33.156649       19.000000
  C           25.524000        0.000000       19.000000
  C           26.942000        0.000000       19.000000
  C           27.651000        1.228024       19.000000
  C           29.069000        1.228024       19.000000
  C           25.524000        2.456048       19.000000
  C           26.942000        2.456048       19.000000
  C           27.651000        3.684072       19.000000
  C           29.069000        3.684072       19.000000
  C           25.524000        4.912096       19.000000
  C           26.942000        4.912096       19.000000
  C           27.651000        6.140120       19.000000
  C           29.069000        6.140120       19.000000
  C           25.524000        7.368144       19.000000
  C           26.942000        7.368144       19.000000
  C           27.651000        8.596168       19.000000
  C           29.069000        8.596168       19.000000
  C           25.524000        9.824192       19.000000
  C           26.942000        9.824192       19.000000
  C           27.651000       11.052216       19.000000
  C           29.069000       11.052216       19.000000
  C           25.524000       12.280240       19.000000
  C           26.942000       12.280240       19.000000
  C           27.651000       13.508264       19.000000
  C           29.069000       13.508264       19.000000
  C           25.524000       14.736288       19.000000
  C           26.942000       14.736288       19.000000
  C           27.651000       15.964312       19.000000
  C           29.069000       15.964312       19.000000
  C           25.524000       17.192336       19.000000
  C           26.942000       17.192336       19.000000
  C           27.651000       18.420360       19.000000
  C           29.069000       18.420360       19.000000
  C           25.524000       19.648384       19.000000
  C           26.942000       19.648384       19.000000
  C           27.651000       20.876408       19.000000
  C           29.069000       20.876408       19.000000
  C           25.524000       22.104432       19.000000
  C           26.942000       22.104432       19.000000
  C           27.651000       23.332456       19.000000
  C           29.069000       23.332456       19.000000
  C           25.524000       24.560480       19.000000
  C           26.942000       24.560480       19.000000
  C           27.651000       25.788504       19.000000
  C           29.069000       25.788504       19.000000
  C           25.524000       27.016528       19.000000
  C           26.942000       27.016528       19.000000
  C           27.651000       28.244553       19.000000
  C           29.069000       28.244553       19.000000
  C           25.524000       29.472577       19.000000
  C           26.942000       29.472577       19.000000
  C           27.651000       30.700601       19.000000
  C           29.069000       30.700601       19.000000
  C           25.524000       31.928625       19.000000
  C           26.942000       31.928625       19.000000
  C           27.651000       33.156649       19.000000
  C           29.069000       33.156649       19.000000
  C           29.778000        0.000000       19.000000
  C           31.196000        0.000000       19.000000
  C           31.905000        1.228024       19.000000
  C           33.323000        1.228024       19.000000
  C           29.778000        2.456048       19.000000
  C           31.196000        2.456048       19.000000
  C           31.905000        3.684072       19.000000
  C           33.323000        3.684072       19.000000
  C           29.778000        4.912096       19.000000
  C           31.196000        4.912096       19.000000
  C           31.905000        6.140120       19.000000
  C           33.323000        6.140120       19.000000
  C           29.778000        7.368144       19.000000
  C           31.196000        7.368144       19.000000
  C           31.905000        8.596168       19.000000
  C           33.323000        8.596168       19.000000
  C           29.778000        9.824192       19.000000
  C           31.196000        9.824192       19.000000
  C           31.905000       11.052216       19.000000
  C           33.323000       11.052216       19.000000
  C           29.778000       12.280240       19.000000
  C           31.196000       12.280240       19.000000
  C           31.905000       13.508264       19.000000
  C           33.323000       13.508264       19.000000
  C           29.778000       14.736288       19.000000
  C           31.196000       14.736288       19.000000
  C           31.905000       15.964312       19.000000
  C           33.323000       15.964312       19.000000
  C           29.778000       17.192336       19.000000
  C           31.196000       17.192336       19.000000
  C           31.905000       18.420360       19.000000
  C           33.323000       18.420360       19.000000
  C           29.778000       19.648384       19.000000
  C           31.196000       19.648384       19.000000
  C           31.905000       20.876408       19.000000
  C           33.323000       20.876408       19.000000
  C           29.778000       22.104432       19.000000
  C           31.196000       22.104432       19.000000
  C           31.905000       23.332456       19.000000
  C           33.323000       23.332456       19.000000
  C           29.778000       24.560480       19.000000
  C           31.196000       24.560480       19.000000
  C           31.905000       25.788504       19.000000
  C           33.323000       25.788504       19.000000
  C           29.778000       27.016528       19.000000
  C           31.196000       27.016528       19.000000
  C           31.905000       28.244553       19.000000
  C           33.323000       28.244553       19.000000
  C           29.778000       29.472577       19.000000
  C           31.196000       29.472577       19.000000
  C           31.905000       30.700601       19.000000
  C           33.323000       30.700601       19.000000
  C           29.778000       31.928625       19.000000
  C           31.196000       31.928625       19.000000
  C           31.905000       33.156649       19.000000
  C           33.323000       33.156649       19.000000
  C           12.001857       18.439189       24.913646
  C           13.540489       18.299965       24.978743
  C           14.111145       18.863438       23.670802
  C           13.959620       19.110988       26.214004
  O           13.808771       18.723511       27.366643
  O           14.493326       20.316309       25.877801
  C           14.918161       21.103143       26.991774
  C           13.875199       16.787735       25.181910
  C           15.348082       16.224805       25.076451
  C           15.768993       16.139318       23.599095
  C           15.220468       14.778702       25.610191
  O           15.163222       13.778347       24.905984
  O           15.120192       14.765677       26.967926
  C           14.941673       13.472268       27.545490
  C           16.347026       17.058269       25.941529
  C           17.901360       16.790053       25.993965
  C           18.412468       17.612266       27.205706
  C           18.183842       15.311554       26.302970
  O           18.295265       14.846450       27.429859
  O           18.271989       14.574022       25.164451
  C           18.547123       13.186393       25.367719
  C           18.594263       17.285720       24.674515
  C           20.137919       17.537103       24.608686
  C           20.955334       16.327037       25.085262
  C           20.499047       18.840791       25.334965
  O           19.852361       19.877119       25.229684
  O           21.628975       18.718003       26.081388
  C           22.008663       19.907744       26.774544
  C           20.514939       17.793100       23.130169
  H           11.525399       18.030307       25.812538
  H           11.700722       19.491022       24.840076
  H           11.590936       17.910564       24.046176
  H           15.195628       18.996172       23.720455
  H           13.690838       19.851522       23.446257
  H           13.873670       18.214452       22.821186
  H           14.066388       21.349825       27.633119
  H           15.342947       22.033998       26.606183
  H           15.693261       20.577500       27.558463
  H           13.475409       16.502159       26.166372
  H           13.260144       16.211863       24.473087
  H           14.937345       15.805637       22.967069
  H           16.115240       17.097397       23.207020
  H           16.569397       15.410779       23.441094
  H           14.015267       13.016378       27.182740
  H           14.866699       13.593407       28.629576
  H           15.799980       12.830912       27.327770
  H           16.249053       18.106933       25.639896
  H           15.974634       17.027724       26.975009
  H           18.257828       18.685465       27.052829
  H           19.470442       17.432973       27.414534
  H           17.878159       17.341372       28.125118
  H           17.760172       12.717504       25.964154
  H           19.523153       13.059478       25.846086
  H           18.574871       12.701110       24.388359
  H           18.365945       16.578998       23.870579
  H           18.099388       18.220525       24.374506
  H           22.029052       16.484264       24.925414
  H           20.824224       16.130377       26.152642
  H           20.684247       15.422762       24.530886
  H           22.230064       20.710406       26.064271
  H           22.915102       19.691498       27.346592
  H           21.222626       20.211747       27.472926
  H           20.315003       16.912318       22.509577
  H           19.946652       18.632557       22.712368
  H           21.578342       18.040937       23.029200
  C           21.656396       12.337506       14.271805
  C           21.664511       11.719337       12.903797
  O           20.982671       10.800947       12.540443
  O           22.547777       12.322386       12.094762
  H           22.650716       12.261996       14.705052
  H           20.933673       11.829358       14.901719
  H           21.404881       13.391851       14.187107
  H           22.539138       11.910374       11.216769
  C           29.395493       29.288999       12.030334
  C           29.601367       27.938716       12.653230
  O           30.631644       27.519072       13.103564
  O           28.470149       27.218507       12.655722
  H           29.047353       29.162748       11.008113
  H           30.326206       29.846626       12.042975
  H           28.628747       29.825713       12.583610
  H           28.622030       26.350656       13.061267
  C           23.520846       18.518380        7.450758
  C           23.515265       17.213259        6.708954
  O           22.580132       16.469410        6.596758
  O           24.711068       16.951543        6.161300
  H           24.274672       18.482491        8.233404
  H           22.541998       18.701813        7.881506
  H           23.785193       19.319351        6.764723
  H           24.688585       16.105870        5.686924
  C           15.394657       14.156066       10.509009
  C           15.781838       14.377427        9.075574
  O           15.134145       14.962833        8.252065
  O           16.974734       13.832004        8.796511
  H           15.357436       13.088091       10.709309
  H           14.427444       14.607687       10.703615
  H           16.150567       14.594163       11.156117
  H           17.208034       13.984735        7.867563
  C           14.922931       26.319500        1.684192
  C           16.341425       26.072957        1.259059
  O           16.820026       25.007783        0.982076
  O           17.049525       27.211070        1.218347
  H           14.918945       26.780881        2.668665
  H           14.376823       25.382186        1.707495
  H           14.454601       27.009605        0.986697
  H           17.961981       27.032600        0.942173
  C           26.818238       20.204075        3.786685
  C           27.511003       20.658581        2.534828
  O           27.218651       21.617544        1.875060
  O           28.532492       19.850805        2.214794
  H           26.445624       19.192836        3.643050
  H           25.998518       20.875920        4.019104
  H           27.533104       20.186662        4.605673
  H           28.967468       20.159478        1.404722
  C           15.392827        6.850513        8.211804
  C           13.930493        6.511258        8.223225
  O           13.025714        7.292527        8.329845
  O           13.728858        5.191501        8.096943
  H           15.887512        6.331366        9.029025
  H           15.523383        7.922684        8.315435
  H           15.833058        6.507161        7.278860
  H           12.779873        4.991406        8.106370
  C           17.138994       27.607957        4.606320
  C           17.230256       28.265616        3.259917
  O           18.232497       28.426074        2.619496
  O           16.028166       28.672818        2.826871
  H           16.718688       28.311336        5.320937
  H           18.125010       27.290187        4.929011
  H           16.470996       26.752498        4.542723
  H           16.106537       29.094618        1.957019
  C           29.522923       12.455929        1.937919
  C           30.595652       13.413845        2.368376
  O           30.467383       14.598343        2.512890
  O           31.760734       12.785852        2.584186
  H           29.835510       11.954398        1.025322
  H           28.594641       12.992501        1.771431
  H           29.386990       11.700544        2.707979
  H           32.440851       13.419475        2.861066
  C           23.835894        7.318137       16.224210
  C           24.386489        8.284731       15.216150
  O           24.248719        8.217677       14.025815
  O           25.076872        9.272220       15.804879
  H           24.655858        6.891769       16.796876
  H           23.283827        6.532702       15.718592
  H           23.184933        7.850842       16.913087
  H           25.424497        9.886029       15.139225
  C            4.890164        3.054949        5.193673
  C            3.660602        2.197267        5.272439
  O            3.608085        1.076703        5.698996
  O            2.581457        2.836620        4.798055
  H            5.065162        3.336173        4.158122
  H            5.744415        2.511442        5.583790
  H            4.729982        3.964473        5.767420
  H            1.797868        2.268083        4.856819
  C           13.161391       32.390731       11.155873
  C           14.615562       32.424493       11.527212
  O           15.284790       33.410542       11.669386
  O           15.112106       31.189578       11.690897
  H           13.040219       31.829184       10.232802
  H           12.789274       33.402256       11.030652
  H           12.603882       31.879625       11.936918
  H           16.051127       31.231027       11.930106
  C           32.065714       30.288246       14.408804
  C           32.503975       30.175436       12.977425
  O           32.630202       31.084747       12.204383
  O           32.750547       28.902397       12.635464
  H           31.166073       29.695713       14.555867
  H           31.874232       31.327518       14.654939
  H           32.843002       29.886645       15.054263
  H           33.032024       28.849010       11.708847
  C           14.366525       15.959794        4.146045
  C           14.982354       16.033182        5.513164
  O           14.390237       16.178777        6.546882
  O           16.317092       15.914629        5.460411
  H           14.773922       16.754845        3.526369
  H           13.288614       16.058560        4.221451
  H           14.625172       15.008712        3.687109
  H           16.697035       15.964283        6.351409
  C           21.811147       21.216386       15.210003
  C           21.376039       22.247199       16.210878
  O           22.084386       22.803931       17.003763
  O           20.060550       22.493434       16.125899
  H           21.260915       20.294686       15.382605
  H           22.877564       21.039151       15.303154
  H           21.574989       21.567329       14.208432
  H           19.797975       23.160742       16.778934
  C           14.002953       19.493654       13.520615
  C           14.059551       19.068303       12.082033
  O           13.538542       19.631005       11.158838
  O           14.781469       17.948966       11.926199
  H           13.561818       18.695868       14.113080
  H           13.413421       20.399756       13.614244
  H           15.013426       19.663997       13.883939
  H           14.806942       17.689653       10.991958
  C            8.164479       24.987117        2.596890
  C            9.498872       25.324565        1.997581
  O            9.682485       25.967650        1.001037
  O           10.507403       24.813318        2.718591
  H            8.057838       23.906358        2.648509
  H            7.370495       25.413504        1.992640
  H            8.117151       25.379186        3.609865
  H           11.360363       25.041098        2.317001
  C            4.285137       27.112298       11.365348
  C            3.973831       25.982060       10.427640
  O            4.433833       24.874793       10.479912
  O            3.092743       26.350169        9.486076
  H            4.691826       27.946335       10.798723
  H            4.998937       26.784370       12.113872
  H            3.366769       27.445130       11.842736
  H            2.903931       25.608439        8.890352
  C            6.786557       17.747231        9.383432
  C            8.222083       17.308029        9.386682
  O            8.613255       16.175271        9.451636
  O            9.058354       18.353281        9.306291
  H            6.613300       18.411986       10.226142
  H            6.135946       16.881379        9.449311
  H            6.583296       18.300921        8.470093
  H            9.979880       18.050829        9.309674
  C           30.905719       16.549546        9.991952
  C           31.521778       15.352967       10.657019
  O           31.090732       14.233123       10.634204
  O           32.649866       15.675367       11.306512
  H           30.684911       17.303282       10.743751
  H           29.996945       16.257466        9.476051
  H           31.617174       16.974091        9.287913
  H           33.033217       14.891161       11.729316
  C           32.042387       18.554389        4.541946
  C           32.077099       17.077222        4.807310
  O           33.045114       16.438270        5.115628
  O           30.866231       16.520350        4.658791
  H           31.688490       18.728222        3.528725
  H           33.034253       18.975341        4.669754
  H           31.343302       19.025475        5.228558
  H           30.907920       15.567306        4.833919
  C           31.361198       10.245931        9.384386
  C           31.669264        9.629656       10.718157
  O           30.972335        9.674821       11.694181
  O           32.851619        8.996959       10.708403
  H           32.145512       10.953456        9.126825
  H           30.400752       10.749244        9.423815
  H           31.346459        9.467977        8.625013
  H           33.033572        8.605659       11.577009
  C            8.291316       23.347415        5.871500
  C            7.784713       24.501846        6.686538
  O            7.270293       25.497252        6.256525
  O            7.972975       24.299961        7.998851
  H            9.352215       23.209957        6.065604
  H            8.125293       23.539868        4.816638
  H            7.773162       22.440649        6.173772
  H            7.640145       25.054823        8.508858
  C           12.136785       16.842196       10.852936
  C           11.989077       16.744706        9.362190
  O           11.080538       16.224173        8.775697
  O           13.018188       17.322323        8.725281
  H           13.062921       16.358544       11.153652
  H           11.291019       16.367137       11.339076
  H           12.194963       17.889359       11.139540
  H           12.905790       17.249740        7.764657
  C           19.370294        2.612814        5.179682
  C           18.164182        3.470153        5.432484
  O           17.156869        3.480935        4.780121
  O           18.333165        4.255791        6.506067
  H           20.237316        3.250499        5.025710
  H           19.203555        1.990016        4.306953
  H           19.558676        1.992928        6.052797
  H           17.545171        4.801642        6.653751
  C           25.657800        6.068184       13.883195
  C           26.200096        4.668811       13.846903
  O           25.556811        3.660100       13.942077
  O           27.531980        4.659372       13.690825
  H           26.119932        6.610386       14.704491
  H           24.580491        6.042919       14.010087
  H           25.914900        6.576250       12.956995
  H           27.864089        3.748353       13.669654
  C           28.933930        7.894050        8.390035
  C           29.636293        7.720970        7.074598
  O           30.348207        6.803995        6.770116
  O           29.376938        8.737255        6.238975
  H           29.254821        8.826646        8.847606
  H           29.162764        7.058183        9.042949
  H           27.861959        7.954080        8.218711
  H           29.838353        8.608538        5.395632
  C           19.955772       25.346287       14.520472
  C           21.434420       25.097008       14.449027
  O           22.295049       25.845938       14.821578
  O           21.707971       23.902686       13.903932
  H           19.536398       25.303898       13.518272
  H           19.766741       26.317917       14.964923
  H           19.488871       24.564491       15.114506
  H           22.666445       23.759199       13.866005
  C            1.602536       22.319940        4.622033
  C            2.760927       22.792770        3.792451
  O            3.002673       22.461721        2.664471
  O            3.530674       23.658867        4.467530
  H            1.978676       21.840552        5.522468
  H            0.999842       21.622218        4.049951
  H            1.003052       23.176143        4.921386
  H            4.272798       23.953087        3.916726
  C           25.766345       22.315377       12.724092
  C           26.224031       23.429849       13.619703
  O           27.362460       23.691059       13.895609
  O           25.188732       24.133643       14.100530
  H           25.109944       21.653022       13.283112
  H           26.624486       21.765621       12.351673
  H           25.198760       22.731683       11.895470
  H           25.503063       24.848211       14.676106
  C           27.874637       16.527637        2.719025
  C           26.905621       15.917439        1.748299
  O           26.055303       16.503919        1.137256
  O           27.094070       14.595190        1.627848
  H           27.752116       16.056915        3.691386
  H           27.697551       17.595460        2.794728
  H           28.889771       16.338650        2.378636
  H           26.460148       14.218716        0.997681
  C           27.963812       18.748793        8.758496
  C           26.842256       18.106413        7.994883
  O           26.413470       18.467539        6.933703
  O           26.347080       17.043578        8.645689
  H           27.599913       19.061962        9.733986
  H           28.342650       19.603540        8.207838
  H           28.756015       18.020213        8.912322
  H           25.624611       16.642060        8.138222
  C           28.548664        8.280573       11.545614
  C           27.681165        8.692005       12.699656
  O           27.852461        8.398882       13.850790
  O           26.652205        9.452137       12.297405
  H           27.950269        7.725020       10.827727
  H           29.370372        7.668131       11.902047
  H           28.930623        9.169524       11.049679
  H           26.103574        9.708050       13.055172
  C            3.742908       10.490164        7.925044
  C            3.881539       11.692313        8.813449
  O            4.741135       11.869357        9.632059
  O            2.906822       12.585962        8.590551
  H            2.778062       10.021935        8.103680
  H            4.543941        9.787087        8.128425
  H            3.776428       10.807023        6.885547
  H            3.012453       13.354626        9.172528
  C           31.693955       10.025236       15.732940
  C           30.608674        9.775848       14.726156
  O           30.679088        9.040497       13.780284
  O           29.506193       10.487713       15.002106
  H           31.941470       11.083908       15.738199
  H           32.570708        9.436728       15.483348
  H           31.332355        9.758769       16.723051
  H           28.816916       10.314108       14.342213
  C           20.148968        5.503940        1.727792
  C           21.102278        6.593475        1.330603
  O           22.272124        6.457836        1.099443
  O           20.488807        7.783691        1.257098
  H           19.712987        5.744057        2.694406
  H           20.673545        4.555482        1.778594
  H           19.343828        5.449081        0.999219
  H           21.119202        8.474354        0.999636
  C            9.132579       19.825359        6.852390
  C            8.528011       20.562565        8.011990
  O            7.800436       20.094408        8.843757
  O            8.898676       21.851285        8.025089
  H            8.820371       20.298757        5.924760
  H            8.814948       18.787974        6.869004
  H           10.216293       19.887193        6.914185
  H            8.499184       22.310985        8.779928
  C           30.214397       17.865607       13.822544
  C           31.163072       16.709434       13.692440
  O           30.877625       15.547917       13.791283
  O           32.414335       17.123035       13.444168
  H           30.546407       18.512330       14.630996
  H           29.212654       17.499834       14.022682
  H           30.225935       18.443940       12.901960
  H           33.012319       16.363702       13.363367
  C           18.340209       30.708789        3.313703
  C           18.989830       29.714025        4.231353
  O           19.910689       28.995661        3.955046
  O           18.412941       29.708992        5.441947
  H           17.286053       30.464255        3.208663
  H           18.827682       30.689453        2.344512
  H           18.413935       31.701350        3.751270
  H           18.845019       29.061355        6.020371
  C           22.777320       22.537018       10.866426
  C           22.222766       23.635593       10.006630
  O           22.036012       24.771412       10.346351
  O           21.945486       23.201286        8.768544
  H           22.054532       21.726802       10.923043
  H           22.991184       22.918380       11.859482
  H           23.684379       22.148179       10.410219
  H           21.588773       23.923442        8.228224
  C           23.372579        3.478968        2.025749
  C           24.092764        4.787557        2.175995
  O           24.283701        5.591839        1.305911
  O           24.519129        4.974891        3.433566
  H           24.041390        2.667943        2.303250
  H           23.040600        3.356491        1.000019
  H           22.520650        3.459224        2.700957
  H           24.981339        5.823994        3.511572
  C           21.716594        6.894377       13.896315
  C           20.532502        7.141470       13.007205
  O           19.563186        6.440249       12.911868
  O           20.673219        8.272478       12.300534
  H           22.614622        6.828290       13.287008
  H           21.573509        5.974514       14.453732
  H           21.833349        7.732619       14.578808
  H           19.900008        8.415539       11.732751
  C           17.627385       16.559222        2.441085
  C           17.979632       16.744939        3.888523
  O           18.828011       16.146555        4.490655
  O           17.218523       17.686638        4.464961
  H           16.581076       16.274921        2.360543
  H           18.258624       15.792854        2.003418
  H           17.761947       17.501574        1.915780
  H           17.459877       17.792719        5.398339
  C           16.974354       10.004145        7.696323
  C           16.092442        9.305657        6.702346
  O           16.447217        8.495067        5.891511
  O           14.814397        9.695355        6.816809
  H           16.910482       11.078111        7.539492
  H           17.999592        9.668729        7.579203
  H           16.621478        9.788842        8.701908
  H           14.260307        9.234408        6.167800
  C            8.381428       11.798497       12.842740
  C            8.450909       11.199949       14.217715
  O            8.791981       11.768251       15.218253
  O            8.077655        9.911913       14.214902
  H            9.030236       11.237573       12.174541
  H            8.688564       12.838592       12.877457
  H            7.363578       11.719911       12.468731
  H            8.128779        9.542486       15.110229
  C           22.034814       13.808137        3.346521
  C           21.558476       14.076187        1.948345
  O           21.918703       13.501987        0.957939
  O           20.651635       15.063603        1.916512
  H           22.475442       14.714321        3.754876
  H           22.765801       13.006298        3.339613
  H           21.185475       13.536494        3.968543
  H           20.355773       15.222573        1.006625
  C           26.502326       31.297116        8.833043
  C           27.642403       32.256517        9.015846
  O           28.454503       32.554102        8.183794
  O           27.662557       32.768985       10.254933
  H           26.594572       30.489271        9.554814
  H           26.512712       30.900295        7.823211
  H           25.564983       31.813956        9.023680
  H           28.404573       33.385599       10.354429
  C           12.402922       20.095965        9.087461
  C           13.895414       19.952636        9.012835
  O           14.518242       18.945663        9.208955
  O           14.487287       21.112252        8.691366
  H           12.151847       20.846582        9.832855
  H           11.953684       19.143488        9.348816
  H           12.027167       20.437010        8.125913
  H           15.449758       21.000648        8.647842
  C            4.517898       25.049037        6.490353
  C            4.474735       23.548959        6.450981
  O            3.523744       22.863442        6.707993
  O            5.655857       23.030527        6.084180
  H            5.284039       25.367152        7.193140
  H            3.550180       25.437988        6.789642
  H            4.785906       25.425759        5.506316
  H            5.609134       22.061960        6.064325
  C           11.189809       25.830655        9.938689
  C           12.493939       25.870817        9.196207
  O           13.583249       25.712025        9.674288
  O           12.311048       26.112209        7.889821
  H           10.678734       26.782535        9.817014
  H           11.370244       25.634038       10.990411
  H           10.559560       25.053080        9.514142
  H           13.163083       26.134554        7.426964
  C           27.499811       11.342351        8.051300
  C           26.040309       11.086532        8.292253
  O           25.511746       10.010287        8.344108
  O           25.358137       12.230215        8.450349
  H           27.613910       11.955168        7.160506
  H           28.023733       10.400261        7.927581
  H           27.911024       11.892759        8.893934
  H           24.418571       12.045617        8.604748
  C           23.707573       16.912574       10.304890
  C           24.615178       18.104313       10.403159
  O           25.807183       18.074099       10.539477
  O           23.930626       19.254440       10.319720
  H           22.974282       16.953541       11.106565
  H           24.289248       15.999337       10.375503
  H           23.174039       16.945582        9.358143
  H           24.532382       20.012283       10.385020
  C           28.078162       16.969618       11.811367
  C           27.021503       16.036915       12.328263
  O           27.214456       15.001892       12.904345
  O           25.788334       16.496446       12.070409
  H           27.956284       17.089397       10.737646
  H           29.062551       16.571519       12.034592
  H           27.953496       17.944847       12.275548
  H           25.119754       15.881895       12.411038
  C           17.472546       22.642519       13.246446
  C           18.904957       22.236029       13.055104
  O           19.466694       21.341465       13.624824
  O           19.519262       23.005871       12.144975
  H           17.434520       23.680201       13.568697
  H           17.003533       22.002853       13.986843
  H           16.948200       22.565011       12.297166
  H           20.442258       22.729060       12.034734
  C            4.882964       15.059275        3.236430
  C            5.269101       15.162353        4.683468
  O            5.813266       14.310857        5.330933
  O            4.930301       16.352066        5.201312
  H            3.809123       15.200237        3.141189
  H            5.169357       14.087970        2.846712
  H            5.377518       15.849154        2.676444
  H            5.187065       16.400430        6.135353
  C            9.576558       10.555062        5.815921
  C            8.583055        9.516034        5.383463
  O            8.466416        9.069143        4.275736
  O            7.806395        9.121068        6.402857
  H            9.044745       11.414474        6.216749
  H           10.188798       10.853834        4.971390
  H           10.201156       10.146505        6.606513
  H            7.171742        8.450756        6.105204
  C           26.405142       23.449787        9.473644
  C           25.410167       24.569672        9.571252
  O           25.189603       25.393196        8.726542
  O           24.765607       24.556324       10.747146
  H           27.127751       23.541092       10.280847
  H           26.909236       23.487116        8.513524
  H           25.888435       22.500248        9.589698
  H           24.127913       25.285721       10.792165
  C           17.045611       18.402458        8.237674
  C           16.020073       19.006564        7.322812
  O           16.107053       20.067103        6.767777
  O           14.952029       18.207837        7.182523
  H           16.597231       18.227093        9.212497
  H           17.895584       19.070428        8.330931
  H           17.363930       17.443703        7.835755
  H           14.301110       18.613776        6.589043
  C           17.017047        1.771027        7.671484
  C           16.537217        3.190665        7.761127
  O           16.868823        3.996801        8.586085
  O           15.663877        3.479174        6.785215
  H           16.164777        1.099612        7.741584
  H           17.720526        1.568362        8.472346
  H           17.491664        1.613480        6.706085
  H           15.365213        4.398989        6.858967
  C           31.816543        2.764913       11.425168
  C           31.151990        2.059559       12.571680
  O           31.708687        1.551231       13.505524
  O           29.817303        2.054654       12.441476
  H           31.547780        2.269525       10.495419
  H           32.893264        2.752293       11.558763
  H           31.456156        3.789570       11.377469
  H           29.405634        1.595458       13.190052
  C            2.004697       13.658535       13.733620
  C            2.729936       12.478356       13.154955
  O            2.284420       11.696306       12.361050
  O            3.978421       12.382216       13.634963
  H            1.967328       13.560765       14.815803
  H            0.999958       13.709396       13.327114
  H            2.552233       14.567295       13.496058
  H            4.430963       11.615287       13.250613
  C            5.410547       19.997683       13.856070
  C            4.736230       20.115923       12.520045
  O            4.327033       21.128969       12.023388
  O            4.632955       18.925114       11.912039
  H            4.840055       19.320239       14.486693
  H            5.479172       20.975100       14.322203
  H            6.403425       19.575987       13.720264
  H            4.195518       19.020874       11.051703
  C           17.761688        3.043927       10.676340
  C           16.993518        4.326758       10.810143
  O           15.800496        4.444083       10.752642
  O           17.809401        5.372343       11.008766
  H           18.452074        3.125193        9.840373
  H           17.075811        2.218400       10.516924
  H           18.344040        2.879102       11.579543
  H           17.296365        6.191147       11.092758
  C           20.277995        9.449601       15.945551
  C           21.680311        9.974041       15.835470
  O           22.416153        9.829554       14.898436
  O           22.042945       10.648661       16.936264
  H           20.207782        8.792890       16.809194
  H           20.014255        8.909811       15.042001
  H           19.595195       10.281738       16.098550
  H           22.950313       10.979505       16.847236
  C            9.290637       19.333296        3.320886
  C            7.959024       19.982958        3.562527
  O            6.884947       19.475745        3.390868
  O            8.096721       21.240204        4.008326
  H            9.845866       19.915375        2.589462
  H            9.146544       18.319607        2.961709
  H            9.859196       19.325963        4.247582
  H            7.227503       21.643398        4.158638
  C           20.645406       15.882439       12.668881
  C           21.900638       15.687742       13.468963
  O           23.020419       15.692146       13.037171
  O           21.633014       15.500526       14.769614
  H           20.008679       15.008555       12.782819
  H           20.894037       16.031073       11.623211
  H           20.105942       16.744823       13.052741
  H           22.454547       15.376705       15.270067
  C           25.603875        1.964833       11.625404
  C           24.190372        1.906343       12.127634
  O           23.833136        2.110361       13.255079
  O           23.331056        1.589778       11.147978
  H           25.875708        0.998904       11.206877
  H           26.273868        2.222546       12.439055
  H           25.672361        2.706575       10.833441
  H           22.424233        1.556684       11.490434
  C           30.094362       26.244439        9.488917
  C           28.613201       26.277691        9.731206
  O           28.060540       26.007335       10.761665
  O           27.941780       26.655921        8.633709
  H           30.309530       25.551589        8.679140
  H           30.608975       25.935651       10.392886
  H           30.430001       27.232860        9.184867
  H           26.987942       26.671611        8.808769
  C           22.414805       30.952232        6.678395
  C           22.519958       30.364571        5.300990
  O           21.870930       29.450555        4.872377
  O           23.451574       30.990451        4.567007
  H           23.378042       30.872853        7.176341
  H           21.654797       30.426116        7.246660
  H           22.161984       32.006733        6.599742
  H           23.505357       30.597945        3.681713
  C           31.547392       29.556837        5.089852
  C           30.116314       29.135892        4.921134
  O           29.161911       29.863550        4.922689
  O           30.007558       27.808808        4.761804
  H           31.968685       29.054805        5.957350
  H           31.602666       30.633077        5.216284
  H           32.116133       29.251936        4.214839
  H           29.077460       27.555639        4.654458
  C            6.216294       15.006926       14.682074
  C            5.636352       16.390013       14.748284
  O            5.109566       16.978257       13.844493
  O            5.772103       16.924278       15.970780
  H            7.271345       15.047964       14.941422
  H            6.091519       14.602260       13.683069
  H            5.714926       14.372947       15.409245
  H            5.392347       17.816420       15.994621
  C           19.272372        8.424552        5.143218
  C           18.718989        7.032542        5.044635
  O           17.560624        6.726980        5.116728
  O           19.690652        6.126901        4.860113
  H           19.972350        8.473913        5.973683
  H           18.464058        9.132966        5.291922
  H           19.814791        8.659979        4.230840
  H           19.315014        5.234802        4.798831
  C            9.115961       32.708976       10.092693
  C            9.051688       32.178633        8.689749
  O            8.965635       31.023608        8.375291
  O            9.102272       33.167495        7.785339
  H           10.039349       33.268072       10.222475
  H            9.073050       31.887128       10.799842
  H            8.284064       33.389436       10.257010
  H            9.059624       32.806588        6.886103
  C           24.554124        9.741265       10.467778
  C           25.895270       10.415771       10.471728
  O           26.940020        9.910669       10.165551
  O           25.804127       11.693471       10.868638
  H           24.131840        9.777516       11.468996
  H           24.660340        8.711417       10.143020
  H           23.884886       10.278319        9.800118
  H           26.678819       12.112520       10.864954
  C           10.591627        8.811517       15.413599
  C           11.045298       10.232822       15.580092
  O           10.629733       11.015982       16.389004
  O           12.002072       10.552394       14.696451
  H           10.210317        8.672907       14.404903
  H            9.819237        8.583470       16.140746
  H           11.441130        8.146240       15.547124
  H           12.282387       11.472805       14.818788
  C           13.420477        6.579420       14.390303
  C           14.445754        7.284125       15.230449
  O           15.633887        7.258283       15.062983
  O           13.875907        7.974466       16.228982
  H           12.849339        5.899315       15.017468
  H           13.911046        6.031012       13.592854
  H           12.733062        7.311958       13.974460
  H           14.552473        8.422437       16.760282
  C            2.577609       11.150952        4.623510
  C            2.947420       12.596339        4.456953
  O            4.061768       13.041361        4.433347
  O            1.861101       13.372645        4.331953
  H            1.953059       11.040329        5.506559
  H            3.475436       10.549653        4.721896
  H            2.001369       10.826755        3.760421
  H            2.119018       14.301537        4.225473
  C            2.003544       25.366783       13.866298
  C            1.642458       23.988089       13.394636
  O            1.265925       23.695151       12.293371
  O            1.789326       23.078653       14.369172
  H            1.369099       25.635386       14.707374
  H            1.874821       26.078617       13.057560
  H            3.035598       25.369676       14.208252
  H            1.551899       22.195285       14.046699
  C           11.099761       13.505446        5.339014
  C           11.935172       13.012502        4.193265
  O           12.551895       11.983427        4.161177
  O           11.922143       13.874480        3.166042
  H           11.480647       14.467717        5.672235
  H           11.130124       12.788332        6.152747
  H           10.076045       13.646854        5.001249
  H           12.466305       13.539925        2.436207
  C           11.153259       23.644682       12.708780
  C           11.447306       23.451552       11.249369
  O           10.676110       23.052219       10.421019
  O           12.711971       23.784323       10.952300
  H           11.833518       23.032230       13.295488
  H           10.125114       23.367764       12.917514
  H           11.322970       24.685360       12.973855
  H           12.883498       23.653326       10.006721
  C            5.598111       32.027767       10.917400
  C            4.301704       32.128367       10.167164
  O            3.481451       31.259327       10.056130
  O            4.146242       33.338299        9.610155
  H            6.422779       32.218073       10.234918
  H            5.694789       31.039855       11.355599
  H            5.622024       32.787321       11.694950
  H            3.304568       33.384730        9.130437
  C           20.350271       25.437101        2.480788
  C           20.224024       25.131829        3.945205
  O           19.314806       25.456971        4.657931
  O           21.274019       24.429573        4.395439
  H           21.261999       26.004340        2.310296
  H           19.487917       26.004677        2.146815
  H           20.424335       24.505254        1.925583
  H           21.175266       24.241872        5.341861
  C           31.600698       29.836923        9.416997
  C           31.318776       31.255411        9.819563
  O           30.942922       31.621092       10.899092
  O           31.538593       32.108529        8.808507
  H           30.964863       29.569857        8.576481
  H           31.414135       29.172121       10.253995
  H           32.636131       29.754645        9.095772
  H           31.351562       33.018695        9.086565
  C           19.015282       11.964220        9.705896
  C           19.873069       10.736748        9.600272
  O           20.412144       10.172070       10.511815
  O           19.980631       10.317329        8.331067
  H           19.448066       12.756988        9.100673
  H           18.947473       12.278563       10.742200
  H           18.024997       11.744087        9.314802
  H           20.537463        9.524700        8.282299
  C           12.245661       13.837879        9.135914
  C           11.805100       13.703869       10.564757
  O           12.192019       14.366533       11.487548
  O           10.897340       12.727833       10.712028
  H           12.673697       12.895517        8.803024
  H           12.978244       14.633564        9.049065
  H           11.381079       14.053981        8.513118
  H           10.624787       12.655961       11.640063
  C            1.745781       16.102605        7.575211
  C            3.120965       16.342423        8.127479
  O            3.924582       15.497446        8.411359
  O            3.371256       17.651276        8.277888
  H            1.009062       16.534581        8.248056
  H            1.573346       15.037014        7.465131
  H            1.654749       16.599081        6.612246
  H            4.262730       17.786796        8.635113
  C            2.848401       30.048062       12.096279
  C            2.857676       31.380160       12.788432
  O            3.801281       32.114328       12.893211
  O            1.654437       31.679464       13.299311
  H            2.557288       29.277528       12.805933
  H            3.833425       29.834496       11.694468
  H            2.112239       30.064991       11.296370
  H            1.679442       32.542109       13.741936
  C            2.079300        7.791416        9.596991
  C            2.182010        7.904315        8.103556
  O            3.175559        7.741537        7.450305
  O            1.001758        8.218656        7.549877
  H            1.731370        8.737321       10.004772
  H            3.047711        7.536807       10.014948
  H            1.348785        7.026663        9.849138
  H            1.087239        8.287212        6.586190
  C           24.714856       30.223588       12.911724
  C           23.787228       31.030445       12.050253
  O           24.061452       31.531645       10.994804
  O           22.570006       31.139158       12.602444
  H           24.803021       30.698313       13.885859
  H           25.689237       30.153637       12.439470
  H           24.296090       29.230853       13.057290
  H           21.985190       31.662810       12.032814
  C           10.058137       20.740487       12.311794
  C            9.061836       21.366159       13.244299
  O            7.890289       21.513629       13.029582
  O            9.637401       21.760212       14.389642
  H           10.843018       21.459697       12.090939
  H            9.563573       20.432725       11.396358
  H           10.514744       19.882238       12.798617
  H            8.979611       22.161392       14.978766
  C           15.385960        4.366002       15.332925
  C           16.036821        4.508151       13.987629
  O           15.473125        4.513582       12.928105
  O           17.367725        4.633731       14.093877
  H           15.790632        3.491312       15.836150
  H           14.312013        4.266565       15.214249
  H           15.617587        5.239682       15.937168
  H           17.770538        4.724309       13.216246
  C           15.041454       13.672609       13.701730
  C           13.551441       13.826555       13.800760
  O           12.733444       13.151036       13.239575
  O           13.212539       14.837694       14.613846
  H           15.472952       14.596828       13.325292
  H           15.283704       12.848664       13.038582
  H           15.449410       13.489338       14.692720
  H           12.247695       14.921994       14.665510
  C           26.119902       27.763962       11.099914
  C           25.366327       28.675045       10.174875
  O           24.492571       29.435022       10.490089
  O           25.785781       28.548600        8.907424
  H           25.984861       26.734458       10.777481
  H           25.758826       27.888928       12.115465
  H           27.180503       27.997247       11.047199
  H           25.288497       29.143823        8.325086
  C           21.708881       28.645611       15.045536
  C           20.209628       28.715871       15.076337
  O           19.477978       28.593280       14.132921
  O           19.751213       28.938834       16.316702
  H           22.119173       29.581123       15.417765
  H           22.048730       28.464786       14.031071
  H           22.043694       27.846016       15.701756
  H           18.782236       28.981067       16.317206
  C           14.370398       22.247239       12.005842
  C           14.433028       23.231975       13.137221
  O           15.117312       23.136647       14.118567
  O           13.612595       24.272694       12.931895
  H           13.350326       21.885816       11.901418
  H           15.043362       21.418664       12.200568
  H           14.647442       22.746414       11.080560
  H           13.666308       24.897477       13.671801
  C           27.730327       21.803879       15.905117
  C           26.240247       21.659386       16.016593
  O           25.451703       22.555664       16.140113
  O           25.863455       20.373540       15.961908
  H           28.205115       21.255307       16.714884
  H           28.003588       22.852887       15.952508
  H           28.062918       21.371417       14.964672
  H           24.899164       20.299725       16.035355
  C           22.277639        7.315564        3.623639
  C           22.646211        8.345960        2.595980
  O           23.451640        8.209050        1.716825
  O           21.955487        9.482662        2.766778
  H           22.477289        7.711960        4.616155
  H           22.851663        6.409512        3.459623
  H           21.213568        7.103772        3.553111
  H           22.206361       10.135662        2.094950
  C           20.350700        4.790702        8.036094
  C           19.301927        5.843487        8.249085
  O           18.296233        5.717736        8.891844
  O           19.615553        6.986734        7.622196
  H           20.455520        4.599653        6.970923
  H           20.069282        3.879818        8.554195
  H           21.304948        5.154979        8.408640
  H           18.927726        7.654209        7.770762
  C           28.270689       15.454662       15.847143
  C           29.103829       14.500014       15.042052
  O           28.756220       13.926391       14.046815
  O           30.327188       14.346498       15.569488
  H           28.179526       15.080985       16.864066
  H           27.289057       15.557799       15.396481
  H           28.769115       16.420123       15.886294
  H           30.850383       13.727322       15.036958
  C            9.913939       27.024380       14.527328
  C            8.419851       27.097994       14.653534
  O            7.636333       27.141659       13.745479
  O            8.032869       27.110560       15.937454
  H           10.358508       27.880680       15.028513
  H           10.195446       27.015835       13.479466
  H           10.271138       26.123059       15.019373
  H            7.066130       27.158293       15.999392
  C           25.379537       11.434916        1.516442
  C           25.156764       11.224661        2.986072
  O           25.831387       11.670541        3.872890
  O           24.082594       10.455942        3.217576
  H           25.516552       10.470654        1.033222
  H           26.253453       12.059121        1.361612
  H           24.500171       11.906370        1.084558
  H           23.954473       10.331156        4.170841
  C           18.046274       10.469161       13.473909
  C           16.679212        9.860138       13.591711
  O           16.427019        8.686779       13.590783
  O           15.728295       10.799174       13.702755
  H           18.076244       11.116272       12.600738
  H           18.792333        9.686239       13.385796
  H           18.243833       11.078859       14.352155
  H           14.853154       10.387821       13.777708
  C           16.979585       24.190715        3.127648
  C           16.449432       23.182598        2.149749
  O           17.005247       22.803705        1.155826
  O           15.241212       22.729128        2.514350
  H           16.286557       25.025935        3.192428
  H           17.955964       24.538099        2.806179
  H           17.049059       23.733366        4.111559
  H           14.915061       22.079865        1.871868
  C            7.311242        6.677852       10.072256
  C            7.088992        5.225639       10.381007
  O            6.195240        4.773596       11.042247
  O            8.029598        4.451986        9.819683
  H            8.289555        6.976841       10.440478
  H            6.536156        7.276820       10.538961
  H            7.298570        6.821094        8.994574
  H            7.870059        3.518607       10.029566
  C           17.599351       26.173374        7.794543
  C           18.701578       25.222415        7.427914
  O           19.761718       25.123778        7.981762
  O           18.367874       24.462306        6.374709
  H           17.380907       26.813920        6.943626
  H           17.898463       26.773077        8.647904
  H           16.701278       25.607467        8.029684
  H           19.090822       23.855094        6.152589
  C           27.360152        2.849365        2.165585
  C           28.625286        3.654228        2.092960
  O           29.078565        4.168941        1.108082
  O           29.222898        3.743727        3.290129
  H           27.591153        1.850581        2.527725
  H           26.900858        2.795085        1.184036
  H           26.679123        3.315367        2.873483
  H           30.037240        4.266384        3.223970
  C           27.349625        4.186214        8.972844
  C           26.135781        5.069303        8.992407
  O           25.010320        4.716871        9.214898
  O           26.449294        6.345436        8.724902
  H           27.818745        4.243576        7.993705
  H           27.064409        3.162568        9.192243
  H           28.064310        4.543088        9.710369
  H           25.653987        6.900322        8.741856
  C           13.194144       28.069395        4.816585
  C           12.867987       26.652363        4.443374
  O           11.777631       26.224863        4.181194
  O           13.964202       25.879997        4.432068
  H           13.654257       28.083697        5.801556
  H           12.289246       28.668139        4.817044
  H           13.910199       28.471812        4.104262
  H           13.734554       24.969505        4.189239
  C           27.312461       32.355623       12.873710
  C           28.576767       32.420645       13.680524
  O           29.275030       33.386546       13.821369
  O           28.858967       31.240758       14.252007
  H           27.419008       31.598181       12.101048
  H           27.111301       33.322846       12.424990
  H           26.489068       32.063434       13.520800
  H           29.677740       31.301694       14.768337
  C           20.163737       29.311955       11.813473
  C           19.037325       30.286510       11.626162
  O           17.866480       30.023459       11.643450
  O           19.490658       31.533143       11.429286
  H           20.801437       29.327819       10.933038
  H           19.766147       28.314610       11.970186
  H           20.762278       29.616144       12.668631
  H           18.750076       32.148050       11.310427
  C           20.702987       32.741388        4.889711
  C           20.012008       32.550822        6.208755
  O           20.336718       33.044732        7.253260
  O           18.950626       31.738780        6.097318
  H           21.027776       31.774839        4.512388
  H           21.555400       33.401516        5.012016
  H           20.000770       33.163502        4.175016
  H           18.517442       31.627498        6.957938
  C           16.354924       13.385882        1.866311
  C           17.299908       13.935222        2.895328
  O           16.990649       14.523340        3.894753
  O           18.578310       13.692164        2.571332
  H           16.573509       13.837442        0.901743
  H           15.330881       13.597771        2.155747
  H           16.505690       12.312783        1.777963
  H           19.173462       14.053684        3.246459
  C           20.291993       21.148443        6.855292
  C           20.596210       21.255953        5.389161
  O           21.204938       20.455359        4.734278
  O           20.098100       22.384425        4.863041
  H           20.716943       22.004769        7.373171
  H           20.706853       20.227370        7.251337
  H           19.214612       21.167672        7.000058
  H           20.304035       22.436640        3.916699
  C           12.316564       24.620946       15.850586
  C           12.902254       25.950609       15.472951
  O           12.587962       26.616529       14.525246
  O           13.852072       26.335297       16.337951
  H           13.106760       23.874491       15.872333
  H           11.552987       24.337439       15.133712
  H           11.888816       24.688035       16.847886
  H           14.218458       27.195012       16.078429
  C           10.661602       30.208237       13.320267
  C           11.647898       29.195961       13.826392
  O           12.132126       28.302283       13.188242
  O           11.945739       29.399758       15.117950
  H            9.751845       30.149444       13.912688
  H           10.441080       30.017569       12.275111
  H           11.078026       31.205370       13.440238
  H           12.583247       28.737427       15.427142
  C           26.156607       21.003044        7.465591
  C           25.261159       22.173285        7.178618
  O           24.097337       22.256800        7.459541
  O           25.920849       23.157299        6.550216
  H           26.561938       20.624223        6.530562
  H           25.595565       20.225254        7.973143
  H           26.987829       21.331248        8.084808
  H           25.327400       23.903762        6.373267
  C           13.754680       20.816423       15.983074
  C           12.300310       20.756619       15.615815
  O           11.772838       21.359637       14.722218
  O           11.621522       19.926385       16.420999
  H           13.850858       21.154723       17.011850
  H           14.275953       21.494531       15.315407
  H           14.182803       19.819366       15.914772
  H           10.685244       19.900532       16.169175
  C            9.612729        4.646343        1.992766
  C            9.549381        4.243876        3.437637
  O            8.664643        4.506096        4.205004
  O           10.626590        3.531792        3.799467
  H           10.508588        5.239060        1.824836
  H            8.729585        5.219671        1.730687
  H            9.678171        3.754191        1.374819
  H           10.568362        3.280959        4.734556
  C           22.715875       18.723668       13.094579
  C           24.162234       18.443816       13.383323
  O           24.602577       17.441075       13.874223
  O           24.945454       19.470683       13.022112
  H           22.409167       19.616751       13.633477
  H           22.108937       17.876623       13.397028
  H           22.592891       18.912932       12.031032
  H           25.874870       19.272277       13.215814
  C           27.748123        5.949472        3.230895
  C           27.997755        5.139082        4.469683
  O           27.433343        4.124896        4.775036
  O           28.955426        5.685910        5.232710
  H           27.450633        6.955889        3.514976
  H           26.970189        5.482812        2.635595
  H           28.668869        6.019580        2.656972
  H           29.102872        5.149625        6.027290
  C           10.834847       22.570618        3.367835
  C           10.298075       22.521513        1.966725
  O           10.823639       22.986436        0.993071
  O            9.122532       21.878615        1.910641
  H           10.117275       23.076732        4.008940
  H           11.784325       23.095652        3.380707
  H           10.961581       21.556503        3.738761
  H            8.791555       21.856775        0.999226
  C            3.208612       27.333610        3.636380
  C            2.621038       27.176291        5.008843
  O            1.625635       26.565063        5.284426
  O            3.351527       27.814596        5.934757
  H            3.260196       28.390761        3.387690
  H            2.596881       26.807477        2.910912
  H            4.220784       26.936663        3.632258
  H            2.957428       27.702100        6.813808
  C           12.141094        8.062499        5.846518
  C           10.944212        7.161041        5.938675
  O           10.953916        5.964136        5.850937
  O            9.815630        7.857617        6.137297
  H           12.000837        8.761549        5.025705
  H           13.036575        7.471127        5.686121
  H           12.229535        8.635820        6.766060
  H            9.054099        7.259674        6.194173
  C           17.491360       21.982703        9.754938
  C           17.964395       22.476514        8.418513
  O           18.980158       23.080255        8.208526
  O           17.100948       22.161610        7.441958
  H           16.521891       22.422076        9.976658
  H           18.209206       22.252085       10.522704
  H           17.370958       20.902864        9.715838
  H           17.422564       22.488107        6.587170
  C           15.228858       19.616340        2.870859
  C           14.195888       20.069368        3.861507
  O           13.023495       20.207421        3.645152
  O           14.738344       20.314521        5.063174
  H           15.991179       20.385109        2.771171
  H           14.760527       19.426377        1.910695
  H           15.707682       18.712837        3.240300
  H           14.057200       20.605634        5.689269
  C           29.549422       14.179893        8.134607
  C           28.619488       14.542036        9.256088
  O           27.846855       15.460381        9.263389
  O           28.744610       13.700296       10.292517
  H           30.574304       14.205127        8.496626
  H           29.425095       14.877364        7.312773
  H           29.333892       13.167051        7.803285
  H           28.137133       13.949365       11.006405
  C            7.494643       31.142796       13.645759
  C            8.069254       32.367167       14.297207
  O            7.479148       33.386396       14.528116
  O            9.362974       32.199904       14.608136
  H            8.056045       30.921116       12.741456
  H            6.449332       31.308561       13.406629
  H            7.595673       30.296720       14.321055
  H            9.716726       32.999760       15.027409
  C           20.415933       17.690367        5.754636
  C           20.555417       17.487401        4.273760
  O           19.809225       17.903920        3.431097
  O           21.643837       16.763188        3.975058
  H           20.348989       16.721961        6.244315
  H           19.528390       18.278318        5.964200
  H           21.300296       18.198191        6.131589
  H           21.717503       16.642447        3.015530
  C           25.892837        1.820280        7.140729
  C           24.951162        1.796961        8.309639
  O           24.959816        0.999958        9.206904
  O           24.061916        2.798819        8.247299
  H           25.322067        1.737625        6.219063
  H           26.598446        0.999746        7.219306
  H           26.421733        2.770078        7.125552
  H           23.462784        2.767843        9.009390
  C           15.734834       26.545993       13.391409
  C           15.121301       26.153402       12.078742
  O           14.196470       26.697642       11.541280
  O           15.736942       25.088326       11.544923
  H           15.669131       25.709029       14.082242
  H           15.216488       27.408457       13.797374
  H           16.786545       26.776750       13.240634
  H           15.327751       24.849488       10.698626
  C           21.961830        7.587890       10.132965
  C           20.648274        6.861106       10.133926
  O           19.581948        7.330494        9.845833
  O           20.792855        5.580522       10.504824
  H           22.393677        7.548869       11.129992
  H           21.812528        8.618864        9.829427
  H           22.645953        7.090695        9.449701
  H           19.935286        5.127479       10.499603
  C           29.690011       23.246682       11.141496
  C           29.621047       23.297010       12.640281
  O           29.112585       22.474594       13.351245
  O           30.209763       24.400185       13.124825
  H           29.199894       24.125857       10.730506
  H           29.206540       22.344966       10.780249
  H           30.731476       23.264856       10.829892
  H           30.155579       24.415566       14.093085
  C           32.375889       12.223519        6.913123
  C           31.150814       11.709867        6.213839
  O           30.913045       10.561387        5.959216
  O           30.313777       12.705887        5.888758
  H           32.890156       12.927968        6.264002
  H           33.032092       11.396207        7.162698
  H           32.078333       12.752072        7.815436
  H           29.529293       12.355735        5.438560
  C           26.714593       14.045533        5.933780
  C           25.893660       14.181393        7.183283
  O           26.316439       14.204680        8.306264
  O           24.585139       14.278179        6.906206
  H           26.395692       13.159673        5.390060
  H           27.766211       13.969515        6.190015
  H           26.544792       14.910722        5.297625
  H           24.071234       14.365116        7.724157
  C           18.204840       24.778127       10.569692
  C           18.514585       26.241934       10.692050
  O           19.559409       26.767058       10.421938
  O           17.461544       26.932540       11.153062
  H           17.918769       24.389722       11.544054
  H           19.074016       24.247402       10.195261
  H           17.363761       24.645116        9.893696
  H           17.679825       27.874777       11.225466
  C            7.493183       12.322015        8.619709
  C            7.317645       10.847095        8.837524
  O            6.340581       10.310960        9.282808
  O            8.408812       10.160269        8.468756
  H            8.348187       12.669824        9.194230
  H            6.595970       12.849384        8.926671
  H            7.696158       12.507231        7.567771
  H            8.277315        9.210737        8.616393
  C            7.277841       17.252949        1.524078
  C            7.424115       16.742397        2.928210
  O            7.220400       17.368667        3.931534
  O            7.822151       15.461968        2.949007
  H            8.231463       17.164441        1.009444
  H            6.955517       18.288895        1.540160
  H            6.551101       16.641847        0.994475
  H            7.911119       15.149718        3.862946
  C            7.345472       28.282994        4.785444
  C            5.974471       28.490997        5.360540
  O            4.970363       28.693940        4.735276
  O            5.985574       28.424321        6.699867
  H            8.017575       29.042262        5.177704
  H            7.304063       28.342475        3.702817
  H            7.719600       27.309883        5.093922
  H            5.092705       28.560808        7.053215
  C           20.202045        2.420347       13.473664
  C           20.873727        2.870545       14.738500
  O           21.623307        2.217133       15.410479
  O           20.537387        4.129552       15.054953
  H           19.123852        2.483991       13.598275
  H           20.493157        1.400512       13.244482
  H           20.487090        3.083790       12.660849
  H           20.980039        4.402842       15.873532
  C            2.739202       31.357204        2.979690
  C            1.991141       30.181473        3.537996
  O            1.846638       29.924969        4.701481
  O            1.479146       29.414511        2.564345
  H            3.544420       30.999847        2.342511
  H            3.140619       31.957211        3.789746
  H            2.065565       31.953381        2.369065
  H            1.000134       28.661052        2.943220
  C            8.713662        5.928708       14.038367
  C            9.907087        5.239811       13.442713
  O           10.082598        5.014078       12.277117
  O           10.794568        4.887312       14.384246
  H            8.235050        5.263031       14.752426
  H            8.015427        6.200969       13.253716
  H            9.042273        6.816474       14.573122
  H           11.557649        4.444310       13.981559
  C            4.163148       14.984875       11.189400
  C            2.688300       14.921529       10.916533
  O            2.006306       15.822268       10.511654
  O            2.188871       13.705624       11.182070
  H            4.345210       14.741485       12.233283
  H            4.537141       15.978553       10.965640
  H            4.672958       14.245169       10.577023
  H            1.236432       13.683544       11.000213
  C           25.113490       13.489265       13.284152
  C           24.722566       12.210890       13.967219
  O           24.788400       11.991662       15.145344
  O           24.273468       11.300337       13.091109
  H           25.889785       13.281397       12.551871
  H           25.471847       14.204377       14.017317
  H           24.252024       13.891819       12.756987
  H           24.026006       10.482307       13.549682
  C            4.636752       23.589407       12.606276
  C            4.770542       23.031330       13.993466
  O            3.898103       22.509280       14.631186
  O            6.015793       23.181389       14.468016
  H            4.891758       24.646235       12.619062
  H            3.620716       23.453437       12.250582
  H            5.336451       23.081858       11.946813
  H            6.083279       22.815645       15.363771
  C           30.183610       12.155833       12.396847
  C           31.663423       12.025581       12.180435
  O           32.478587       11.759355       13.020080
  O           31.996450       12.246036       10.900257
  H           29.866061       13.155218       12.109673
  H           29.945928       11.972334       13.439522
  H           29.664436       11.441876       11.762182
  H           32.954745       12.157750       10.779524
  C           29.944683        3.089434        8.377172
  C           31.145555        2.191585        8.303550
  O           31.137133        0.994065        8.382594
  O           32.276210        2.892317        8.133379
  H           30.066039        3.782955        9.205651
  H           29.047598        2.494745        8.514719
  H           29.873883        3.669079        7.460070
  H           33.040306        2.296660        8.088125
  C           26.833432       31.250568       15.960446
  C           27.277110       30.037855       15.194861
  O           26.680182       29.514068       14.295028
  O           28.457492       29.579681       15.636605
  H           26.749386       30.997930       17.014575
  H           25.877793       31.596972       15.580849
  H           27.582831       32.031824       15.859854
  H           28.727776       28.797274       15.131150
  C           23.103551        2.934599        5.152618
  C           22.824367        4.408205        5.087916
  O           21.810258        4.917760        4.697647
  O           23.866458        5.127943        5.528811
  H           23.978241        2.708704        4.547666
  H           22.244061        2.380262        4.790233
  H           23.323610        2.656367        6.180353
  H           23.668247        6.076101        5.479733
  C           11.785531        7.482705        2.777298
  C           13.154295        7.926341        3.205455
  O           13.490767        9.055507        3.433804
  O           13.998559        6.889834        3.311448
  H           11.856632        6.977236        1.817338
  H           11.126804        8.341505        2.700636
  H           11.395179        6.773792        3.503345
  H           14.876489        7.195035        3.588562
  C            9.438694       28.980526        1.678854
  C            8.438148       30.040856        1.320728
  O            8.690092       31.171221        1.005810
  O            7.181542       29.577890        1.391222
  H            9.241463       28.628013        2.688265
  H           10.443587       29.384445        1.612719
  H            9.327075       28.138603        1.000043
  H            6.549869       30.275596        1.156926
  C           24.434646        4.202161       15.982877
  C           25.004718        2.814097       15.938776
  O           26.152030        2.528733       15.732343
  O           24.062810        1.886198       16.162776
  H           23.654349        4.293122       15.231253
  H           25.219000        4.928885       15.798497
  H           23.985159        4.374128       16.957796
  H           24.448845        0.997021       16.130530
  C           17.502121        8.811033       10.739182
  C           16.458977        9.859459       10.996669
  O           16.587432       11.040103       10.823598
  O           15.321249        9.320819       11.459060
  H           17.707288        8.275259       11.662724
  H           18.408716        9.276606       10.366809
  H           17.121114        8.097207       10.012984
  H           14.659965       10.011967       11.619428
  C           30.641345       20.126535       16.286409
  C           30.963214       20.653372       14.918020
  O           30.256122       20.583704       13.950786
  O           32.171491       21.234136       14.884203
  H           31.397118       19.401424       16.578125
  H           29.660008       19.663619       16.281825
  H           30.666689       20.945676       17.000861
  H           32.362022       21.568019       13.993743
  C            7.193497       11.593469        3.469523
  C            6.667380       10.688545        4.545608
  O            6.318133        9.549434        4.401293
  O            6.625309       11.307662        5.734426
  H            6.555697       12.470868        3.395631
  H            7.215522       11.065414        2.521891
  H            8.193503       11.925383        3.737662
  H            6.283404       10.708683        6.416354
  C           30.996565       29.230651        1.925987
  C           31.115203       27.734365        1.899543
  O           30.776901       27.015514        1.000000
  O           31.660323       27.262278        3.030182
  H           30.381673       29.526452        2.772443
  H           30.553199       29.581759        0.999983
  H           31.983965       29.666117        2.058229
  H           31.728979       26.295450        2.995141
  C           14.840333       29.903088       13.932270
  C           14.911493       31.401963       13.888039
  O           13.983550       32.148318       13.738874
  O           16.169623       31.841140       14.038366
  H           15.461886       29.491334       13.140937
  H           13.812282       29.578976       13.808185
  H           15.231770       29.553712       14.884526
  H           16.196125       32.810173       14.007196
  C           12.584761        3.765790       11.099676
  C           13.204090        2.399079       11.053017
  O           12.613939        1.355047       11.098757
  O           14.539568        2.465458       10.950763
  H           12.983929        4.311200       11.951304
  H           11.506326        3.679240       11.182273
  H           12.849616        4.310239       10.196623
  H           14.921778        1.574511       10.921994
  C            5.564189       23.002810        9.141427
  C            6.622887       22.532436       10.096179
  O            7.519371       23.196427       10.538677
  O            6.458777       21.241027       10.418197
  H            5.602694       22.399236        8.237938
  H            5.723469       24.048686        8.900373
  H            4.585888       22.867083        9.595940
  H            7.150710       20.955111       11.034785
  C           29.576852        5.820660       13.709124
  C           30.872346        6.568288       13.837166
  O           31.594288        6.888872       12.933618
  O           31.153218        6.853736       15.117007
  H           29.638694        4.896470       14.278445
  H           29.377514        5.604653       12.664643
  H           28.773452        6.421502       14.128187
  H           31.992319        7.336037       15.180204
  C           17.372291        8.495870       16.303437
  C           18.195401        7.596596       15.427400
  O           18.252188        7.637813       14.229297
  O           18.890037        6.705068       16.149220
  H           16.683269        7.892571       16.889403
  H           16.823160        9.204346       15.692002
  H           18.027842        9.023296       16.992023
  H           19.415036        6.133581       15.567432
  C           28.372896       16.926633        6.040454
  C           29.028916       18.224355        5.667362
  O           29.500868       19.021412        6.430471
  O           29.034534       18.410836        4.339372
  H           27.349793       16.923543        5.672586
  H           28.383759       16.804602        7.118566
  H           28.904654       16.106441        5.564432
  H           29.461598       19.252878        4.117375
  C           16.876785       12.127082        5.026685
  C           15.632263       12.515862        5.770768
  O           15.083015       11.864517        6.616020
  O           15.177126       13.714940        5.379070
  H           16.663401       12.100088        3.960939
  H           17.219953       11.154847        5.364813
  H           17.645417       12.876796        5.197593
  H           14.373960       13.949184        5.869736
  C           19.373697       15.423369        9.644380
  C           20.672066       14.707695        9.880373
  O           20.819740       13.710056       10.530974
  O           21.693162       15.321598        9.264865
  H           19.454632       16.443212       10.012411
  H           18.568580       14.904044       10.153717
  H           19.176686       15.465296        8.575967
  H           22.522468       14.845927        9.428228
  C            7.401209       17.252136       12.467276
  C            8.173697       17.735231       13.660393
  O            8.461577       17.083053       14.625879
  O            8.524329       19.023328       13.533010
  H            6.506384       17.858495       12.350251
  H            7.132438       16.209270       12.599664
  H            8.009157       17.372651       11.573994
  H            9.021789       19.317579       14.311887
  C            6.517591       30.743934        3.738203
  C            6.215114       32.186484        3.453244
  O            5.957284       33.027913        4.269267
  O            6.264185       32.451032        2.139482
  H            5.797309       30.117251        3.218068
  H            6.470293       30.561419        4.806747
  H            7.508232       30.504010        3.359861
  H            6.066461       33.386144        1.974646
  C           15.934676        9.493374        2.898190
  C           17.386012        9.285378        2.575688
  O           18.159645       10.133539        2.225704
  O           17.745824        8.002112        2.724439
  H           15.329345        8.871923        2.242866
  H           15.674399       10.538772        2.768836
  H           15.747534        9.184003        3.923542
  H           18.685155        7.886909        2.512105
  C            3.799230       19.903007        2.992164
  C            4.282731       18.515517        2.684359
  O            5.275786       18.001448        3.120190
  O            3.458210       17.881881        1.837580
  H            3.727456       20.470778        2.067739
  H            4.485469       20.388904        3.677959
  H            2.806218       19.847242        3.431362
  H            3.786027       16.988438        1.650508
  C           23.666200        4.793430       11.622763
  C           24.924558        5.540454       11.287900
  O           24.986803        6.644860       10.822298
  O           26.018062        4.818664       11.573615
  H           23.640706        3.863799       11.059546
  H           22.800876        5.401796       11.381017
  H           23.667275        4.546100       12.681491
  H           26.820175        5.316449       11.351074
  C            5.982227       32.107475        7.433245
  C            6.095592       30.734718        8.030182
  O            7.053760       30.014783        7.967091
  O            4.970717       30.379220        8.667867
  H            5.150699       32.126191        6.733040
  H            6.905563       32.366071        6.925393
  H            5.774212       32.825468        8.222733
  H            5.062264       29.490987        9.046497
  C           21.057681       32.939195        9.606805
  C           21.132665       31.446331        9.467587
  O           20.220428       30.716625        9.192404
  O           22.374190       30.991378        9.691186
  H           21.369003       33.221666       10.609484
  H           20.043308       33.276361        9.420521
  H           21.742377       33.399931        8.898999
  H           22.403445       30.026507        9.597013
  C           15.074403       16.866089       14.948343
  C           16.315525       16.027675       15.049950
  O           16.478891       15.095556       15.788082
  O           17.263083       16.442973       14.196706
  H           15.323289       17.902261       15.163935
  H           14.328125       16.506421       15.649088
  H           14.690380       16.816104       13.932417
  H           18.056274       15.890514       14.276315
  C           12.757493       17.685259        2.302369
  C           11.967955       18.743232        1.587548
  O           10.863218       18.615191        1.136400
  O           12.650527       19.894258        1.500378
  H           13.688851       17.511494        1.769027
  H           12.180223       16.768130        2.356857
  H           13.001990       18.034924        3.302385
  H           12.125679       20.564988        1.036314
  C           14.763698       23.833892        6.637960
  C           14.833848       22.897839        5.466410
  O           15.789032       22.250215        5.136896
  O           13.672505       22.856704        4.797114
  H           14.516654       24.832057        6.284814
  H           15.715866       23.845495        7.158129
  H           13.972953       23.508730        7.309578
  H           13.736488       22.247864        4.044838
  C           32.241002       19.532756       11.319810
  C           30.948599       20.289648       11.422063
  O           30.798891       21.364175       11.935242
  O           29.935679       19.615433       10.858333
  H           32.132076       18.569530       11.812160
  H           33.039567       20.102416       11.783616
  H           32.468422       19.351900       10.272123
  H           29.110129       20.118893       10.933799
  C           24.643100       16.930991        3.270615
  C           24.659764       15.473425        2.911633
  O           24.576651       15.018504        1.804153
  O           24.782046       14.698477        3.999230
  H           23.812662       17.124426        3.945176
  H           24.543404       17.530893        2.371997
  H           25.564628       17.182739        3.789736
  H           24.790969       13.761633        3.748344
  C            8.288204       27.679723        8.058984
  C            7.953826       28.492268        9.276197
  O            6.893013       28.519516        9.836827
  O            9.004431       29.214990        9.691246
  H            8.605060       28.345284        7.259792
  H            7.420441       27.107363        7.747975
  H            9.115060       27.012487        8.289597
  H            8.770149       29.732667       10.477263
  C           22.098668       12.102051        7.731119
  C           22.722148       12.074096        6.365785
  O           22.132452       12.081654        5.320522
  O           24.060912       12.038320        6.435031
  H           22.406635       11.217902        8.283852
  H           21.017641       12.130668        7.642255
  H           22.454370       12.977011        8.269632
  H           24.445773       12.020683        5.544935
  C           27.951253       12.153481       16.412482
  C           27.106903       10.924695       16.587993
  O           25.984634       10.894411       17.012219
  O           27.760877        9.817722       16.206819
  H           28.859299       12.051456       17.001651
  H           27.396097       13.030525       16.728600
  H           28.236267       12.246139       15.367370
  H           27.200790        9.035077       16.327107
  C           20.957307       27.818637        7.863785
  C           22.447438       27.871973        7.689691
  O           23.151499       28.816033        7.920821
  O           22.932780       26.709238        7.230501
  H           20.492948       27.587446        6.908275
  H           20.595203       28.771548        8.235505
  H           20.706291       27.023574        8.561598
  H           23.895393       26.762295        7.124382
  C           16.937319       25.376943       16.166266
  C           16.415034       23.969878       16.198374
  O           15.260460       23.646878       16.253167
  O           17.410831       23.072594       16.157943
  H           17.597280       25.533674       17.015950
  H           16.109986       26.078163       16.200119
  H           17.516699       25.523470       15.258012
  H           17.055061       22.170561       16.179486
  C           18.236390       20.124006        3.784431
  C           18.743090       21.246031        2.925385
  O           18.339461       22.376266        2.930477
  O           19.733986       20.840764        2.117767
  H           17.875265       19.320138        3.147673
  H           17.437323       20.482152        4.425179
  H           19.054537       19.735709        4.386044
  H           20.048293       21.577732        1.571150
  C           26.787611        9.177701        5.245929
  C           26.438074        7.860306        5.875169
  O           25.331793        7.472839        6.132822
  O           27.532939        7.129440        6.131040
  H           27.441697        9.731879        5.914611
  H           25.883267        9.744830        5.051348
  H           27.326227        9.000074        4.318342
  H           27.288088        6.283171        6.536720
  C           11.196400       17.663475       14.592799
  C           10.405228       17.128925       13.434374
  O           10.031603       17.759631       12.484118
  O           10.147297       15.820419       13.574548
  H           10.638421       17.503431       15.512105
  H           11.388850       18.721834       14.450765
  H           12.133999       17.118251       14.668406
  H            9.636210       15.492985       12.818058
  C           11.804744       22.541339        7.084527
  C           11.568149       23.910786        6.516828
  O           12.121899       24.384679        5.563329
  O           10.636330       24.579196        7.212030
  H           12.125067       22.632894        8.119461
  H           12.561827       22.026559        6.502151
  H           10.873225       21.980902        7.068393
  H           10.496966       25.460342        6.831428
  C            7.973997       24.642383       13.998413
  C            8.229631       24.643554       15.477702
  O            7.467920       25.020513       16.325093
  O            9.446293       24.160512       15.768851
  H            8.729227       25.248221       13.503777
  H            6.984236       25.037766       13.794993
  H            8.057084       23.626069       13.621214
  H            9.593565       24.168888       16.727465
  C           23.246195       21.772103        4.724714
  C           22.824078       21.158756        3.421155
  O           21.917359       21.529468        2.727753
  O           23.594959       20.110687        3.096105
  H           23.184113       21.022790        5.510050
  H           22.605305       22.615444        4.960025
  H           24.281159       22.096575        4.649572
  H           23.307957       19.727842        2.252448
  C           15.524773       32.304053        3.312507
  C           16.395603       32.360415        4.534032
  O           16.372479       31.589150        5.453265
  O           17.237369       33.403523        4.492545
  H           14.952294       33.225332        3.237739
  H           14.856348       31.451642        3.375263
  H           16.152450       32.224627        2.428318
  H           17.791121       33.423779        5.288566
  C           10.966263       28.831514        7.078549
  C           10.296739       28.804473        5.735175
  O            9.854331       27.832958        5.186717
  O           10.240588       30.026989        5.186845
  H           11.974615       29.222928        6.968556
  H           10.996440       27.830295        7.495663
  H           10.416618       29.497157        7.739524
  H            9.805529       29.990112        4.320783
  C            4.016080        9.962566        1.828948
  C            3.839222       11.452788        1.788903
  O            4.717987       12.265546        1.701896
  O            2.545687       11.798613        1.863305
  H            3.593169        9.576229        2.753051
  H            5.070619        9.714654        1.767114
  H            3.475915        9.515158        0.998210
  H            2.450920       12.763484        1.836057
  C            9.759784       10.411688        1.835501
  C           11.241958       10.385001        1.598659
  O           11.845711        9.537964        1.000007
  O           11.848706       11.447977        2.146656
  H            9.568052       10.423075        2.905635
  H            9.298128        9.541052        1.381408
  H            9.345104       11.321815        1.409137
  H           12.804224       11.413845        1.983804
  C           23.546465       23.677866        1.868388
  C           24.085168       25.071679        2.012362
  O           23.437904       26.082322        2.007460
  O           25.418812       25.073455        2.152915
  H           24.000162       23.206250        1.000163
  H           22.467631       23.709273        1.756739
  H           23.816207       23.096918        2.746918
  H           25.748554       25.980974        2.244445
  C           22.855779        8.698188        7.043292
  C           22.698851        7.206216        7.098417
  O           21.742665        6.583102        6.727188
  O           23.780556        6.615197        7.626595
  H           23.018599        9.078762        8.048643
  H           21.966744        9.146741        6.612303
  H           23.728848        8.944773        6.444106
  H           23.661325        5.653051        7.654162
  C           23.728946       25.501852        4.902537
  C           22.941054       26.775726        4.801948
  O           23.396146       27.878160        4.668150
  O           21.621847       26.547765        4.879986
  H           23.503518       25.014803        5.848075
  H           24.790090       25.718461        4.836300
  H           23.431621       24.832241        4.099233
  H           21.129625       27.380810        4.813259
  C           13.161482       31.206965        5.125232
  C           14.398115       30.685483        5.797868
  O           15.098071       29.796869        5.396867
  O           14.652338       31.340450        6.940126
  H           12.314545       31.098195        5.798244
  H           12.982562       30.658603        4.206200
  H           13.288782       32.265475        4.912092
  H           15.453535       30.990575        7.360091
  C           12.756099        7.929067       11.230935
  C           12.659676        9.194670       12.032557
  O           13.017915        9.339209       13.168843
  O           12.109666       10.189237       11.320735
  H           11.761092        7.632648       10.908176
  H           13.203983        7.144889       11.832433
  H           13.357663        8.111700       10.343893
  H           12.055552       10.997626       11.853912
  C           19.870575       13.560607        6.182889
  C           19.596403       12.117949        5.871095
  O           19.038269       11.334638        6.588927
  O           20.057554       11.778660        4.658417
  H           20.942439       13.738377        6.143121
  H           19.486682       13.804289        7.168070
  H           19.397069       14.186152        5.430185
  H           19.871765       10.844657        4.474515
  C           22.658357       27.464012       10.993823
  C           22.768401       26.436654       12.082893
  O           21.934615       25.623526       12.372716
  O           23.941863       26.522936       12.726248
  H           22.759377       28.456546       11.425966
  H           21.700517       27.369177       10.492940
  H           23.469132       27.321571       10.283589
  H           23.995018       25.852636       13.425228
  C           19.902845       19.548263       10.456743
  C           20.565807       20.663334        9.701269
  O           20.129096       21.771057        9.550912
  O           21.744907       20.280495        9.189878
  H           19.748039       18.704944        9.788218
  H           18.953425       19.887888       10.857482
  H           20.556082       19.223692       11.262977
  H           22.157994       21.012582        8.706030
  C            4.100076        5.245830        9.123399
  C            3.043241        5.252597       10.189559
  O            3.146192        5.738638       11.282051
  O            1.925498        4.634676        9.780672
  H            4.334201        4.217954        8.857443
  H            4.989991        5.751729        9.483194
  H            3.717414        5.744643        8.236363
  H            1.254984        4.648822       10.481322
  C           11.582149       29.915285       10.104194
  C           12.409675       30.208167        8.886382
  O           12.239900       31.115550        8.119436
  O           13.399405       29.315918        8.735747
  H           11.157320       28.918252       10.017455
  H           10.791600       30.652457       10.198769
  H           12.220386       29.934267       10.984177
  H           13.922628       29.520685        7.945173
  C            7.375609       26.148403       10.915131
  C            7.798148       27.450127       11.532075
  O            8.923519       27.858495       11.616623
  O            6.746843       28.139537       11.998802
  H            6.855776       25.550871       11.659984
  H            8.246023       25.614834       10.547682
  H            6.684464       26.346082       10.099459
  H            7.038540       28.976257       12.393154
  C           18.448482       13.282079       15.408252
  C           18.679282       13.209198       13.926677
  O           19.532916       12.569981       13.376146
  O           17.798172       13.962192       13.252132
  H           18.535198       14.315736       15.733998
  H           19.175080       12.664069       15.925411
  H           17.440103       12.942018       15.630979
  H           17.962341       13.902868       12.298073
  C            2.353331        5.598851        5.617107
  C            1.935828        4.717099        6.758093
  O            0.999999        4.901477        7.486518
  O            2.748398        3.658047        6.886559
  H            3.370492        5.944306        5.784801
  H            1.678435        6.444858        5.538864
  H            2.340904        5.022215        4.695470
  H            2.463742        3.100609        7.627460
  C            9.670496       32.747079        2.928739
  C           10.792554       33.014929        3.889410
  O           11.896961       33.384242        3.599122
  O           10.420489       32.790392        5.158076
  H            9.349617       31.713398        3.031771
  H           10.001471       32.937164        1.913034
  H            8.827334       33.387814        3.174941
  H           11.156954       32.968336        5.763596
  C            7.662294       15.628469        6.814807
  C            9.153236       15.456321        6.781611
  O            9.753067       14.448809        7.037531
  O            9.773199       16.589754        6.421973
  H            7.408166       16.416489        7.519449
  H            7.190029       14.696742        7.108379
  H            7.314584       15.931704        5.830315
  H           10.734218       16.459798        6.406027
  C           17.531729       19.302327       14.743117
  C           17.116783       19.114778       13.312631
  O           16.795055       18.077693       12.801438
  O           17.143038       20.271830       12.635206
  H           18.537552       19.714003       14.773433
  H           17.500462       18.350903       15.263837
  H           16.861964       20.013584       15.220198
  H           16.872442       20.131474       11.714457
  C           13.454743        4.292983        5.009585
  C           12.944485        3.610624        6.245574
  O           13.561876        2.847595        6.936217
  O           11.675733        3.954280        6.511155
  H           12.824912        4.023228        4.165416
  H           14.481135        3.995623        4.821354
  H           13.394648        5.370171        5.144237
  H           11.363490        3.504562        7.311753
  C           16.229142       29.419416        9.757341
  C           15.596743       28.362089        8.899566
  O           14.926583       27.445574        9.288486
  O           15.867714       28.553206        7.600176
  H           17.306060       29.404694        9.608654
  H           15.992458       29.238065       10.800618
  H           15.860234       30.395795        9.452927
  H           15.451671       27.861741        7.062139
  C           13.552847       10.440182        8.988640
  C           12.117042       10.014022        9.091097
  O           11.715569        8.883037        9.099301
  O           11.293742       11.069159        9.176104
  H           13.678859       11.066391        8.108833
  H           14.192835        9.566546        8.921475
  H           13.814561       11.030936        9.863049
  H           10.371830       10.775044        9.241478
  C           30.603702       14.029502       31.594508
  C           32.025125       14.306840       31.199179
  O           32.992602       14.157294       31.893440
  O           32.108086       14.757528       29.938877
  H           30.020844       14.942421       31.499995
  H           30.569312       13.667175       32.616697
  H           30.181957       13.288992       30.919339
  H           33.032304       14.931006       29.701334
  C           32.485922       19.301150       30.925353
  C           32.501604       17.800284       30.953636
  O           33.031971       17.084900       30.149080
  O           31.835069       17.319474       32.013313
  H           31.456150       19.648144       30.890117
  H           33.031820       19.659291       30.058713
  H           32.938665       19.681491       31.837736
  H           31.855787       16.349800       32.015025
  C            3.880704       27.556012       31.401682
  C            4.118106       26.114464       31.746968
  O            5.184390       25.606001       31.958810
  O            2.970042       25.423217       31.796884
  H            3.382569       27.616113       30.437148
  H            4.825946       28.087785       31.368963
  H            3.225829       27.999954       32.147424
  H            3.142717       24.495483       32.020923
  C           20.597767        2.584912       28.103508
  C           21.313838        1.727215       27.100890
  O           20.830453        1.238926       26.116874
  O           22.602407        1.554510       27.429714
  H           20.659336        2.117993       29.083443
  H           19.560004        2.706039       27.810743
  H           21.087288        3.554028       28.160618
  H           23.048348        0.998764       26.771700
  C            5.022524       27.525230       34.323003
  C            3.548164       27.271908       34.197563
  O            2.679525       28.093157       34.304282
  O            3.288898       25.980935       33.943527
  H            5.424223       26.912907       35.126605
  H            5.199964       28.575867       34.527970
  H            5.515969       27.234476       33.398854
  H            2.332991       25.836339       33.865854
  C           29.658213        6.920294       27.886327
  C           29.515380        5.906031       28.983831
  O           29.591712        6.125083       30.161355
  O           29.284151        4.678877       28.494963
  H           30.480394        6.631417       27.236216
  H           29.844102        7.900758       28.312320
  H           28.747976        6.935668       27.291928
  H           29.194793        4.037808       29.217282
  C           22.867097        4.745270       23.374341
  C           23.289247        4.162885       22.056667
  O           23.487144        4.777053       21.044734
  O           23.428748        2.831015       22.127551
  H           21.922218        4.300337       23.676524
  H           22.762869        5.821623       23.285259
  H           23.611020        4.501300       24.128751
  H           23.701422        2.472803       21.268463
  C           24.105271       13.574118       34.822414
  C           24.314774       15.056974       34.718047
  O           24.194989       15.851010       35.609973
  O           24.663982       15.419974       33.475208
  H           23.325565       13.272581       34.127281
  H           23.824393       13.311976       35.837167
  H           25.022651       13.062046       34.542639
  H           24.794890       16.379778       33.426842
  C           14.031303       32.752126       33.243885
  C           12.962000       32.784101       32.190693
  O           13.013536       33.380919       31.150729
  O           11.898664       32.047416       32.544213
  H           13.625400       33.131858       34.178296
  H           14.876391       33.355831       32.929716
  H           14.344235       31.723552       33.405706
  H           11.219174       32.079848       31.852879
  C           18.298069       22.279058       31.633553
  C           18.582554       22.971442       30.332278
  O           17.943955       22.864531       29.321766
  O           19.668007       23.754413       30.416628
  H           19.157103       21.673936       31.912775
  H           17.416378       21.654547       31.533836
  H           18.144275       23.024472       32.409944
  H           19.836133       24.192900       29.568005
  C           23.668133       10.086307       35.524332
  C           24.873844       10.956131       35.732451
  O           25.809525       11.055176       34.987424
  O           24.796484       11.640055       36.883375
  H           23.583120        9.387464       36.352866
  H           23.759876        9.547045       34.587254
  H           22.775731       10.707270       35.514307
  H           25.582773       12.195640       37.000745
  C           30.833799       10.203240       29.880623
  C           32.128925       10.779105       30.375268
  O           33.021864       10.166169       30.892320
  O           32.189842       12.103313       30.172475
  H           30.007094       10.684543       30.397328
  H           30.814472        9.133005       30.058267
  H           30.732722       10.409274       28.817886
  H           33.032173       12.457400       30.497747
  C            9.293947       13.966056       29.548246
  C            8.736967       13.822829       30.934935
  O            7.596830       13.573956       31.215155
  O            9.681867       14.008898       31.868158
  H            9.721037       14.959396       29.434462
  H            8.507452       13.810394       28.817132
  H           10.089282       13.238799       29.404657
  H            9.304308       13.912706       32.756357
  C           15.795952        5.439088       27.393527
  C           16.596565        6.708833       27.413777
  O           16.722931        7.477940       26.501155
  O           17.180860        6.905122       28.604758
  H           16.449961        4.599511       27.615920
  H           15.336608        5.308366       26.419232
  H           15.031916        5.484864       28.165686
  H           17.692950        7.728792       28.599170
  C           17.861542       23.523175       24.034201
  C           17.573788       23.434869       25.504930
  O           17.457201       22.424251       26.141666
  O           17.455186       24.650474       26.058646
  H           17.056643       24.064847       23.543480
  H           17.951824       22.526168       23.615678
  H           18.783494       24.079031       23.882197
  H           17.269692       24.573814       27.007548
  C           10.287507        2.460411       36.350677
  C           11.772146        2.550063       36.554285
  O           12.378318        3.523595       36.908071
  O           12.378086        1.383341       36.289782
  H           10.083551        2.174456       35.321741
  H            9.826571        3.417442       36.571957
  H            9.882501        1.689270       37.001360
  H           13.335221        1.460106       36.426527
  C            1.544574        2.439968       28.835984
  C            3.017587        2.515232       28.556321
  O            3.771753        1.583967       28.490339
  O            3.422617        3.781455       28.380270
  H            1.319546        3.017005       29.729554
  H            1.247801        1.405389       28.973486
  H            0.999072        2.879679       28.004624
  H            4.375349        3.810502       28.200949
  C           26.552859       10.351113       23.670014
  C           27.800721        9.886363       24.363189
  O           28.661639       10.590765       24.813756
  O           27.858688        8.548298       24.430919
  H           26.526803        9.938709       22.664369
  H           26.534836       11.435309       23.630917
  H           25.684370        9.980401       24.208881
  H           28.670290        8.266779       24.881196
  C           28.054254       15.923794       32.851212
  C           27.466833       14.545198       32.761463
  O           26.464513       14.168632       33.303612
  O           28.206348       13.743258       31.981479
  H           29.061547       15.858495       33.255159
  H           27.435144       16.547648       33.487486
  H           28.118248       16.351668       31.853762
  H           27.812206       12.858259       31.935335
  C           12.871131       32.722447       24.711835
  C           13.375037       31.368165       24.304841
  O           12.754538       30.341816       24.349150
  O           14.641857       31.423424       23.868402
  H           13.506106       33.118975       25.500283
  H           11.846171       32.645290       25.059452
  H           12.929249       33.396949       23.861102
  H           14.949994       30.540745       23.610277
  C            8.152727       27.376926       34.700055
  C            8.409316       26.556589       35.930849
  O            9.426765       26.538203       36.567113
  O            7.341863       25.815220       36.261427
  H            7.904601       26.715316       33.873748
  H            9.032446       27.964363       34.458503
  H            7.301684       28.030291       34.875885
  H            7.525760       25.292764       37.057619
  C           12.341906        9.304382       24.421327
  C           11.676939        9.644009       23.118976
  O           12.227050       10.036114       22.127005
  O           10.350328        9.457133       23.178510
  H           11.926001        9.927519       25.209236
  H           13.412007        9.465344       24.341898
  H           12.135819        8.265939       24.668797
  H            9.938262        9.681219       22.329577
  C           23.610054       32.604521       35.687780
  C           23.702771       31.190014       36.181966
  O           22.821816       30.375304       36.158746
  O           24.920656       30.917303       36.672627
  H           23.828431       33.285304       36.506879
  H           22.615447       32.794378       35.297848
  H           24.354240       32.762214       34.910994
  H           24.961830       30.000580       36.986670
  C           14.209188       24.525005       22.572714
  C           14.325393       26.014054       22.421478
  O           13.430311       26.806235       22.529425
  O           15.583323       26.385215       22.141809
  H           14.529194       24.045162       21.651071
  H           13.182360       24.256329       22.798042
  H           14.867940       24.193473       23.371595
  H           15.639158       27.348923       22.047744
  C           15.372751        3.256750       35.035076
  C           15.272728        3.237674       33.537319
  O           15.681100        2.371535       32.813850
  O           14.654975        4.332281       33.069793
  H           15.923547        4.141006       35.346193
  H           15.876004        2.360410       35.382418
  H           14.373782        3.315068       35.460208
  H           14.599585        4.302606       32.101934
  C           14.842764       31.937977       29.989107
  C           16.096568       31.964158       29.163918
  O           16.706353       31.005854       28.776376
  O           16.482609       33.219336       28.892138
  H           15.015892       32.470670       30.920956
  H           14.556367       30.911281       30.192098
  H           14.048782       32.449787       29.450851
  H           17.292907       33.216597       28.359120
  C           13.292191       15.601796       34.118168
  C           12.626586       15.368359       32.792981
  O           13.014622       14.631836       31.928495
  O           11.507533       16.096601       32.667488
  H           13.536865       16.656671       34.215387
  H           14.192402       15.000259       34.189635
  H           12.602001       15.340951       34.916713
  H           11.091779       15.933125       31.806603
  C           19.743459       30.352968       23.022630
  C           20.515208       29.076658       23.193162
  O           20.269955       28.027726       22.664044
  O           21.549862       29.233632       24.031741
  H           19.374587       30.680840       23.991398
  H           18.914827       30.194400       22.340311
  H           20.406013       31.123408       22.635949
  H           22.036058       28.400119       24.129560
  C           18.974494       12.883153       30.405525
  C           19.299888       11.650275       31.197847
  O           18.907751       10.539612       30.967567
  O           20.106951       11.927033       32.232457
  H           18.490921       13.609015       31.054646
  H           18.321612       12.627573       29.577419
  H           19.896326       13.324323       30.034482
  H           20.306102       11.119911       32.732051
  C           13.429644       21.287368       33.586884
  C           14.350707       21.511629       34.750928
  O           15.185567       20.746196       35.147782
  O           14.137392       22.703814       35.326736
  H           12.399263       21.341977       33.929536
  H           13.625945       20.316896       33.143054
  H           13.582602       22.074053       32.852168
  H           14.740482       22.831044       36.075598
  C            8.960823       18.057345       30.050978
  C            8.564847       17.142461       31.173402
  O            8.877051       15.989233       31.287275
  O            7.794624       17.770422       32.073838
  H            8.065408       18.430731       29.560171
  H            9.581881       17.521813       29.340466
  H            9.502604       18.908305       30.456462
  H            7.548935       17.164819       32.790485
  C            4.110995       13.986718       35.751475
  C            2.762453       14.645177       35.712596
  O            2.482929       15.645933       35.111991
  O            1.863907       13.973916       36.447707
  H            4.455232       13.935579       36.781505
  H            4.814629       14.551645       35.148903
  H            4.024687       12.970714       35.374163
  H            1.000000       14.413236       36.410804
  C           16.906828       24.916157       30.206005
  C           15.988494       26.077409       30.454609
  O           16.147106       26.939517       31.274356
  O           14.928421       26.053080       29.633624
  H           16.359311       23.988440       30.353117
  H           17.752804       24.963443       30.883813
  H           17.249970       24.945056       29.174746
  H           14.347180       26.809584       29.808438
  C           12.322741       29.797761       22.140236
  C           11.906670       31.214515       22.411051
  O           11.100501       31.569620       23.226137
  O           12.554051       32.079599       21.616764
  H           12.115410       29.555880       21.100724
  H           11.783073       29.123124       22.796710
  H           13.393661       29.701755       22.301449
  H           12.272932       32.988447       21.805619
  C            3.713955        8.901023       30.395167
  C            5.012422        9.238648       31.068692
  O            5.393439       10.340201       31.354664
  O            5.733926        8.138747       31.329490
  H            3.918504        8.376286       29.465173
  H            3.154047        9.809209       30.197588
  H            3.139222        8.237795       31.036951
  H            6.568019        8.375920       31.763929
  C            4.600605       19.991822       31.949356
  C            4.864260       20.498540       30.561059
  O            5.899190       20.956713       30.161844
  O            3.780949       20.382625       29.779161
  H            3.779722       20.554979       32.386488
  H            5.493467       20.098644       32.556580
  H            4.303529       18.947169       31.899127
  H            3.969698       20.714389       28.887530
  C           32.263082        4.603022       26.669781
  C           32.661707        3.229218       26.214361
  O           32.863636        2.281865       26.922965
  O           32.774092        3.164818       24.879600
  H           33.008213        5.321248       26.336602
  H           32.180502        4.623344       27.751493
  H           31.311780        4.869124       26.215588
  H           33.031875        2.271314       24.604104
  C           27.216876        5.483292       25.780975
  C           27.998645        4.207654       25.657564
  O           27.667863        3.234506       25.037936
  O           29.152490        4.267925       26.338279
  H           27.005759        5.674093       26.830309
  H           26.290927        5.403887       25.220932
  H           27.815161        6.308297       25.402164
  H           29.643333        3.436374       26.247192
  C           24.861009        7.749380       23.114648
  C           24.142177        7.606054       24.424756
  O           23.462808        8.443153       24.952105
  O           24.344374        6.397300       24.969176
  H           25.926294        7.599597       23.272158
  H           24.678575        8.735321       22.699950
  H           24.510784        6.982615       22.427997
  H           23.873137        6.323030       25.813640
  C           29.599650       13.338284       24.660286
  C           30.799880       12.453487       24.486429
  O           30.781712       11.287084       24.204391
  O           31.942455       13.126427       24.686530
  H           29.601996       13.751873       25.665779
  H           28.692793       12.766649       24.492418
  H           29.658452       14.164427       23.955938
  H           32.705946       12.539705       24.570173
  C           19.135319        9.004129       33.517333
  C           20.170722        8.705124       32.472259
  O           21.275878        9.170237       32.420542
  O           19.716890        7.828943       31.564125
  H           18.248593        9.410692       33.037227
  H           19.531171        9.714203       34.235964
  H           18.854206        8.080743       34.017745
  H           20.398222        7.648064       30.897965
  C           27.071454        3.750444       32.136171
  C           27.809878        4.948814       32.657981
  O           27.322335        6.005696       32.950686
  O           29.124633        4.708949       32.768653
  H           27.470836        3.479703       31.161866
  H           26.012788        3.975018       32.057887
  H           27.228458        2.911530       32.809706
  H           29.584715        5.493020       33.106673
  C           20.695001       30.914359       34.716120
  C           19.931144       32.174098       34.427636
  O           20.366287       33.156254       33.892479
  O           18.659970       32.087433       34.845929
  H           20.680854       30.723864       35.786442
  H           21.717401       31.014991       34.366967
  H           20.208948       30.078689       34.218641
  H           18.182640       32.909048       34.651496
  C            3.801688       21.199681       34.930591
  C            2.899106       22.313225       34.484484
  O            2.539361       23.241440       35.154838
  O            2.519457       22.159508       33.207534
  H            3.281343       20.251265       34.821844
  H            4.091133       21.351743       35.965209
  H            4.682697       21.175643       34.293942
  H            1.937747       22.886988       32.937190
  C           31.775724       14.737256       26.991139
  C           30.825611       14.696301       28.152713
  O           30.516141       13.719157       28.777045
  O           30.337069       15.913072       28.434065
  H           31.258034       15.127512       26.118342
  H           32.153174       13.740411       26.788245
  H           32.597691       15.409709       27.224069
  H           29.726127       15.867226       29.185961
  C            5.306615       29.577703       27.809405
  C            4.158965       30.501296       27.520401
  O            3.246283       30.280240       26.773061
  O            4.260932       31.646471       28.210720
  H            6.239097       30.072559       27.549269
  H            5.196106       28.662198       27.237589
  H            5.328496       29.355406       28.873445
  H            3.512060       32.229795       28.011661
  C            5.800643       27.591687       24.820008
  C            6.700738       28.680998       25.326836
  O            7.368681       28.637993       26.323017
  O            6.682247       29.752036       24.520052
  H            4.784143       27.970841       24.748964
  H            5.836994       26.740768       25.492280
  H            6.120773       27.296905       23.823666
  H            7.268614       30.444432       24.862778
  C            6.661226       24.205006       26.146769
  C            6.731360       24.856276       24.796001
  O            7.535882       25.676483       24.449045
  O            5.763502       24.410194       23.981983
  H            5.691897       24.411028       26.594019
  H            7.455030       24.585464       26.781167
  H            6.756846       23.128212       26.030804
  H            5.824425       24.841284       23.115294
  C            1.989250       27.629038       27.912816
  C            1.936201       28.958679       28.607716
  O            0.959847       29.641910       28.750199
  O            3.140679       29.321111       29.072732
  H            2.692232       27.684984       27.085312
  H            1.002182       27.363751       27.548597
  H            2.347694       26.874868       28.609107
  H            3.087152       30.181162       29.517870
  C            5.048025       31.873080       25.116346
  C            3.777517       31.424719       24.454206
  O            2.719707       31.989662       24.501627
  O            3.951306       30.281047       23.775844
  H            5.389110       31.098490       25.798803
  H            4.875832       32.798558       25.655953
  H            5.815120       32.016994       24.359424
  H            3.121307       30.007135       23.355400
  C           24.013966       15.636181       26.398355
  C           23.335280       14.302947       26.522923
  O           22.947598       13.620933       25.614665
  O           23.200299       13.935599       27.805577
  H           23.430990       16.385884       26.927657
  H           24.108438       15.905412       25.351490
  H           24.995748       15.583247       26.862445
  H           22.760517       13.073286       27.866469
  C           20.806633       29.871016       28.035979
  C           21.166932       28.440132       28.312385
  O           22.262697       28.026289       28.573932
  O           20.095611       27.637308       28.234229
  H           20.373075       29.945734       27.041735
  H           21.691963       30.494362       28.106459
  H           20.059311       30.197666       28.754928
  H           20.347098       26.718277       28.415435
  C           21.547898       17.219709       35.433920
  C           22.154975       17.786299       34.183289
  O           21.570563       18.033404       33.164577
  O           23.471656       17.997296       34.325398
  H           22.038475       16.280280       35.676584
  H           20.484560       17.060369       35.288124
  H           21.714672       17.909569       36.257544
  H           23.846185       18.362892       33.508840
  C           14.322282        8.466840       36.296799
  C           14.956665        9.772211       36.680479
  O           14.375166       10.773260       36.996917
  O           16.295069        9.703833       36.631861
  H           14.632345        8.200154       35.289418
  H           13.241807        8.553581       36.345631
  H           14.667338        7.688360       36.972804
  H           16.687036       10.554871       36.882452
  C            6.465414       15.945649       27.903916
  C            4.981716       15.717888       27.883660
  O            4.432037       14.660606       27.740901
  O            4.304099       16.863380       28.048120
  H            6.732450       16.638581       27.109804
  H            6.985038       15.002739       27.768831
  H            6.745852       16.396255       28.852803
  H            3.348706       16.697023       28.032338
  C           26.874067       10.420177       32.416288
  C           26.564346        9.098850       33.058014
  O           26.214961        8.102207       32.487919
  O           26.724244        9.146687       34.388618
  H           26.218048       11.182054       32.830124
  H           26.735889       10.349874       31.342370
  H           27.899900       10.698113       32.645405
  H           26.520057        8.285583       34.785488
  C            7.320321       31.793018       36.039528
  C            8.642028       32.504273       36.068745
  O            8.969189       33.414772       35.358583
  O            9.454370       31.998164       37.008063
  H            7.485972       30.737041       35.840657
  H            6.686614       32.224014       35.271418
  H            6.843938       31.881970       37.012781
  H           10.302162       32.469258       37.012281
  C           11.649061       22.828637       21.639256
  C           11.335532       24.285789       21.460226
  O           12.103720       25.133409       21.097181
  O           10.056564       24.556003       21.759542
  H           11.453142       22.543965       22.670108
  H           12.688455       22.641831       21.390062
  H           10.997610       22.240461       20.997588
  H            9.872578       25.500533       21.638252
  C            7.538687       20.749548       33.389174
  C            7.605212       20.715791       31.889814
  O            7.421746       19.753220       31.196872
  O            7.902878       21.920559       31.381587
  H            8.496956       21.079185       33.783049
  H            7.296632       19.762697       33.769791
  H            6.782501       21.466998       33.698248
  H            7.941502       21.879588       30.413326
  C           31.762932        5.545600       23.014332
  C           31.797212        6.974943       23.471988
  O           30.862786        7.607603       23.880596
  O           33.029279        7.495300       23.373979
  H           32.094524        5.492389       21.980265
  H           30.755342        5.153408       23.105333
  H           32.450122        4.959097       23.619197
  H           33.032178        8.417780       23.673516
  C           12.848759       10.169900       30.999205
  C           13.907407       11.226412       30.870000
  O           15.093258       11.045084       30.905343
  O           13.371609       12.444513       30.704123
  H           12.212898       10.401935       31.850038
  H           13.312247        9.197841       31.131928
  H           12.229702       10.171741       30.105425
  H           14.069367       13.113234       30.622608
  C           10.569307       23.035009       32.080510
  C           10.422280       21.816890       31.215515
  O            9.806800       20.824615       31.492907
  O           11.075645       21.955365       30.052629
  H           11.624110       23.208271       32.279122
  H           10.031091       22.892953       33.011895
  H           10.179695       23.900365       31.550003
  H           10.969613       21.160034       29.507739
  C           26.822197       24.465080       29.654907
  C           26.615606       23.349653       28.671653
  O           25.793105       22.479568       28.754216
  O           27.479307       23.426958       27.648712
  H           27.838606       24.421066       30.038380
  H           26.110424       24.375510       30.468966
  H           26.694374       25.418187       29.147634
  H           27.331176       22.699457       27.024615
  C           23.359094        8.417466       28.025721
  C           23.443366        7.667103       29.323219
  O           22.528850        7.139468       29.893862
  O           24.696480        7.645024       29.800275
  H           23.703700        9.437261       28.178506
  H           22.335456        8.417852       27.665861
  H           24.013309        7.946406       27.296213
  H           24.731599        7.156791       30.637589
  C           12.882513       19.271580       36.145169
  C           13.267966       17.831870       36.324907
  O           12.510985       16.909835       36.456071
  O           14.599612       17.673496       36.324061
  H           13.315292       19.861494       36.949396
  H           11.801700       19.367263       36.150103
  H           13.287375       19.636154       35.204292
  H           14.829600       16.738559       36.441107
  C            7.915842        4.681886       22.769911
  C            7.216255        5.937039       23.204438
  O            6.064264        6.208005       23.004766
  O            8.043395        6.759491       23.866086
  H            8.753450        4.942525       22.127605
  H            7.222369        4.038335       22.238618
  H            8.308650        4.169417       23.644642
  H            7.574837        7.563789       24.138588
  C            8.930672       19.407906       36.164963
  C            9.424119       19.130252       34.774616
  O            8.955537       18.337759       34.004708
  O           10.486076       19.889145       34.466895
  H            9.730490       19.211940       36.874869
  H            8.073139       18.780232       36.384045
  H            8.658146       20.457338       36.245577
  H           10.790633       19.696395       33.566455
  C           10.311620       16.217447       36.118443
  C            8.910981       15.741176       35.863451
  O            8.479038       14.650866       36.118447
  O            8.159607       16.697346       35.298171
  H           10.763854       16.520795       35.177410
  H           10.893571       15.423630       36.575086
  H           10.281504       17.085044       36.773000
  H            7.259458       16.372161       35.141050
  C           12.455599       23.988052       27.283791
  C           13.798463       24.555794       27.641607
  O           14.101324       25.716957       27.622927
  O           14.661741       23.593925       27.999271
  H           12.571079       23.285000       26.462536
  H           11.780700       24.788688       26.999488
  H           12.056578       23.446154       28.137726
  H           15.522506       23.978758       28.226617
  C           20.986296       14.765925       33.817278
  C           20.907948       14.429540       35.278220
  O           20.280904       15.028905       36.107648
  O           21.640208       13.346081       35.575331
  H           22.023484       14.947607       33.546521
  H           20.385127       15.644766       33.608547
  H           20.629259       13.919933       33.235127
  H           21.577651       13.144131       36.521905
  C           17.147514       28.280072       29.534967
  C           15.699079       28.618504       29.737812
  O           15.177279       28.887831       30.784502
  O           15.018540       28.588199       28.582687
  H           17.225795       27.287845       29.097434
  H           17.670359       28.312849       30.485174
  H           17.587563       28.990669       28.839636
  H           14.086155       28.809040       28.732972
  C            7.724425        7.341029       28.959864
  C            9.178609        7.672524       29.130470
  O            9.690858        8.734965       28.908676
  O            9.876776        6.617139       29.574418
  H            7.624385        6.520745       28.253320
  H            7.187287        8.212633       28.600527
  H            7.316736        7.015731       29.913828
  H           10.812628        6.849620       29.678507
  C           31.919337       20.218270       24.264674
  C           31.911118       21.637672       24.753423
  O           32.857829       22.373940       24.798391
  O           30.687580       22.015693       25.151439
  H           31.582424       19.562249       25.063551
  H           32.920562       19.942336       23.950441
  H           31.224989       20.121407       23.433665
  H           30.701515       22.933944       25.463402
  C           21.836377       28.353132       33.252702
  C           21.181957       29.378969       32.373476
  O           20.072309       29.315568       31.920667
  O           21.996835       30.417010       32.135129
  H           22.743410       27.995209       32.771809
  H           21.154005       27.527719       33.427048
  H           22.115204       28.815456       34.196413
  H           21.557880       31.068596       31.566399
  C            2.094256       15.495227       30.755780
  C            1.468602       14.172577       30.419923
  O            0.996283       13.864127       29.360609
  O            1.491773       13.335327       31.467224
  H            1.557297       15.944754       31.587451
  H            2.060537       16.149303       29.890689
  H            3.124019       15.336021       31.066134
  H            1.084028       12.487312       31.232031
  C           23.657725       24.214279       36.468983
  C           23.446872       24.750105       35.082593
  O           23.677636       24.168274       34.058585
  O           22.953872       25.997028       35.104907
  H           24.346710       24.863837       37.003258
  H           24.056259       23.206355       36.418036
  H           22.710162       24.216802       37.002084
  H           22.824351       26.326263       34.201841
  C           16.926645       32.530809       25.108254
  C           18.036276       32.213968       26.068450
  O           19.075444       32.806374       26.166204
  O           17.736408       31.157670       26.838307
  H           16.742055       31.665848       24.475919
  H           17.198237       33.387874       24.500790
  H           16.017810       32.739718       25.667229
  H           18.463644       30.968018       27.451380
  C            1.812959        6.382945       29.405482
  C            2.824123        6.806632       28.379966
  O            2.761276        7.786589       27.689961
  O            3.847769        5.943154       28.309836
  H            1.434369        5.396503       29.149200
  H            0.998981        7.099653       29.438701
  H            2.294840        6.316809       30.377847
  H            4.490028        6.232638       27.643202
  C           27.843596        9.872903       27.607945
  C           26.400433        9.473995       27.499324
  O           25.800561        8.778460       28.271825
  O           25.825080        9.995290       26.405896
  H           28.377022        9.532335       26.723894
  H           28.280478        9.436835       28.500309
  H           27.913700       10.957171       27.646997
  H           24.894468        9.727333       26.352406
  C           14.741667       13.490148       35.994269
  C           13.373395       13.244523       35.427573
  O           13.129629       12.794274       34.342111
  O           12.410525       13.593734       36.293193
  H           14.843899       14.544360       36.239753
  H           15.497480       13.198547       35.272432
  H           14.857743       12.917790       36.911335
  H           11.534785       13.428296       35.910557
  C           32.217757       19.417133       35.239999
  C           31.323924       20.235591       34.354090
  O           31.068974       21.400259       34.491641
  O           30.817844       19.503017       33.351303
  H           31.650272       18.586474       35.652361
  H           32.610888       20.036010       36.039859
  H           33.032087       19.007666       34.647310
  H           30.243824       20.047483       32.790271
  C           19.223632        8.852070       26.817078
  C           19.391368        7.793256       25.766163
  O           20.030279        7.897142       24.755533
  O           18.727221        6.672466       26.084131
  H           18.166670        9.080288       26.930319
  H           19.771161        9.744432       26.532055
  H           19.590601        8.474227       27.768207
  H           18.846907        6.000712       25.394841
  C           10.664088        7.246253       35.473786
  C           11.833974        7.206198       34.533888
  O           12.950682        6.865129       34.811391
  O           11.490711        7.606885       33.301012
  H           10.276444        8.260964       35.520380
  H           10.972617        6.917366       36.460689
  H            9.875944        6.601583       35.092596
  H           12.257865        7.574488       32.708454
  C           21.627128        5.812108       26.665210
  C           20.328575        5.605302       27.389528
  O           19.490004        4.791390       27.116180
  O           20.194636        6.457773       28.416036
  H           21.671303        6.832738       26.293134
  H           21.706135        5.109522       25.842126
  H           22.451413        5.670704       27.359929
  H           19.351227        6.309679       28.871478
  C           22.242977        7.145448       35.875702
  C           21.524250        8.433633       35.597036
  O           21.608986        9.086059       34.593276
  O           20.745193        8.796971       36.626317
  H           22.855340        7.262209       36.766463
  H           22.863663        6.878442       35.026708
  H           21.513560        6.362580       36.068438
  H           20.289491        9.630015       36.428646
  C           27.438561       18.538466       36.246476
  C           27.812065       19.309651       35.013832
  O           27.354559       19.149824       33.915871
  O           28.747947       20.234067       35.274493
  H           28.324264       18.050717       36.646110
  H           26.681387       17.800046       36.004074
  H           27.063952       19.226848       37.000051
  H           28.976393       20.721634       34.467777
  C            6.813531        4.036974       27.486291
  C            8.261998        3.654258       27.581770
  O            8.719715        2.565562       27.368203
  O            9.024872        4.695596       27.945094
  H            6.477158        4.410033       28.450530
  H            6.223297        3.175656       27.191181
  H            6.701366        4.836325       26.757913
  H            9.955981        4.429985       28.001535
  C           23.590984       30.327356       26.410467
  C           23.491211       31.785878       26.069288
  O           22.543272       32.331795       25.575568
  O           24.615623       32.444851       26.385225
  H           24.427732       29.889715       25.871579
  H           22.668347       29.822396       26.143837
  H           23.783109       30.220755       27.475268
  H           24.532934       33.384145       26.158095
  C           27.713581        5.299256       35.782668
  C           27.664238        3.817110       36.016018
  O           28.080647        3.240793       36.982887
  O           27.083423        3.175150       34.991857
  H           28.269987        5.500054       34.870434
  H           28.187797        5.789732       36.626402
  H           26.701997        5.674993       35.650018
  H           27.060449        2.220205       35.159942
  C            3.247402        3.326322       31.418787
  C            2.309981        2.250659       31.885516
  O            2.182917        1.163273       31.393764
  O            1.599006        2.644127       32.952316
  H            2.674670        4.213993       31.161695
  H            3.807202        2.978926       30.556654
  H            3.926204        3.585751       32.227490
  H            0.999834        1.937533       33.239400
  C           21.376143        1.694632       33.807083
  C           20.937856        1.283907       32.431273
  O           19.819082        0.999907       32.102544
  O           21.966004        1.265642       31.570492
  H           22.132156        0.999887       34.164644
  H           20.524313        1.699893       34.479164
  H           21.823377        2.684506       33.760095
  H           21.664417        0.998496       30.688234
  C           26.504623       22.472439       35.444441
  C           25.331246       21.651441       34.994116
  O           24.302053       22.077320       34.547169
  O           25.558856       20.338880       35.148201
  H           26.707480       22.263204       36.491889
  H           26.290668       23.527363       35.307717
  H           27.382131       22.189595       34.868198
  H           24.791252       19.824997       34.852553
  C            7.258519        9.107875       21.805588
  C            7.563356       10.146832       22.845438
  O            7.236331       11.300929       22.806866
  O            8.267627        9.633456       23.864660
  H            8.190580        8.695572       21.426978
  H            6.689293        9.552548       20.995908
  H            6.693092        8.299162       22.262044
  H            8.455012       10.318040       24.525668
  C            2.144466        4.340622       35.199481
  C            2.564756        2.924104       35.464957
  O            2.352242        2.301367       36.468655
  O            3.229620        2.402962       34.423453
  H            3.025988        4.944043       34.997296
  H            1.610214        4.733763       36.058172
  H            1.508852        4.366547       34.317778
  H            3.492801        1.488844       34.612727
  C           21.390746        8.968417       22.328874
  C           20.124306        9.737917       22.088777
  O           20.040303       10.809876       21.555654
  O           19.051212        9.078757       22.549581
  H           21.506952        8.793438       23.395624
  H           22.239175        9.526057       21.946068
  H           21.322375        8.002541       21.834419
  H           18.243515        9.590188       22.385985
  C           21.863711       24.607676       32.457943
  C           22.185976       23.142972       32.524518
  O           23.280568       22.657057       32.446231
  O           21.080693       22.401173       32.687145
  H           21.184490       24.787791       31.628308
  H           22.775939       25.180278       32.326403
  H           21.362020       24.906249       33.375133
  H           21.307951       21.459159       32.727931
  C            4.689981       23.369418       29.817868
  C            6.112315       23.814592       29.637784
  O            6.778945       23.664981       28.651075
  O            6.582509       24.421874       30.737098
  H            4.632971       22.683724       30.659682
  H            4.338680       22.882873       28.913879
  H            4.070041       24.233388       30.044381
  H            7.501216       24.702166       30.602512
  C           12.768405        6.474211       21.896551
  C           12.144299        5.112114       21.802606
  O           10.969478        4.870020       21.842104
  O           13.071147        4.152853       21.664272
  H           13.443563        6.501043       22.748326
  H           11.995103        7.227215       22.007562
  H           13.351129        6.664081       20.998520
  H           12.650165        3.281077       21.605282
  C            4.700185       17.730840       21.986618
  C            3.986452       18.365289       23.144937
  O            2.982229       19.019496       23.082303
  O            4.610620       18.116717       24.305537
  H            5.716189       18.114821       21.937928
  H            4.172504       17.949248       21.064020
  H            4.753187       16.656281       22.143436
  H            4.136051       18.533741       25.041454
  C           25.166674       18.086401       28.217903
  C           25.598540       19.169473       29.163468
  O           25.916429       20.286124       28.859479
  O           25.592993       18.745327       30.435645
  H           25.837272       17.236303       28.316439
  H           25.181400       18.459080       27.198968
  H           24.164771       17.757784       28.483001
  H           25.874279       19.457229       31.031273
  C           15.130691        7.056652       31.918032
  C           16.531193        6.570772       32.155014
  O           17.525803        7.241636       32.122368
  O           16.559796        5.256079       32.417932
  H           14.699660        6.513080       31.080883
  H           15.140298        8.121222       31.708426
  H           14.526848        6.852906       32.798905
  H           17.471248        4.960433       32.568094
  C            9.329533       12.482040       24.546979
  C            9.920727       13.861924       24.539546
  O            9.331467       14.880763       24.304784
  O           11.228823       13.840183       24.834125
  H            9.851586       11.864615       23.820119
  H            8.272847       12.532364       24.305697
  H            9.469561       12.037495       25.529246
  H           11.593145       14.739004       24.824643
  C           25.879873       26.836004       36.307141
  C           26.799146       27.902227       35.785842
  O           26.661944       29.085507       35.932122
  O           27.832598       27.376797       35.111850
  H           25.503845       26.248077       35.473461
  H           25.055703       27.291185       36.846482
  H           26.436999       26.172075       36.963560
  H           28.414870       28.079324       34.783044
  C           17.925435       16.006701       35.747374
  C           17.998757       16.649226       34.392594
  O           18.243286       16.090481       33.358968
  O           17.753080       17.966000       34.456735
  H           18.651534       16.476268       36.406437
  H           18.128246       14.944122       35.662938
  H           16.935564       16.167753       36.167249
  H           17.804694       18.363609       33.573591
  C            5.427930        5.043353       36.207270
  C            5.102677        3.577924       36.226603
  O            4.360446        3.029958       36.994196
  O            5.752631        2.915142       35.258799
  H            6.499202        5.174403       36.338721
  H            4.888304        5.551265       36.999839
  H            5.153740        5.458541       35.240567
  H            5.530605        1.971411       35.286642
  C            6.863285       31.545881       29.977009
  C            8.021992       32.444490       29.655225
  O            7.964492       33.482955       29.056344
  O            9.176359       31.948746       30.124307
  H            7.037726       30.565790       29.539895
  H            5.945799       31.972811       29.585493
  H            6.791394       31.426048       31.055224
  H            9.912627       32.541668       29.907392
  C           12.524392        1.953160       29.654198
  C           12.521107        1.705370       31.134818
  O           11.749942        1.005537       31.731402
  O           13.508463        2.373108       31.749325
  H           12.407901        3.018126       29.468849
  H           11.716200        1.400805       29.186155
  H           13.480578        1.641774       29.240889
  H           13.490760        2.201240       32.703709
  C           26.740419       30.835391       28.277210
  C           26.758113       29.492386       27.606637
  O           27.713417       28.966516       27.105410
  O           25.547701       28.915388       27.625047
  H           26.027043       31.479991       27.769605
  H           27.731510       31.275982       28.246329
  H           26.414072       30.717182       29.307550
  H           25.578301       28.050017       27.188129
  C           17.700367       28.932587       25.042494
  C           17.365876       27.552999       25.530857
  O           17.525014       26.531074       24.921991
  O           16.849573       27.578978       26.768241
  H           16.799507       29.541296       25.043521
  H           18.115050       28.878799       24.041255
  H           18.416403       29.389217       25.721360
  H           16.639916       26.680283       27.066722
  C           15.464051        3.049512       29.850846
  C           16.457172        4.174684       29.814205
  O           16.217568        5.334012       30.011493
  O           17.691007        3.734988       29.526657
  H           15.451966        2.550630       28.884903
  H           14.477619        3.435913       30.085325
  H           15.771295        2.324653       30.600685
  H           18.318205        4.474548       29.507332
  C            9.796782       29.189554       24.193770
  C            9.898318       27.899015       23.433609
  O            9.764853       27.765874       22.248352
  O           10.164413       26.866556       24.246987
  H            9.008812       29.105900       24.938204
  H            9.581383       30.004156       23.510131
  H           10.733602       29.373726       24.713892
  H           10.226332       26.042527       23.739206
  C           10.977019        2.868482       33.195236
  C           10.761728        3.950002       34.213868
  O            9.700592        4.384985       34.567638
  O           11.923798        4.399884       34.709411
  H           11.587621        3.256874       32.383821
  H           10.020835        2.525772       32.813665
  H           11.514583        2.043658       33.656502
  H           11.765299        5.096998       35.364857
  C           23.874643        1.793913       24.444228
  C           23.187636        2.718579       25.406860
  O           22.014640        2.971657       25.427002
  O           24.053484        3.255816       26.278667
  H           24.637350        2.345415       23.899985
  H           23.149784        1.376009       23.753380
  H           24.365660        0.998670       24.999716
  H           23.592508        3.849421       26.891720
  C            9.070343        3.785198       30.899887
  C            8.081003        2.661948       30.785163
  O            7.199178        2.578325       29.975371
  O            8.290965        1.721893       31.718210
  H            8.990084        4.233990       31.886914
  H            8.875170        4.528117       30.133524
  H           10.076826        3.388759       30.790774
  H            7.643471        1.005334       31.628803
  C            3.252552       12.294928       29.037209
  C            4.726024       12.007847       29.047778
  O            5.603353       12.816251       28.916821
  O            4.973299       10.701892       29.225823
  H            2.782692       11.727701       28.237483
  H            3.084905       13.357033       28.891731
  H            2.817774       11.971904       29.979918
  H            5.928816       10.535552       29.229898
  C           32.403057        6.857830       29.802171
  C           31.977536        7.106088       31.220249
  O           30.846825        7.199644       31.611546
  O           33.032918        7.217439       32.040086
  H           33.032855        7.678702       29.468104
  H           31.529237        6.772551       29.164597
  H           32.989948        5.943625       29.758984
  H           32.739214        7.377331       32.950511
  C           29.418570        8.956167       21.836832
  C           28.827367        7.599564       22.089326
  O           28.899735        6.977796       23.113309
  O           28.183115        7.133051       21.009665
  H           30.112875        8.894821       21.002414
  H           29.931931        9.306005       22.726444
  H           28.625077        9.647875       21.564829
  H           27.808322        6.257086       21.191088
  C           11.640849       27.495967       28.701123
  C           10.372421       28.003054       28.078548
  O            9.287996       27.498022       28.175181
  O           10.582331       29.124544       27.373877
  H           12.369713       27.298090       27.919025
  H           11.439143       26.590023       29.263188
  H           12.049217       28.261306       29.356537
  H            9.753116       29.437044       26.979610
  C            1.665869       30.368564       34.724762
  C            2.810232       30.588679       35.671139
  O            3.012438       31.581054       36.315095
  O            3.617677       29.519418       35.726613
  H            2.056921       30.161376       33.731672
  H            1.031989       31.248904       34.701667
  H            1.094047       29.502633       35.049199
  H            4.350074       29.679595       36.341949
  C           26.227938       11.852613       28.879851
  C           27.501067       12.638349       29.003969
  O           28.547805       12.224622       29.420553
  O           27.343944       13.902421       28.584686
  H           25.451297       12.333198       29.469719
  H           26.386550       10.836545       29.225949
  H           25.908549       11.849656       27.840592
  H           28.175388       14.394109       28.672111
  C           29.768769       17.370777       23.092481
  C           28.603653       18.247556       23.449424
  O           28.668103       19.364488       23.883799
  O           27.434383       17.630677       23.224405
  H           29.724361       16.458266       23.681912
  H           30.698302       17.896336       23.285070
  H           29.702837       17.097158       22.042308
  H           26.694177       18.211294       23.460366
  C           10.521734       22.539222       35.803807
  C            9.082916       22.912006       35.592903
  O            8.624964       23.431357       34.612634
  O            8.329343       22.592623       36.655206
  H           10.900792       23.056079       36.682016
  H           11.104584       22.809417       34.929384
  H           10.591803       21.469629       35.985848
  H            7.404370       22.840386       36.501136
  C           32.266918       18.213607       27.406080
  C           31.916201       19.626041       27.774422
  O           30.828211       20.024124       28.087759
  O           32.986473       20.431899       27.715484
  H           32.674624       18.196792       26.398325
  H           31.382673       17.587344       27.462998
  H           33.031956       17.845581       28.085308
  H           32.741242       21.338868       27.956250
  C            4.721966       16.994543       30.573171
  C            4.489559       16.759502       32.037544
  O            3.481673       17.006319       32.640554
  O            5.567279       16.223329       32.628648
  H            5.570545       17.662564       30.447719
  H            3.834417       17.427842       30.123901
  H            4.962971       16.049631       30.092407
  H            5.398965       16.078739       33.572821
  C            9.460881       29.592148       30.726485
  C            9.657451       28.288806       31.445029
  O            8.921178       27.818767       32.268035
  O           10.786364       27.677091       31.058087
  H           10.308875       30.242706       30.925877
  H            8.541547       30.062088       31.060125
  H            9.421465       29.408546       29.655591
  H           10.896560       26.838093       31.532048
  C           31.061024        4.156309       36.028658
  C           30.649029        3.481839       34.752338
  O           29.750461        2.696082       34.627696
  O           31.418879        3.862040       33.722221
  H           32.097927        3.911132       36.244985
  H           30.421222        3.829224       36.841679
  H           30.988467        5.233942       35.904080
  H           31.138483        3.416882       32.907413
  C            6.291856       15.782842       24.898863
  C            6.247494       15.377173       23.454180
  O            5.397487       14.707528       22.935107
  O            7.297804       15.858914       22.773636
  H            7.210872       15.412990       25.346854
  H            5.431176       15.378988       25.421803
  H            6.296973       16.867966       24.966358
  H            7.252363       15.587179       21.843693
  C           28.762111       18.692930       28.647617
  C           29.454756       18.299772       29.920140
  O           30.517996       17.749409       30.003777
  O           28.735126       18.639983       30.999377
  H           27.792127       18.203945       28.601778
  H           29.367427       18.405207       27.794304
  H           28.598092       19.767719       28.646228
  H           29.197469       18.378625       31.810938
  C           31.935097       26.700829       34.249235
  C           30.541967       26.470493       34.758921
  O           30.115816       26.813198       35.827247
  O           29.790158       25.815558       33.862145
  H           32.397154       25.742828       34.023814
  H           32.517581       27.231433       34.995229
  H           31.889110       27.277688       33.328803
  H           28.894905       25.675904       34.208150
  C           17.166923        6.817694       36.330339
  C           16.441626        6.977019       35.025653
  O           15.713298        6.168245       34.519890
  O           16.700676        8.164313       34.458565
  H           18.236721        6.908594       36.159033
  H           16.937805        5.849695       36.763718
  H           16.865279        7.613049       37.007465
  H           16.224334        8.249339       33.617989
  C            9.157023        7.075900       26.093675
  C            9.892256        6.184487       25.135311
  O           10.495761        6.541234       24.161203
  O            9.802785        4.895051       25.492680
  H            8.110415        6.783079       26.124416
  H            9.247580        8.110237       25.778586
  H            9.571752        6.949501       27.090721
  H           10.282925        4.334954       24.863031
  C            2.991388       11.327774       32.952316
  C            3.695876       12.543492       32.423758
  O            4.355882       12.597152       31.422816
  O            3.505169       13.608256       33.216394
  H            3.361698       11.104392       33.949837
  H            3.164087       10.484966       32.291116
  H            1.926600       11.534617       33.026610
  H            3.966885       14.383058       32.859742
  C            4.844657        8.328199       34.840250
  C            6.299598        8.108170       34.542960
  O            6.998718        8.819241       33.875141
  O            6.758469        6.989749       35.123422
  H            4.272713        7.476087       34.481278
  H            4.503389        9.238393       34.358152
  H            4.705397        8.398369       35.916243
  H            7.698585        6.864112       34.920699
  C            9.414577       25.793438       26.590806
  C            9.144443       25.311789       27.986760
  O            8.158953       25.538556       28.633103
  O           10.158218       24.571401       28.458407
  H           10.325600       26.386815       26.586480
  H            8.578476       26.388065       26.237693
  H            9.567449       24.936505       25.939366
  H            9.966346       24.269458       29.359914
  C            5.114999        9.783849       23.894973
  C            4.690065        9.528814       22.477922
  O            4.714026       10.324742       21.579981
  O            4.263030        8.268767       22.309733
  H            4.275425        9.596932       24.559996
  H            5.454487       10.809136       23.999223
  H            5.913839        9.095204       24.158979
  H            3.993076        8.122570       21.389706
  C           16.318790       24.134046       34.395602
  C           16.202372       22.982969       33.438986
  O           16.674809       21.890005       33.589336
  O           15.487053       23.313279       32.353823
  H           16.795267       24.971626       33.892107
  H           16.901511       23.836565       35.261210
  H           15.323810       24.447042       34.702399
  H           15.422525       22.558576       31.748051
  C            6.433591       11.998025       26.391950
  C            4.977261       12.244663       26.123775
  O            4.471367       13.309913       25.900867
  O            4.268930       11.106541       26.159979
  H            6.544676       11.536319       27.369992
  H            6.978997       12.935348       26.356001
  H            6.823240       11.308163       25.647409
  H            3.331842       11.285074       25.984792
  C           23.278361        3.326170       29.885329
  C           22.268230        4.164808       30.613317
  O           21.101027        3.914473       30.737179
  O           22.825320        5.268365       31.133103
  H           23.723765        3.914399       29.086782
  H           22.798590        2.442726       29.477063
  H           24.069240        3.039455       30.574083
  H           22.158817        5.797029       31.598921
  C           14.920485       30.199927       26.845552
  C           14.080769       28.993423       26.540807
  O           14.464502       27.856750       26.507719
  O           12.804881       29.328181       26.299120
  H           14.882100       30.885441       26.002537
  H           15.944953       29.897498       27.036174
  H           14.512041       30.710681       27.714104
  H           12.278232       28.537318       26.104502
  C           12.667446        5.310338       24.978076
  C           13.994990        5.992328       24.816331
  O           14.314345        7.040159       25.306672
  O           14.822801        5.282550       24.035748
  H           12.212213        5.175729       23.999955
  H           12.021211        5.907344       25.613135
  H           12.820651        4.327351       25.416642
  H           15.674151        5.737799       23.942737
  C           23.941928       26.309424       24.624039
  C           24.582301       27.498765       23.969030
  O           25.610410       28.019933       24.303317
  O           23.859044       27.938506       22.928890
  H           22.947013       26.581955       24.967474
  H           24.548980       25.977556       25.459914
  H           23.839296       25.510322       23.893985
  H           24.287408       28.705985       22.518792
  C            3.660188       12.502491       23.338485
  C            2.604223       13.519925       23.660061
  O            1.943575       14.127244       22.863141
  O            2.467993       13.688713       24.983434
  H            4.609151       12.825660       23.759327
  H            3.746795       12.388335       22.262937
  H            3.394281       11.553006       23.796577
  H            1.782574       14.348529       25.171961
  C           18.480273        3.750498       36.402209
  C           18.266198        2.901340       35.182886
  O           18.356755        3.267221       34.043455
  O           17.950265        1.639576       35.509232
  H           17.573773        3.750569       37.002489
  H           18.733799        4.763184       36.106362
  H           19.280783        3.322713       37.000758
  H           17.815856        1.106556       34.710155
  C           28.792201       23.326240       22.467009
  C           28.582567       21.842131       22.551394
  O           29.440189       21.004245       22.498428
  O           27.285622       21.534279       22.698110
  H           28.231459       23.719910       21.622812
  H           29.848756       23.543216       22.348913
  H           28.411761       23.793888       23.371801
  H           27.169568       20.572790       22.750743
  C            9.205459        7.446506       32.053792
  C            9.155772        8.727256       31.272220
  O            8.263119        9.080009       30.551727
  O           10.255887        9.468537       31.468727
  H           10.081324        6.876899       31.752982
  H            8.303890        6.869989       31.874529
  H            9.299986        7.676103       33.112294
  H           10.206194       10.290782       30.956728
  C            9.403287       32.369711       25.791920
  C           10.323377       31.531669       26.631424
  O           11.248859       30.881566       26.229899
  O            9.992767       31.585114       27.929964
  H            8.382553       32.017134       25.917893
  H            9.695566       32.306206       24.748908
  H            9.447875       33.401378       26.132144
  H           10.597073       31.038601       28.456118
  C           29.586806       22.061053       29.752468
  C           30.023194       22.683505       28.457955
  O           30.732072       22.174654       27.633979
  O           29.519711       23.917479       28.309040
  H           29.915680       22.685790       30.579283
  H           30.009178       21.065770       29.843833
  H           28.500992       22.011908       29.778355
  H           29.811791       24.303323       27.468496
  C            9.124824       31.153844       33.788159
  C           10.284124       31.523218       34.667495
  O           10.724006       30.864269       35.568972
  O           10.800247       32.713968       34.329712
  H            8.354415       31.916444       33.871758
  H            8.729725       30.187973       34.085354
  H            9.456153       31.121572       32.753143
  H           11.546961       32.935707       34.907595
  C           25.263591       28.796665       33.755739
  C           25.641312       27.522222       33.058052
  O           26.730332       27.244238       32.637180
  O           24.594900       26.690797       32.947977
  H           24.470378       29.288809       33.198347
  H           26.128942       29.447110       33.829378
  H           24.883870       28.563325       34.747425
  H           24.857338       25.874079       32.495431
  C           31.373526        8.862879       26.423083
  C           31.532524       10.354423       26.483599
  O           30.649318       11.162298       26.396089
  O           32.815108       10.707751       26.652423
  H           31.965500        8.472557       25.598891
  H           30.327531        8.608857       26.286329
  H           31.748849        8.424821       27.344666
  H           32.898418       11.673364       26.689166
  C           26.070419        4.256085       21.845870
  C           27.489910        4.143005       22.321161
  O           28.336717        3.433656       21.851996
  O           27.726049        4.948583       23.366937
  H           25.398207        3.995311       22.659630
  H           25.910613        3.594082       21.001152
  H           25.869372        5.285453       21.559411
  H           28.646594        4.862255       23.659927
  C           14.754479        8.294509       28.817166
  C           13.560073        7.391745       28.707358
  O           13.385171        6.375177       29.320849
  O           12.670894        7.855494       27.817042
  H           15.230900        8.378490       27.843489
  H           15.454080        7.893664       29.543262
  H           14.427361        9.286471       29.118966
  H           11.907201        7.260371       27.759577
  C           22.654086       20.696674       36.403000
  C           22.186855       20.407959       35.005866
  O           22.837310       20.530861       34.004778
  O           20.915762       19.980883       34.988722
  H           22.013688       21.455836       36.845313
  H           23.683408       21.039417       36.384094
  H           22.570033       19.793715       37.002732
  H           20.631572       19.799625       34.079282
  C           26.283384        4.598776       28.966212
  C           26.698559        5.851885       29.681051
  O           26.621524        6.048788       30.862435
  O           27.184654        6.767548       28.830383
  H           25.523683        4.842526       28.227621
  H           25.895318        3.878886       29.679303
  H           27.141290        4.183780       28.442903
  H           27.447322        7.569046       29.309242
  C           20.466505       24.998679       26.722489
  C           20.606540       26.371555       26.131518
  O           21.373637       27.220653       26.493412
  O           19.751930       26.561281       25.115639
  H           19.448313       24.864289       27.079282
  H           21.169268       24.875764       27.540016
  H           20.654152       24.255705       25.951220
  H           19.856581       27.452205       24.746856
  C            5.275793       24.221163       35.017815
  C            4.660735       25.084337       36.080961
  O            5.254216       25.677575       36.938995
  O            3.324964       25.127359       35.970381
  H            4.875666       23.213460       35.098504
  H            6.354568       24.206296       35.133388
  H            5.008417       24.612576       34.039355
  H            2.945539       25.688716       36.664366
  C            3.835405       21.492071       23.023332
  C            4.157353       22.590859       23.994238
  O            4.988453       22.547286       24.858961
  O            3.390180       23.671465       23.789050
  H            2.789225       21.215640       23.129023
  H            4.470892       20.633540       23.214162
  H            3.987609       21.853823       22.009405
  H            3.611902       24.369881       24.424466
  C           22.448411       12.750465       31.380403
  C           23.782234       13.428287       31.503358
  O           23.970184       14.612717       31.549986
  O           24.784665       12.539188       31.558131
  H           22.437899       12.140810       30.480243
  H           21.659407       13.494137       31.338467
  H           22.300210       12.093625       32.234028
  H           25.637351       12.994550       31.637328
  C            3.227017       31.613526       31.953522
  C            4.676615       31.483165       32.321375
  O            5.305636       30.461794       32.360207
  O            5.220534       32.673364       32.614535
  H            2.685712       32.061711       32.783098
  H            2.816014       30.636321       31.722259
  H            3.133271       32.273130       31.094330
  H            6.155832       32.569722       32.849433
  C           32.386548       12.991709       34.795242
  C           31.971619       11.552405       34.695838
  O           30.844603       11.140187       34.712752
  O           33.032132       10.739642       34.581419
  H           33.032504       13.119488       35.660395
  H           31.508778       13.622991       34.886551
  H           32.953621       13.263238       33.908237
  H           32.745244        9.815285       34.518498
  C           13.851453       26.442858       36.371013
  C           14.907875       27.469576       36.659919
  O           14.714804       28.615085       36.961426
  O           16.140974       26.955818       36.542098
  H           13.987695       26.062792       35.361525
  H           12.867115       26.887556       36.474251
  H           13.961873       25.610837       37.062118
  H           16.809401       27.632439       36.732069
  C           28.394365       12.194624       34.570329
  C           28.725741       13.007744       35.787979
  O           27.993578       13.781972       36.340140
  O           29.975085       12.771644       36.214313
  H           29.096852       12.435779       33.776330
  H           27.379641       12.407036       34.250095
  H           28.500629       11.138347       34.804987
  H           30.171159       13.304809       37.000436
  C           27.422176       15.705861       26.075566
  C           26.646361       14.442041       25.842079
  O           26.245647       13.693222       26.690060
  O           26.437539       14.225223       24.535271
  H           28.379584       15.638144       25.564821
  H           27.574802       15.853520       27.139633
  H           26.874406       16.545495       25.654807
  H           25.935677       13.405735       24.403840
  C           19.165038        6.214355       21.628379
  C           20.453046        5.472656       21.417281
  O           21.476043        5.940165       20.998612
  O           20.340289        4.180576       21.758132
  H           18.383142        5.751821       21.031070
  H           19.287689        7.254384       21.344425
  H           18.877271        6.142207       22.674354
  H           21.180722        3.718003       21.615309
  C            8.017349       32.297819       22.497155
  C            8.589897       31.065216       21.859562
  O            9.638657       30.992478       21.280610
  O            7.776871       30.009207       22.008551
  H            7.053316       32.519768       22.046095
  H            8.696275       33.133063       22.360178
  H            7.859009       32.112602       23.556731
  H            8.162487       29.223273       21.591049
  C           30.843451       23.457561       32.759612
  C           29.412597       23.007765       32.696463
  O           29.033313       21.873762       32.593722
  O           28.565418       24.044737       32.769526
  H           31.040650       24.141578       31.937840
  H           31.503101       22.598236       32.698319
  H           31.009983       23.992980       33.691101
  H           27.647106       23.735518       32.727257
  C           29.439423       12.121941       22.081115
  C           30.913182       12.332983       22.273835
  O           31.450259       13.377930       22.518798
  O           31.597718       11.187741       22.138939
  H           29.262749       11.712066       21.089720
  H           28.913903       13.064253       22.196060
  H           29.082006       11.401132       22.812392
  H           32.546530       11.343208       22.266550
  C           30.333184       32.704882       25.366475
  C           28.941218       32.314329       25.770882
  O           28.553445       31.197358       25.976748
  O           28.141205       33.384673       25.883603
  H           30.296166       33.228023       24.414093
  H           30.955146       31.819640       25.283746
  H           30.744520       33.384673       26.108610
  H           27.247471       33.113502       26.145146
  C           23.367433       23.573636       27.540371
  C           23.603792       25.049112       27.684423
  O           23.048796       25.916157       27.067506
  O           24.536991       25.311465       28.611070
  H           24.298668       23.087185       27.260649
  H           22.609223       23.393696       26.785339
  H           23.048735       23.166718       28.496889
  H           24.676180       26.268050       28.690259
  C           13.151121       25.954330       25.029478
  C           14.388581       26.641048       24.528722
  O           15.449512       26.120002       24.320616
  O           14.179967       27.950616       24.329031
  H           12.838568       26.415150       25.963305
  H           13.351039       24.898691       25.181117
  H           12.350956       26.084598       24.305018
  H           14.988997       28.377114       24.006123
  C           12.250523       10.705777       34.789740
  C           13.681515       10.664764       34.337827
  O           14.602165       11.232761       34.857591
  O           13.833539        9.897029       33.248865
  H           11.631780       11.096030       33.985417
  H           12.159833       11.333174       35.670355
  H           11.915988        9.695551       35.012465
  H           14.762899        9.882425       32.971778
  C           12.982296       23.896230       30.597511
  C           13.180555       24.695378       31.852781
  O           13.527525       24.262878       32.917173
  O           12.919817       25.996065       31.656331
  H           11.955464       24.009953       30.258748
  H           13.200369       22.850509       30.787893
  H           13.638113       24.281045       29.820402
  H           13.053019       26.495908       32.476767
  C           29.488767        8.681165       33.371704
  C           30.562492        9.596124       32.858274
  O           31.705728        9.295691       32.650610
  O           30.095486       10.835193       32.646195
  H           29.092610        9.080282       34.302210
  H           29.896308        7.688607       33.533183
  H           28.676933        8.640751       32.649645
  H           30.801977       11.411415       32.315229
  C           27.449309       19.746717       26.091552
  C           26.614113       20.745829       25.344646
  O           27.004618       21.775048       24.866538
  O           25.333743       20.355678       25.262182
  H           27.046565       19.620693       27.093546
  H           28.477550       20.089597       26.141442
  H           27.398008       18.786343       25.584476
  H           24.810108       21.012376       24.777151
  C           29.601750       23.136636       36.281487
  C           31.035356       22.944295       36.683260
  O           31.563957       21.895837       36.931637
  O           31.693334       24.111484       36.738929
  H           29.113148       23.790972       36.999255
  H           29.097017       22.176804       36.245401
  H           29.564108       23.617451       35.307075
  H           32.616421       23.967848       36.999656
  C            7.028470       20.144983       25.181959
  C            7.023370       19.514200       23.819707
  O            7.158545       18.345449       23.582805
  O            6.845007       20.427027       22.853634
  H            7.825798       20.882411       25.232401
  H            7.174338       19.382999       25.940536
  H            6.083754       20.658594       25.342559
  H            6.844498       20.001920       21.981864
  C           21.439128       24.583523       22.540430
  C           22.441568       25.596491       22.068568
  O           22.256182       26.777781       21.965810
  O           23.614459       25.023955       21.760520
  H           21.283662       23.842753       21.759939
  H           20.502794       25.076001       22.781426
  H           21.831029       24.072769       23.416570
  H           24.248687       25.692549       21.458134
  C           26.205784       15.710989       30.630744
  C           25.042608       15.336268       29.758821
  O           25.017025       14.436818       28.964649
  O           23.990779       16.142010       29.965702
  H           26.493485       16.738537       30.422293
  H           27.039244       15.042690       30.440861
  H           25.905855       15.650032       31.674011
  H           23.249984       15.885318       29.394710
  C           17.443036        2.062787       26.811355
  C           16.049836        1.960490       26.261650
  O           15.561044        0.988851       25.754331
  O           15.378413        3.112986       26.400598
  H           17.976313        2.854593       26.291032
  H           17.959726        1.117104       26.684668
  H           17.394043        2.325576       27.865214
  H           14.481848        3.028211       26.040481
  C            7.350342       12.507489       34.446717
  C            7.245289       11.973919       33.047463
  O            6.308085       12.107666       32.309809
  O            8.350992       11.304581       32.690010
  H            7.508233       11.680513       35.134655
  H            6.442890       13.042732       34.706292
  H            8.209456       13.170430       34.513866
  H            8.265160       10.967710       31.784553
  C            8.555976        1.578465       25.006646
  C            7.057689        1.639721       25.077568
  O            6.369827        1.132064       25.919887
  O            6.543939        2.348835       24.061900
  H            8.851815        1.123453       24.064563
  H            8.941137        0.999523       25.839599
  H            8.957591        2.588436       25.033884
  H            5.576464        2.377543       24.124089
  C           26.801900       31.156655       22.629939
  C           28.251668       31.345346       22.970838
  O           28.898406       32.337834       22.778301
  O           28.772992       30.246635       23.536012
  H           26.700933       30.317855       21.945617
  H           26.409397       32.060353       22.175400
  H           26.248525       30.921133       23.535689
  H           29.708756       30.386816       23.749071
  C           19.937420        5.462592       33.350039
  C           19.595598        4.903721       31.999311
  O           19.602528        5.508918       30.962941
  O           19.267943        3.605298       32.070755
  H           19.084537        5.342954       34.013631
  H           20.197530        6.512125       33.259722
  H           20.770982        4.903903       33.768511
  H           19.050539        3.261870       31.190134
  C            7.114989       27.325219       30.596524
  C            6.170754       26.749096       29.581562
  O            5.178381       26.117521       29.819640
  O            6.564757       27.022990       28.329321
  H            8.108897       26.915364       30.434530
  H            6.770255       27.087461       31.597506
  H            7.169239       28.403014       30.464271
  H            5.943731       26.643544       27.688191
  C           12.246087       29.816075       33.553163
  C           12.110383       28.593430       34.413611
  O           12.795688       27.609905       34.355216
  O           11.103690       28.716446       35.290993
  H           11.316559       29.979319       33.013342
  H           13.066823       29.686565       32.855342
  H           12.424640       30.681764       34.186233
  H           11.031199       27.918411       35.837423
  C           12.158468       18.493650       31.664797
  C           12.540536       17.686559       30.458036
  O           11.884956       16.816363       29.954699
  O           13.738794       18.051536       29.979148
  H           12.910760       18.359828       32.438248
  H           11.186751       18.175900       32.028301
  H           12.133273       19.547312       31.397892
  H           13.968680       17.520265       29.200943
  C           17.537995       32.780145       31.761845
  C           18.540501       31.857507       31.131475
  O           18.509249       30.658030       31.157007
  O           19.515497       32.537635       30.510852
  H           18.043009       33.420930       32.480478
  H           16.763637       32.201736       32.254944
  H           17.101561       33.413804       30.993679
  H           20.152886       31.926160       30.110184
  C            6.299823        4.412720       32.665979
  C            5.525476        4.957893       31.501153
  O            5.468242        4.475112       30.403875
  O            4.876888        6.086321       31.824182
  H            7.018323        5.157728       32.998841
  H            6.812415        3.502002       32.374130
  H            5.616960        4.212249       33.487920
  H            4.382913        6.423510       31.060642
  C           19.101676        2.765646       23.874895
  C           17.754111        3.398615       24.067414
  O           17.530979        4.575769       24.137382
  O           16.784052        2.477036       24.157083
  H           19.310036        2.104595       24.712555
  H           19.863863        3.534844       23.806048
  H           19.089868        2.166581       22.967668
  H           15.921908        2.903706       24.281024
  C           21.762049       10.065270       29.853590
  C           23.159503       10.063932       30.402011
  O           24.092886       10.672831       29.956576
  O           23.263901        9.280665       31.485504
  H           21.479147        9.048834       29.591100
  H           21.709551       10.706308       28.979720
  H           21.076649       10.418569       30.620065
  H           24.172173        9.292140       31.825517
  C           24.435178        6.340972       33.342705
  C           24.043631        5.024225       33.948110
  O           22.933763        4.569559       33.991076
  O           25.103925        4.380266       34.457479
  H           24.900737        6.961358       34.104580
  H           23.558138        6.836986       32.940084
  H           25.164782        6.170339       32.554898
  H           24.832265        3.533049       34.843644
  C           16.451827       29.810617       33.029087
  C           15.822276       28.720742       33.847307
  O           15.827780       28.644855       35.045048
  O           15.228138       27.801874       33.072036
  H           17.188611       29.375192       32.358542
  H           16.923267       30.536978       33.682906
  H           15.687347       30.291127       32.423481
  H           14.827586       27.106712       33.617020
  C            4.487524        6.392519       24.747640
  C            4.088200        5.471497       23.631439
  O            3.829924        5.797679       22.505707
  O            4.047530        4.193704       24.036354
  H            3.775488        6.296388       25.563630
  H            4.511391        7.416629       24.389919
  H            5.467068        6.101695       25.119112
  H            3.788161        3.614145       23.303184
  C            1.778311       16.657494       23.913649
  C            2.152853       16.567599       25.364608
  O            3.245268       16.323518       25.797536
  O            1.099115       16.797248       26.161642
  H            0.999615       15.929784       23.698826
  H            2.649582       16.467411       23.295516
  H            1.380266       17.647918       23.707015
  H            1.359600       16.735096       27.093835
  C           15.702857       12.999826       32.622023
  C           16.711973       13.750009       33.442118
  O           16.504212       14.746567       34.077791
  O           17.919826       13.169675       33.390468
  H           16.038889       12.960269       31.588779
  H           14.738068       13.492495       32.683627
  H           15.627854       11.979973       32.991282
  H           18.557849       13.667287       33.925267
  C            8.549704       23.003813       23.304189
  C            9.561795       23.047001       24.412093
  O            9.523959       22.408557       25.427637
  O           10.554185       23.907241       24.140957
  H            8.134219       23.998045       23.159439
  H            7.761330       22.300763       23.552225
  H            9.041275       22.706336       22.381182
  H           11.197541       23.921802       24.866616
  C            2.060020        4.376657       26.100907
  C            2.772018        3.058908       26.202117
  O            2.262667        1.997905       26.437080
  O            4.090140        3.192743       25.994730
  H            2.471737        5.063798       26.836028
  H            0.997977        4.236052       26.273036
  H            2.227528        4.799541       25.113392
  H            4.532963        2.332614       26.063899
  C           24.814529       31.296901       31.962787
  C           24.744086       30.037369       31.148993
  O           25.541053       29.140210       31.166936
  O           23.654838       30.015065       30.367068
  H           24.833798       32.154511       31.294797
  H           25.704377       31.285465       32.583573
  H           23.924926       31.372896       32.583197
  H           23.626140       29.195303       29.849511
  C           10.860793       25.554464       33.996531
  C           11.724681       25.009285       35.096586
  O           12.701419       24.326599       34.954120
  O           11.275836       25.377678       36.305382
  H            9.843540       25.193791       34.127638
  H           11.248519       25.240091       33.033113
  H           10.844146       26.639804       34.058482
  H           11.845411       25.016891       37.002603
  C           28.502936       32.209061       32.186508
  C           28.073436       31.279473       33.284252
  O           28.449004       30.150273       33.439911
  O           27.190570       31.862862       34.108005
  H           27.630013       32.518627       31.617078
  H           29.215397       31.709662       31.538176
  H           28.952066       33.097168       32.624259
  H           26.924828       31.248388       34.809790
  C           18.948554       26.781700       32.570449
  C           19.568460       26.860069       31.205450
  O           19.022075       26.608706       30.166868
  O           20.848265       27.255978       31.266429
  H           19.513038       26.080937       33.180666
  H           17.915700       26.459506       32.488360
  H           19.000449       27.758905       33.044214
  H           21.231728       27.300766       30.376682
  C           30.445314       15.905765       36.073670
  C           30.448583       16.830366       34.890984
  O           31.367390       17.013205       34.140827
  O           29.271593       17.457753       34.751544
  H           30.233271       16.476724       36.974293
  H           31.408713       15.414075       36.159917
  H           29.656879       15.167552       35.949214
  H           29.292274       18.049895       33.983664
