8
Properties=species:S:1:pos:R:3:energies:R:1:forces:R:3:charge:R:1 energy=-393.4750760939332 free_energy=-393.4750760939332 dipole="-0.09647878060527554 -0.4098628105667063 0.035169118170686624" pbc="F F F"
C       -0.96493356      -0.01313612      -0.06374544     -59.69126250      -0.00024027       0.00094791      -0.00011250      -0.14740937
C        0.50086866       0.30409078       0.00286078     -59.01307362       0.00008817      -0.00114639       0.00012180       0.36581198
O        0.99053423       1.39702272      -0.07524503    -112.20010727       0.00104757      -0.00008589       0.00007963      -0.40657628
O        1.23887439      -0.80375854       0.16528516    -112.58360437       0.00010739       0.00001729       0.00000575      -0.37947844
H       -1.14739083      -0.69159245      -0.89349444     -12.94158966       0.00140412      -0.00017293      -0.00027687       0.08169013
H       -1.53440489       0.90107307      -0.19511811     -13.03917132      -0.00307133       0.00069092      -0.00027744       0.07630286
H       -1.26521102      -0.51395843       0.85336283     -12.94158840       0.00135210      -0.00009516       0.00049024       0.08169021
H        2.18166302      -0.57974104       0.20609426     -11.06467897      -0.00068774      -0.00015575      -0.00003062       0.32796891
