768
Lattice="21.8892 0.0 0.0 0.0 21.8892 0.0 0.0 0.0 21.8892" Properties=species:S:1:pos:R:3:momenta:R:3 charge=0 spin=1 external_field="_JSON [0.0, 0.0, 0.0]" pbc="T T T"
O       21.33000000       5.72000000       0.86000000      -0.34249828      -0.83244153       0.49445078
C       21.27000000       7.01000000      -0.02000000       0.30597601      -0.47944578       0.53258598
C       20.21000000       7.06000000      -1.14000000       0.90429990       0.18608284       0.11044691
F       20.61000000       6.45000000      -2.22000000       0.19062040      -0.23487078       0.63566597
F       19.89000000       8.34000000      -1.38000000      -0.20625103      -0.78647158       0.46839450
F       19.08000000       6.48000000      -0.71000000       0.56939666       0.10819873      -0.16076406
C       22.71000000       7.34000000      -0.53000000       0.54003333       0.89797471       0.52472008
F       23.47000000       7.72000000       0.56000000      -0.67970703       1.00228482       1.09939598
F       22.79000000       8.32000000      -1.47000000       1.80437601      -0.35089022       0.39457189
F       23.26000000       6.17000000      -1.02000000       1.32726692      -0.82054807      -1.25904663
H       20.64000000       5.19000000       0.42000000      -0.06085473       0.31922854      -0.02918337
H       20.95000000       7.85000000       0.60000000       0.07151884      -0.05247251       0.08906292
O       20.86000000       4.42000000       5.72000000       0.37075808      -0.23741175      -0.63103558
C       19.47000000       4.62000000       5.47000000      -0.01372047      -0.68662610       0.56547709
C       18.65000000       3.30000000       5.26000000       0.90343094      -0.36088630      -0.09928585
F       17.47000000       3.40000000       4.63000000       0.53995580      -1.43444841       0.13467546
F       18.41000000       2.62000000       6.37000000       0.78234193       0.37123342      -0.38963483
F       19.36000000       2.47000000       4.53000000       0.24748768       0.03105907      -1.32658273
C       19.29000000       5.59000000       4.25000000       0.52198393      -0.61049119      -0.33876366
F       17.96000000       5.85000000       3.96000000       0.48621860      -0.43283803      -1.00647540
F       19.82000000       5.11000000       3.14000000       0.43304497      -0.80679928      -1.49946006
F       19.80000000       6.81000000       4.47000000      -0.97250556       0.05292820       0.00153644
H       21.09000000       3.90000000       6.51000000      -0.10796286      -0.15545606      -0.14943790
H       19.11000000       5.16000000       6.35000000       0.10732781       0.40196550      -0.01347936
O       14.62000000      16.50000000       3.81000000       0.56677382      -0.32090848       0.65654703
C       14.82000000      15.45000000       4.78000000       0.42878861       0.22446372      -0.51197817
C       15.62000000      16.03000000       5.93000000       0.69541591       0.03312618      -0.58857774
F       16.00000000      15.20000000       6.89000000       1.55182336       0.52934173      -0.68042257
F       15.03000000      17.10000000       6.45000000      -0.44591619       0.72578522       0.10855356
F       16.74000000      16.53000000       5.46000000      -0.53818037      -0.40761931       0.35390615
C       15.45000000      14.25000000       3.98000000       0.20674837       0.82505986       0.73485353
F       16.59000000      14.58000000       3.39000000       0.60349583      -0.70235497       1.72323049
F       14.53000000      13.88000000       3.03000000      -0.11682913       0.16012464      -0.10086002
F       15.53000000      13.22000000       4.84000000       0.18028305       0.10356187       0.49501393
H       15.38000000      17.10000000       3.78000000      -0.06018910      -0.03811783      -0.51624829
H       13.90000000      15.15000000       5.30000000       0.14872180       0.10030972       0.07346392
O        3.08000000      17.08000000      18.90000000       0.17469035       0.77424736       0.83042946
C        3.85000000      16.06000000      19.67000000      -0.52098604      -0.97513156       0.04173157
C        4.30000000      16.59000000      21.04000000       0.49384919       0.21782227      -0.07700650
F        3.29000000      16.93000000      21.88000000       0.96900221       0.22565835      -0.47793242
F        4.92000000      17.78000000      20.85000000      -0.80058742      -0.02544688      -0.06684752
F        5.13000000      15.68000000      21.63000000      -0.27178307       0.53841118       0.15831392
C        5.07000000      15.47000000      18.86000000       0.08850014       0.42122878       0.94070526
F        6.10000000      16.32000000      18.95000000      -0.43070190       0.73936371       0.26747211
F        4.70000000      15.21000000      17.58000000      -0.54136545      -0.14525425       0.69095768
F        5.58000000      14.25000000      19.34000000      -0.67292000       0.42340315       0.33095573
H        3.60000000      17.33000000      18.11000000      -0.11519976      -0.04378878       0.07886097
H        3.28000000      15.14000000      19.90000000       0.15336162       0.11792486       0.19458586
O        6.44000000       5.41000000       1.34000000      -0.16063240       0.52956183      -0.74290526
C        6.83000000       6.75000000       0.86000000      -0.12533011      -0.05624049      -0.50123904
C        6.57000000       7.81000000       1.99000000       0.18372348       0.33329111      -0.14341535
F        5.24000000       7.84000000       2.16000000       1.04575888       0.58608147      -0.33055552
F        7.09000000       9.08000000       1.75000000      -0.50597834      -0.35948772      -1.15677363
F        7.11000000       7.41000000       3.14000000      -0.87578814      -1.03082167      -0.68716044
C        6.16000000       7.16000000      -0.48000000       0.05317425       0.64550255       0.61427909
F        6.22000000       8.50000000      -0.75000000       0.20507952      -0.54589672       0.99554319
F        4.90000000       6.73000000      -0.40000000       0.69009111      -0.63737260      -0.27863163
F        6.66000000       6.47000000      -1.55000000      -0.62329188       0.43687081       0.23901844
H        5.85000000       5.01000000       0.68000000      -0.16964811       0.17832230      -0.07713948
H        7.92000000       6.85000000       0.75000000      -0.08830097       0.23157087       0.18038098
O       19.16000000      20.77000000      13.53000000       0.42580504       0.68284743       0.46703354
C       20.26000000      20.16000000      12.74000000      -0.06473685      -0.58726631      -0.41190451
C       19.69000000      19.04000000      11.75000000      -0.04213742       0.12557788      -0.00540055
F       20.67000000      18.29000000      11.22000000      -0.94493238       0.10940915       0.67118468
F       19.00000000      19.55000000      10.68000000      -0.95988634       0.01318439      -0.23950169
F       18.79000000      18.25000000      12.34000000      -0.76629694       0.96000929       0.17492612
C       21.30000000      19.56000000      13.76000000      -0.66364571      -0.82346356       0.48067568
F       20.68000000      18.48000000      14.35000000      -0.04958760       0.12753163       0.17690745
F       21.73000000      20.48000000      14.70000000      -1.14335189       0.35077775      -1.42426057
F       22.41000000      19.09000000      13.07000000       0.65359485       0.43435693      -0.17729632
H       19.18000000      20.29000000      14.38000000       0.03424592       0.03665855      -0.05133148
H       20.77000000      20.92000000      12.14000000       0.04856878      -0.09546474      -0.23418850
O       20.82000000       7.42000000      11.56000000      -0.66316501      -0.15109224      -0.43689617
C       20.21000000       8.47000000      12.29000000      -1.31173581       0.31693812       0.50373900
C       18.67000000       8.16000000      12.64000000      -0.38054781      -0.33977965       0.09860346
F       18.08000000       9.27000000      13.15000000       0.04322047      -0.45567749      -0.09012077
F       18.59000000       7.16000000      13.67000000       0.29649001      -0.81256990       0.00190406
F       17.99000000       7.61000000      11.62000000       0.96253100      -0.75952758      -0.43473851
C       20.35000000       9.88000000      11.68000000      -0.60404534       0.72066757      -0.49888192
F       21.59000000      10.16000000      11.26000000       0.44808244       1.06062002      -0.97010977
F       20.13000000      10.76000000      12.67000000       0.62881046      -1.32734634      -0.37847038
F       19.43000000      10.21000000      10.68000000      -0.31134746       0.74972203       0.44620904
H       21.75000000       7.69000000      11.43000000      -0.04724815       0.04730293      -0.11061452
H       20.69000000       8.51000000      13.28000000      -0.02262653       0.23377944       0.02412131
O        4.76000000       3.64000000      21.33000000       1.04169063      -1.04671516      -0.41707718
C        4.50000000       2.91000000      20.06000000       0.24751215      -0.03201777      -0.10458334
C        5.42000000       3.44000000      18.98000000      -0.39357150      -0.17954893       0.11857849
F        5.41000000       2.63000000      17.85000000       0.69454821       0.38821271       0.78987637
F        6.70000000       3.52000000      19.45000000       0.98083895      -0.57836880       0.24092991
F        5.12000000       4.75000000      18.62000000       0.37111427       0.62669114      -0.13373681
C        3.06000000       2.96000000      19.58000000       0.22103336      -0.51090548       0.26817269
F        2.78000000       4.25000000      19.29000000       1.15207069      -0.22733381      -1.48794221
F        2.21000000       2.52000000      20.55000000      -0.22621386       0.07640829       0.43096604
F        2.91000000       2.20000000      18.44000000       0.68061412       0.08246349      -0.73948176
H        3.90000000       3.83000000      21.74000000      -0.00358627      -0.23976851      -0.10123687
H        4.76000000       1.86000000      20.26000000       0.26386079      -0.16456189       0.06552198
O        3.63000000       8.66000000      17.34000000       0.76508170      -0.26553812       0.62167504
C        3.07000000       9.86000000      18.02000000      -0.03831796       0.26817910       0.38302877
C        3.14000000      10.96000000      16.95000000       0.17172348      -0.79242870      -0.15765044
F        4.41000000      11.31000000      16.52000000       0.08060078       1.53286666      -0.17576440
F        2.58000000      12.06000000      17.42000000       0.09790811       0.97545478      -0.00605564
F        2.42000000      10.55000000      15.93000000      -0.30389100      -0.65865183       0.23084382
C        3.72000000      10.17000000      19.39000000       0.67330978       0.05020822       0.14143326
F        3.14000000      11.15000000      20.11000000      -0.15511468       0.58535482      -0.76042300
F        5.08000000      10.53000000      19.21000000      -0.99164912       0.31048008       0.84394938
F        3.75000000       9.03000000      20.15000000      -0.96005482      -0.42117135       0.52700332
H        4.58000000       8.75000000      17.18000000      -0.24246930      -0.18328383      -0.12817514
H        2.00000000       9.65000000      18.17000000       0.14422803       0.15438727      -0.01761366
O        4.53000000      13.07000000       1.77000000       0.18879337       0.10255257       0.30615420
C        3.29000000      12.32000000       1.42000000       0.60286827      -0.26366479      -0.61472021
C        2.21000000      13.26000000       1.04000000      -0.74545853      -0.34855844      -0.18573645
F        2.64000000      14.09000000       0.03000000      -0.95087075       0.74418041      -0.40695796
F        1.94000000      14.09000000       2.02000000       0.58935458      -0.42013826       1.08709205
F        1.04000000      12.69000000       0.62000000      -0.90267559      -1.01355241       1.24273201
C        2.91000000      11.37000000       2.62000000       0.09816868       0.04943380      -0.16526464
F        2.63000000      12.02000000       3.78000000       0.72701713       1.12311023       0.06768891
F        3.93000000      10.57000000       2.89000000       0.00689346      -0.20026666      -1.33290086
F        1.88000000      10.61000000       2.24000000      -0.51221245       0.17976031       0.47810036
H        4.52000000      13.96000000       1.40000000      -0.02613220       0.22795815      -0.07499143
H        3.46000000      11.59000000       0.62000000       0.07499473      -0.16399693       0.27906443
O       12.98000000       7.71000000      10.26000000      -0.48465665       1.15384684       0.25689255
C       13.15000000       6.79000000      11.39000000       0.38957593      -0.34657665       0.51230462
C       12.22000000       5.60000000      11.39000000       0.15115855      -0.14204785      -0.37825413
F       12.70000000       4.54000000      12.03000000       1.43653979       1.09161466      -0.42490070
F       12.10000000       5.16000000      10.07000000       0.48140355      -0.54978610       0.91073428
F       10.95000000       5.86000000      11.90000000      -0.73075388      -0.53021491       0.46359564
C       13.31000000       7.51000000      12.72000000       0.59310364       0.08662870      -0.08129596
F       13.67000000       6.55000000      13.62000000       0.28151088       0.27861590       0.11011484
F       12.13000000       8.07000000      13.20000000       0.01637663       0.29029858      -0.77335850
F       14.26000000       8.46000000      12.71000000       0.15334689      -0.47657726      -0.24254853
H       12.04000000       7.79000000      10.04000000      -0.13740637       0.03240010       0.22399578
H       14.16000000       6.37000000      11.30000000      -0.09536299      -0.36590357       0.06684062
O       18.75000000       3.23000000      16.91000000       0.02381667      -0.50815215      -0.06250072
C       20.18000000       3.29000000      16.76000000      -0.58246618       0.46336593      -0.37534631
C       20.63000000       2.49000000      15.47000000       0.00894235       1.23995125       1.19526443
F       20.04000000       2.97000000      14.38000000       0.23338830       0.05630101      -2.07484053
F       20.24000000       1.24000000      15.55000000       0.38080219       0.52117541      -0.10644105
F       22.00000000       2.48000000      15.29000000       0.96858212       0.16845280      -0.89370338
C       21.06000000       2.93000000      17.97000000       0.41940251      -0.33524030       0.44108383
F       20.53000000       3.47000000      19.10000000      -0.00989348       0.84826505      -0.68963852
F       22.32000000       3.36000000      17.92000000      -0.37052090       1.43352031      -0.81703030
F       21.15000000       1.57000000      18.09000000      -1.05136476      -0.69501965       0.66639486
H       18.50000000       3.16000000      17.85000000       0.10586026       0.02497480       0.00603086
H       20.46000000       4.32000000      16.48000000      -0.22512329      -0.08598801      -0.05054188
O       10.85000000      17.49000000      13.22000000      -0.45942239       0.43485048       0.14865712
C       12.08000000      18.22000000      12.98000000      -0.02147684      -0.52387951       0.12231266
C       13.23000000      17.18000000      12.86000000       0.23356465       0.29095801       0.65482641
F       13.08000000      16.28000000      11.82000000      -0.25199749       1.00101354      -0.70843690
F       13.43000000      16.46000000      13.96000000       0.01498473      -1.30025472       0.10125121
F       14.37000000      17.81000000      12.63000000       0.44365538      -1.38131284      -0.09901599
C       12.26000000      19.32000000      14.10000000      -0.13890446      -0.34816367       0.79349765
F       12.29000000      18.67000000      15.29000000      -1.46218848      -0.23243726       1.52709531
F       11.23000000      20.29000000      14.10000000      -0.97282997      -0.24459177       0.00785875
F       13.42000000      19.95000000      13.97000000      -0.59667879       0.51594529      -0.70029764
H       10.84000000      16.70000000      12.65000000       0.20519237       0.00488784      -0.24797165
H       11.98000000      18.79000000      12.05000000      -0.08769828      -0.43232322      -0.08717390
O       13.93000000      20.56000000      11.24000000      -0.24273030       0.31237078      -0.38870062
C       13.97000000      20.54000000       9.75000000       0.92392760      -0.68191637      -0.44543377
C       13.93000000      19.11000000       9.19000000      -0.40425364      -0.76180728      -0.30575799
F       13.76000000      19.16000000       7.85000000       1.15481451       0.08604561      -1.09596857
F       12.91000000      18.42000000       9.66000000      -0.13985623       0.27149326       1.29552775
F       15.03000000      18.48000000       9.51000000       0.03689456       0.22037599       0.04470259
C       15.11000000      21.43000000       9.30000000      -1.14003254      -0.32797291      -0.52329477
F       14.96000000      22.71000000       9.77000000      -0.45528939       0.37839239       0.68435857
F       15.26000000      21.49000000       7.92000000       0.72983413      -0.61100855      -0.31976503
F       16.33000000      20.99000000       9.76000000       0.12230218      -0.10485131       0.05809989
H       14.57000000      21.19000000      11.60000000      -0.16349466       0.14608019       0.15576553
H       13.07000000      21.09000000       9.45000000      -0.08251955       0.12898736      -0.05671971
O        2.89000000       7.38000000      15.21000000       0.16750477       0.18531455      -0.27900008
C        2.00000000       6.23000000      15.11000000      -0.60689221      -0.24191980       0.06443084
C        1.84000000       5.65000000      13.69000000      -0.43963412      -1.43762551      -0.10827554
F        3.10000000       5.18000000      13.35000000      -0.00637119      -0.77490771      -0.40813104
F        1.48000000       6.67000000      12.86000000       1.24699741      -0.53607541       0.48761461
F        0.94000000       4.67000000      13.57000000       0.04811538       1.44553710      -0.47087632
C        0.64000000       6.67000000      15.81000000       0.76480537      -0.57518259       0.11900449
F        0.67000000       6.51000000      17.18000000      -1.00289951       0.19062117       0.93084406
F       -0.36000000       5.93000000      15.34000000      -1.26106999       0.37501034      -1.14295038
F        0.32000000       7.99000000      15.65000000       0.00422592       0.66199012       0.89177648
H        2.99000000       7.69000000      16.13000000      -0.14230253       0.06388918      -0.14058239
H        2.30000000       5.37000000      15.72000000       0.14172561      -0.27316816      -0.09233058
O       14.53000000       1.03000000      12.87000000       0.85743794      -0.32923911      -0.08129389
C       15.71000000       1.38000000      13.68000000       0.99856312      -0.53545587      -0.75271342
C       15.88000000       0.58000000      15.02000000       0.52254811       0.43965641       0.35356831
F       14.94000000       0.96000000      15.89000000      -0.26940177      -0.98919322      -1.11839618
F       17.11000000       0.88000000      15.62000000       0.06284731      -0.13200190      -0.59150183
F       15.79000000      -0.75000000      14.86000000      -0.49499770      -0.08534583      -1.77664471
C       15.82000000       2.95000000      13.79000000      -0.07205539      -0.16041688       0.04322996
F       16.97000000       3.37000000      14.32000000       0.15579399       0.91149929      -1.33318249
F       14.80000000       3.49000000      14.44000000       0.99753939       0.18941175       0.43965993
F       15.73000000       3.48000000      12.55000000      -0.23766429       0.06582678      -1.35511404
H       13.78000000       1.39000000      13.37000000      -0.26626176       0.04812202       0.01823136
H       16.52000000       1.10000000      12.99000000       0.14728194      -0.12234767      -0.07234072
O        3.72000000      20.33000000       6.79000000      -0.38844941      -0.00369370      -1.34255048
C        4.98000000      20.89000000       6.31000000      -0.06569414       0.77514192       0.36240521
C        6.18000000      20.80000000       7.24000000       0.32078783       0.03106427       0.90475546
F        6.20000000      19.59000000       7.79000000       0.06057056      -0.63984788      -1.05783262
F        6.14000000      21.78000000       8.19000000      -1.28035679      -1.03873163      -0.16194412
F        7.40000000      20.95000000       6.59000000      -0.12940505      -0.09918252       0.10218919
C        4.68000000      22.33000000       5.76000000       0.44521491       0.12963681      -0.22766710
F        4.27000000      23.23000000       6.70000000      -1.06179748      -0.52199908       1.31507136
F        3.74000000      22.15000000       4.82000000       0.41644085      -0.51861162       0.13396000
F        5.75000000      22.80000000       5.08000000       0.12766793      -0.22471863      -0.71229165
H        3.98000000      19.58000000       7.34000000      -0.08895905      -0.03865328      -0.15587986
H        5.26000000      20.26000000       5.46000000      -0.03571107      -0.17095149      -0.06305901
O        2.07000000      16.41000000      15.91000000      -0.17549620      -1.20060279      -0.23001992
C        2.04000000      15.81000000      14.58000000       0.49882380      -0.32161643       0.70172585
C        0.93000000      14.68000000      14.60000000      -0.54232363       0.26133901      -0.28136467
F        1.33000000      13.66000000      13.83000000      -0.16528195      -0.16625476       0.10893072
F       -0.27000000      15.14000000      14.08000000       0.41278249      -0.26274219      -0.56379998
F        0.79000000      14.11000000      15.79000000      -0.93533131      -0.06533564       0.58477152
C        3.51000000      15.39000000      14.11000000      -0.51377398      -0.46423456       0.18126154
F        4.20000000      16.48000000      14.24000000      -0.29504634       1.11289544       1.02583200
F        3.58000000      14.96000000      12.83000000      -0.17861363      -0.12817722       0.79786378
F        3.99000000      14.50000000      14.94000000       0.02131199      -0.99257130       0.48948869
H        1.29000000      16.18000000      16.45000000       0.14553269       0.10788786       0.23169839
H        1.61000000      16.57000000      13.91000000      -0.28447868       0.03392226      -0.04716783
O       12.72000000      13.27000000      10.11000000       0.09968644      -0.73942869       0.28842832
C       11.83000000      14.29000000       9.38000000       0.18701177       0.84900142       0.74742841
C       10.41000000      13.72000000       8.90000000       0.42387825      -0.05790696      -0.24559420
F        9.48000000      14.65000000       8.82000000      -0.31436840       0.79917063       0.97865652
F        9.95000000      12.82000000       9.83000000       0.25430972       1.17825250       1.01091571
F       10.46000000      13.10000000       7.74000000       0.07951901       0.52507653      -0.19863398
C       12.67000000      14.84000000       8.11000000      -0.26217760       0.46346397      -0.14435262
F       11.95000000      15.71000000       7.46000000      -1.99880387       0.82753865       0.37849149
F       13.04000000      13.86000000       7.27000000       0.69757081      -0.65537221      -0.00875629
F       13.74000000      15.57000000       8.60000000       0.20752080      -0.44424855      -0.45513166
H       12.06000000      12.61000000      10.39000000      -0.31352877       0.06092892      -0.17004666
H       11.75000000      15.20000000      10.00000000       0.11515508       0.02094901      -0.03041710
O       14.44000000       4.74000000       6.18000000      -0.34188396      -0.01144190      -0.13210156
C       14.70000000       4.96000000       7.62000000      -0.31769500      -1.34687073      -0.35205964
C       15.96000000       5.82000000       7.76000000      -0.51100615      -0.74284219       0.59507497
F       15.85000000       7.01000000       7.16000000       1.22243995      -0.02152849       0.24654911
F       17.08000000       5.22000000       7.29000000      -0.01615875       0.47772448       0.65231390
F       16.28000000       6.12000000       9.03000000       0.62227940       0.54500240       0.50393221
C       14.84000000       3.63000000       8.38000000       0.40773165       0.11088704      -1.13307096
F       13.74000000       2.87000000       8.13000000       0.05189599      -0.82017565       1.15965682
F       15.04000000       3.70000000       9.72000000       0.26032702      -0.31455847       0.17851226
F       15.88000000       2.91000000       7.88000000       0.17697750       1.59788255       0.22610766
H       15.25000000       4.38000000       5.78000000      -0.28817643       0.41515555       0.04710748
H       13.88000000       5.52000000       8.10000000      -0.19500221       0.20358909       0.13172004
O        0.53000000      15.89000000       6.12000000      -1.51964845       1.12674904       0.12215131
C        0.75000000      14.49000000       5.82000000      -0.41134801      -0.49914848       0.06610887
C       -0.54000000      13.83000000       5.21000000      -0.31788667       0.67503757       0.51533213
F       -1.51000000      13.55000000       6.04000000       0.04804225       0.47999968      -1.73827796
F       -0.24000000      12.68000000       4.56000000       1.02413222       0.34922557       1.33978455
F       -1.06000000      14.66000000       4.30000000       1.17005377       0.57029762      -0.93282591
C        1.08000000      13.64000000       7.14000000       0.68243798       0.26048672      -0.36297802
F        0.48000000      13.99000000       8.29000000      -0.03312660       0.72506395       1.51231518
F        2.39000000      13.72000000       7.39000000       0.79682031       0.26402463      -0.29693679
F        0.87000000      12.36000000       7.00000000      -0.45178029       0.36699766      -0.20144010
H       -0.05000000      16.32000000       5.46000000      -0.11140147       0.14262714      -0.00433407
H        1.51000000      14.36000000       5.04000000       0.00218241      -0.04486030       0.14581311
O        8.53000000       5.72000000      14.23000000      -0.02423555      -0.49642096      -0.58677026
C        7.12000000       6.11000000      14.47000000       0.25531002       0.43882910      -0.33997674
C        6.76000000       7.59000000      14.26000000       0.84637110       0.34336001       0.42520718
F        6.06000000       8.14000000      15.30000000       0.94257076      -0.03081583      -0.07524596
F        6.03000000       7.63000000      13.15000000      -0.22173848       0.17610354      -0.59321366
F        7.89000000       8.22000000      14.07000000      -0.10864109      -0.20207299      -0.10274557
C        6.71000000       5.49000000      15.81000000      -0.37083586       0.88199940       0.14424441
F        7.44000000       5.93000000      16.86000000      -0.54067478       0.85684940       2.00953082
F        6.88000000       4.13000000      15.71000000      -1.19279291       1.07888141      -0.40351641
F        5.40000000       5.70000000      16.10000000      -0.76530981       0.18336293      -1.08633937
H        9.00000000       6.53000000      14.46000000       0.15850328       0.04043967       0.14381206
H        6.46000000       5.63000000      13.74000000      -0.13191439      -0.02709618      -0.14614299
O       19.99000000       9.84000000       1.82000000       0.45600789      -0.91660310       0.21169397
C       18.72000000       9.66000000       2.50000000      -0.15118924      -0.14878101      -1.58897563
C       17.69000000       8.89000000       1.61000000      -0.07886946      -0.64003640       0.42389279
F       16.37000000       9.04000000       1.97000000      -0.91395677       0.77751515       0.01301902
F       18.10000000       7.59000000       1.67000000      -0.24120431      -0.08263002       0.94605053
F       17.74000000       9.28000000       0.30000000       0.28577033       0.11127766      -0.00661596
C       18.06000000      10.99000000       2.85000000      -0.16035643       0.05025502      -0.45263536
F       17.45000000      11.67000000       1.75000000      -0.38893660      -0.67994830      -0.46423156
F       19.04000000      11.81000000       3.33000000      -0.25286486      -0.39120681       0.96457000
F       17.24000000      10.86000000       3.89000000       0.37618915       0.59305022      -0.18372762
H       20.50000000      10.56000000       2.23000000      -0.05705584       0.21916606      -0.12179669
H       18.76000000       9.02000000       3.39000000       0.07678498       0.31605238       0.05099395
O       17.56000000      19.46000000       7.82000000       0.85707345       0.94402285      -0.90733034
C       18.78000000      19.89000000       7.09000000      -0.07825466      -0.13765353      -0.04585438
C       18.39000000      20.65000000       5.84000000      -1.18009689       0.33215438      -0.51146964
F       17.37000000      21.52000000       6.23000000      -0.03941253       0.53100622      -0.05984960
F       17.99000000      19.79000000       4.89000000      -0.24691359       1.03972736      -0.17630745
F       19.37000000      21.29000000       5.38000000      -0.27018584       0.33666670       0.26843115
C       19.87000000      18.70000000       6.96000000      -0.41112463      -1.23301572      -0.39746361
F       20.09000000      18.17000000       8.15000000      -0.13403693      -0.22344638       1.69826687
F       21.06000000      19.03000000       6.35000000       0.10389818       0.69911661      -0.77098848
F       19.46000000      17.59000000       6.33000000       1.22680224       1.36706689      -0.26132170
H       17.82000000      19.21000000       8.72000000      -0.05810610       0.13766065       0.10954229
H       19.25000000      20.64000000       7.74000000      -0.07922464      -0.08593690      -0.01056169
O        9.04000000       1.87000000       5.79000000       0.25403762       0.03588575      -0.03891295
C        9.37000000       3.06000000       5.06000000      -0.52861126       0.73391940      -0.35729998
C        9.91000000       4.20000000       5.97000000       0.82481636      -0.26450024      -0.28293450
F       10.47000000       5.18000000       5.27000000      -0.96607683       0.01117283       0.53933136
F       10.85000000       3.65000000       6.83000000       0.36196881      -1.02220035      -2.06457137
F        8.93000000       4.72000000       6.70000000      -0.30639198      -1.24140917      -0.17791673
C        8.20000000       3.56000000       4.13000000       1.00867554       0.24141574      -0.18474051
F        7.83000000       2.48000000       3.32000000      -0.20233427       0.54640405      -0.93259553
F        8.59000000       4.57000000       3.35000000      -0.13229945      -0.27002647      -0.40653263
F        7.17000000       3.95000000       4.84000000      -0.54799938       1.01138673       0.06771565
H        8.85000000       2.06000000       6.73000000       0.02316139       0.06193259      -0.21801292
H       10.25000000       2.81000000       4.46000000       0.11535066      -0.02974893      -0.06869540
O       10.04000000       3.39000000      14.30000000       0.92372843      -0.15076300      -0.00677137
C        9.72000000       2.45000000      15.40000000      -0.17303729      -0.19182456       0.96379958
C       11.07000000       1.78000000      15.95000000       0.38796443       0.02555078      -0.50786189
F       11.90000000       2.74000000      16.60000000       0.37989555      -2.28096709      -1.45585002
F       11.90000000       1.25000000      14.99000000      -1.83945651      -0.49748674      -0.58345181
F       10.81000000       0.81000000      16.90000000       0.16713577      -0.17017995      -0.12980613
C        8.73000000       1.37000000      14.99000000       0.16904775      -0.72975816       0.27448499
F        8.04000000       0.87000000      16.06000000      -0.77271996       0.39578910      -0.24851599
F        9.40000000       0.39000000      14.35000000       0.34553045      -0.13555438      -0.17401607
F        7.76000000       1.85000000      14.18000000       0.85381142       0.20154392       0.04659777
H        9.58000000       4.25000000      14.37000000       0.31668284      -0.32229709       0.31027967
H        9.31000000       2.94000000      16.29000000      -0.18056370       0.07327404      -0.04004760
O       10.17000000       7.69000000       9.30000000      -0.81085763       0.71151069       0.30231964
C        9.04000000       8.50000000       9.67000000      -0.10868960       0.46600758      -0.30773337
C        9.42000000       9.38000000      10.92000000      -0.07947723      -0.09239663      -1.38725905
F        8.47000000      10.32000000      11.19000000      -0.19705995      -1.26377322       0.32511627
F       10.58000000      10.01000000      10.76000000       1.91072813       1.01333403       0.01991690
F        9.56000000       8.67000000      12.07000000      -0.62077205       1.07333156      -0.04727246
C        7.76000000       7.59000000       9.91000000      -0.67365759      -0.64970302       0.26431738
F        8.06000000       6.62000000      10.78000000       0.09192915      -1.22465846      -0.27838622
F        7.42000000       7.13000000       8.78000000       0.71230002      -0.02341450      -0.85037073
F        6.74000000       8.29000000      10.44000000      -0.99583556       0.01251016       0.14720300
H        9.87000000       7.07000000       8.61000000       0.24819571      -0.00146272       0.03853907
H        8.78000000       9.05000000       8.76000000       0.04300126       0.05784210       0.05961230
O        7.39000000      11.31000000      13.83000000       1.15868498      -0.46437505       0.41444688
C        8.23000000      12.43000000      14.17000000       0.23065619       0.33850521      -0.06532080
C        7.36000000      13.56000000      14.61000000       1.17557866       0.19546210      -0.26214741
F        8.03000000      14.67000000      15.07000000      -0.03908315      -0.16247288       0.53964022
F        6.54000000      13.16000000      15.59000000      -0.83811410       0.34595200      -1.15107842
F        6.70000000      13.88000000      13.47000000      -0.10293299       0.71512015      -0.05103585
C        9.31000000      12.79000000      13.12000000       0.05138796      -0.60687178      -0.34539956
F        8.66000000      13.05000000      11.95000000       0.02140807      -0.22455237       0.43015691
F       10.18000000      11.76000000      12.99000000      -0.84340443      -0.01797647       0.35842079
F       10.02000000      13.90000000      13.41000000       1.25169941      -0.16065365       0.34753255
H        6.97000000      11.49000000      12.97000000       0.05911612      -0.15006617       0.21414077
H        8.77000000      12.24000000      15.10000000      -0.10938805       0.11228143       0.11284074
O       19.05000000       0.77000000       1.87000000       0.65932080      -0.50792253      -1.14152770
C       18.82000000       1.41000000       0.61000000      -0.08487264       0.08871251       0.74269024
C       19.90000000       1.17000000      -0.36000000       0.42649957      -1.11229242      -0.77772006
F       19.48000000       1.32000000      -1.65000000       0.63049721       1.14782408       1.19568416
F       20.46000000      -0.05000000      -0.21000000       0.17303972       0.65659582      -0.26133535
F       20.95000000       2.06000000      -0.23000000      -1.07410018       1.27030206       0.45940722
C       18.36000000       2.93000000       0.70000000      -0.00207049       0.63790405      -0.42736682
F       17.66000000       3.34000000      -0.40000000       0.51640945       0.71465128       0.96594842
F       19.41000000       3.76000000       0.86000000       1.13513090       0.14138759      -0.13592695
F       17.56000000       3.05000000       1.78000000      -0.50866882      -0.64929830      -0.12539433
H       18.83000000       1.47000000       2.51000000       0.07855758       0.02376023       0.13026746
H       17.96000000       0.91000000       0.16000000      -0.04014020       0.08192818       0.01090014
O       16.71000000      14.77000000      17.32000000       0.68681032       1.12685270       0.21823552
C       16.61000000      15.99000000      16.49000000      -0.60458816      -0.64096830       0.82975028
C       17.95000000      16.65000000      16.15000000       0.27402711      -0.20666281       0.14732580
F       18.81000000      15.78000000      15.67000000       0.64185583       0.16958827       0.45919869
F       18.54000000      17.15000000      17.24000000       0.90461258      -0.71898681      -0.46715993
F       17.74000000      17.66000000      15.31000000      -0.70100977       0.97555070      -1.70911151
C       15.67000000      17.04000000      17.28000000       0.33617371      -0.42870232       0.56947540
F       15.56000000      18.20000000      16.62000000       0.71553834       2.01584124      -0.36960638
F       16.24000000      17.27000000      18.55000000       0.22265503      -0.39449919       2.11520131
F       14.47000000      16.51000000      17.42000000       0.99934149      -0.51656026       0.00135860
H       15.90000000      14.25000000      17.19000000      -0.15119640      -0.09691853      -0.04560236
H       16.14000000      15.83000000      15.51000000      -0.08103837      -0.31178132       0.07508015
O        2.41000000       4.09000000       0.97000000       1.16330884       0.51696893      -0.99603599
C        2.24000000       3.75000000       2.39000000      -0.04863140       1.01638591      -0.12475845
C        3.57000000       4.06000000       3.11000000      -0.52583969       0.55519646       0.99809530
F        4.49000000       3.17000000       2.68000000      -1.07846404       0.02165437       1.01490385
F        3.50000000       3.95000000       4.46000000       0.67586658      -0.06767754       0.35816842
F        3.96000000       5.31000000       2.77000000       0.36254986      -0.54307101       0.74707261
C        1.53000000       2.40000000       2.62000000       0.15992717       0.72141091      -1.46867185
F        1.58000000       2.12000000       3.97000000       0.49043527      -0.92058466      -0.52222485
F        2.19000000       1.37000000       1.91000000      -0.72686730       0.36090138       1.11580307
F        0.26000000       2.37000000       2.25000000      -0.44573404       0.41862933      -0.52938997
H        1.61000000       3.92000000       0.45000000      -0.20166660      -0.26847581       0.06128464
H        1.47000000       4.41000000       2.80000000      -0.15106603      -0.00296870      -0.02771732
O       15.87000000      11.97000000      15.89000000       1.22348882       0.50545869       0.41278298
C       14.72000000      11.83000000      14.92000000      -0.48148816      -0.02975147       0.31189217
C       14.08000000      13.19000000      14.67000000      -0.10453653      -0.16324894       0.14549785
F       13.03000000      13.26000000      13.79000000       0.11340385      -0.44005620       0.82197425
F       15.03000000      14.02000000      14.24000000       0.06135180       0.92576018       1.13373624
F       13.58000000      13.72000000      15.80000000       0.43409734      -1.13696550       0.49676100
C       13.67000000      10.80000000      15.42000000       0.15908124       0.55590791       1.47174887
F       12.64000000      10.74000000      14.52000000       1.28499636      -0.64225590      -0.05728573
F       13.17000000      11.06000000      16.62000000       1.01149060       0.09918032      -0.19086112
F       14.12000000       9.52000000      15.57000000       0.17959379       0.19090060       0.35457484
H       16.40000000      11.16000000      15.79000000       0.12977366      -0.01115933      -0.14987327
H       15.14000000      11.40000000      14.00000000       0.00569706      -0.15707994      -0.11031254
O       16.30000000      14.55000000      10.84000000       0.71481787       1.04006739      -0.12498526
C       17.65000000      14.98000000      10.99000000       0.27575703       1.48300031      -1.22900840
C       18.38000000      15.25000000       9.69000000       0.17003116       0.61810050      -0.27256477
F       17.57000000      16.19000000       9.11000000      -1.03978409      -0.72627978      -0.03979400
F       18.63000000      14.12000000       8.89000000       0.56502070      -0.72894758      -0.11758180
F       19.57000000      15.82000000       9.93000000      -0.13851328      -0.62370596      -0.35887605
C       18.40000000      14.01000000      11.95000000       0.31874280      -0.77073644       0.40109267
F       19.70000000      14.26000000      12.14000000      -1.46850628       0.10981061      -0.20717143
F       18.30000000      12.77000000      11.52000000      -0.42407473       0.16307957       0.56275004
F       17.89000000      14.07000000      13.19000000      -0.36957794      -0.10605582      -0.87114133
H       16.12000000      13.85000000      10.19000000      -0.08011472       0.05915212       0.11376070
H       17.63000000      15.94000000      11.50000000       0.20668375       0.15266889       0.14788209
O       10.99000000      15.33000000       2.01000000       1.18251965      -1.53917794       0.14552891
C        9.98000000      14.40000000       2.38000000      -0.43587269      -0.86559958      -0.63305333
C       10.56000000      13.34000000       3.36000000      -0.97506267      -0.05795592      -0.61687607
F       11.58000000      12.57000000       2.90000000       1.03161439      -1.28111573       0.61530012
F        9.57000000      12.54000000       3.76000000      -0.35248483      -0.24588035       0.65484757
F       11.09000000      13.91000000       4.41000000       0.52230570      -0.82389893      -0.54062930
C        9.40000000      13.72000000       1.09000000      -0.46375116      -0.18843617      -0.49506440
F       10.43000000      13.24000000       0.37000000       0.23882828       0.35382733       0.53306556
F        8.74000000      14.60000000       0.29000000      -0.35680105      -1.15013469      -0.99569255
F        8.60000000      12.66000000       1.38000000      -0.28880288       0.37386741      -0.96806221
H       11.71000000      14.71000000       1.81000000       0.09640878      -0.00881358       0.20496260
H        9.27000000      14.98000000       2.99000000      -0.29007492       0.09730829       0.29420421
O        8.43000000       0.06000000      11.46000000       1.12732650      -0.20728852       0.96117228
C        9.31000000       1.23000000      11.23000000      -0.89270109      -0.42866415       0.28642984
C        8.59000000       2.31000000      10.38000000      -0.71253647      -1.22640384       0.62252242
F        7.31000000       2.52000000      10.70000000      -0.30264051      -0.11704239       0.18250050
F        8.51000000       1.95000000       9.04000000      -0.59980314      -0.44331977       0.64066317
F        9.23000000       3.46000000      10.52000000      -0.28288132       0.45222402      -0.10422792
C       10.69000000       0.86000000      10.66000000      -0.53454740       0.54549522      -0.57022849
F       11.30000000       0.05000000      11.59000000       0.78783214      -0.75733811      -0.54573833
F       11.50000000       1.97000000      10.48000000       0.05346385       0.69176058       0.06984470
F       10.62000000       0.12000000       9.57000000       0.01272403      -0.01846070      -1.17452937
H        9.02000000      -0.69000000      11.62000000       0.26296545      -0.00401646       0.04891570
H        9.46000000       1.77000000      12.17000000      -0.06262251       0.09297214       0.20579182
O        1.17000000      18.59000000      20.38000000      -0.49047874       0.70743191       0.55300642
C        0.58000000      19.62000000      19.57000000      -0.89192095      -0.17004529       0.22966539
C       -0.52000000      19.01000000      18.66000000      -0.53742961       0.09337484       1.54260008
F       -1.31000000      20.02000000      18.19000000       0.49028467      -0.79994916       0.02566162
F       -1.30000000      18.18000000      19.41000000       0.54381909       0.18617411       0.68946595
F       -0.06000000      18.33000000      17.57000000       1.14366047      -1.35525569       0.77973640
C        1.61000000      20.48000000      18.81000000       0.90577895       0.36321199       0.20997342
F        1.04000000      21.37000000      17.98000000      -0.36862918       0.02391975       1.18660495
F        2.36000000      19.65000000      18.02000000       0.95629671      -0.16225441      -0.41020684
F        2.42000000      21.13000000      19.69000000       0.11993768      -0.44491557       0.46631935
H        1.62000000      17.93000000      19.81000000       0.06180499       0.06140712       0.06123677
H        0.10000000      20.40000000      20.17000000       0.00483931      -0.20482665       0.05201555
O        8.58000000      18.94000000      12.11000000      -0.74881344       0.88058298      -0.78413909
C        8.07000000      18.20000000      10.91000000       0.07877884      -0.15696808       0.48885439
C        7.58000000      16.72000000      11.28000000      -0.65136686       0.25996858      -0.45813137
F        7.11000000      16.00000000      10.27000000       0.02075318      -0.00416090       0.19232707
F        6.54000000      16.78000000      12.16000000      -0.22852876      -0.31067846       0.37615615
F        8.57000000      16.04000000      11.98000000      -0.13988065      -0.30395741      -0.74603368
C        9.14000000      18.16000000       9.78000000      -0.00885750      -0.73651927       0.30200252
F        8.68000000      17.75000000       8.55000000       0.14517491      -0.34026546       0.60707656
F       10.24000000      17.50000000      10.13000000      -0.08509196      -0.24340310      -1.32754609
F        9.59000000      19.41000000       9.62000000       0.05728383      -0.21827002       0.49844160
H        8.57000000      18.39000000      12.91000000       0.03357949       0.01008305       0.21226662
H        7.20000000      18.71000000      10.48000000      -0.10966528      -0.07100563       0.15018145
O       18.39000000      11.51000000      18.25000000      -0.05132731      -1.46523442      -0.03442950
C       19.20000000      10.38000000      17.76000000      -0.57570687      -0.40828099      -0.53790199
C       20.74000000      10.59000000      18.02000000      -1.10260683      -1.88458199      -0.67090244
F       21.39000000       9.45000000      18.09000000      -0.41179011      -1.45703260       0.19413030
F       20.93000000      11.02000000      19.31000000       0.48680443      -0.17199294      -1.06235974
F       21.42000000      11.40000000      17.16000000       0.07918230      -0.75724459       1.03858249
C       18.93000000       9.85000000      16.30000000      -0.07115184      -0.27200007      -0.26127703
F       17.68000000       9.47000000      16.12000000      -0.13582512      -0.40007034      -0.19720259
F       19.69000000       8.81000000      15.99000000      -0.34270286       0.78495384       0.54835726
F       19.23000000      10.79000000      15.40000000       0.32915546       0.49762417      -0.59579177
H       19.09000000      12.19000000      18.34000000       0.04700281       0.25858299      -0.40000608
H       18.86000000       9.57000000      18.43000000      -0.08021402      -0.14792746       0.03523958
O        6.75000000      14.19000000       4.00000000      -1.19549421       0.04344563      -0.27399712
C        6.31000000      15.51000000       4.54000000       0.56689410      -0.56682680       0.61291415
C        6.64000000      15.63000000       6.05000000       0.36777597      -0.81442333       0.28578503
F        6.40000000      16.90000000       6.42000000      -0.81405497      -0.65931252      -0.23458026
F        7.98000000      15.46000000       6.20000000       0.78985042       0.04510254      -0.79027092
F        6.03000000      14.72000000       6.80000000       0.24320425       0.92086493      -0.40059880
C        4.88000000      15.81000000       4.13000000       0.35148383      -0.81893124       0.52768497
F        3.95000000      15.08000000       4.79000000       0.64838921       0.83560380       0.89108855
F        4.70000000      15.72000000       2.79000000      -1.35814059       0.09494229       0.00884605
F        4.68000000      17.13000000       4.40000000      -0.45102367       0.54636310      -0.46003841
H        6.55000000      13.41000000       4.54000000       0.06223615       0.20718170      -0.21347435
H        6.97000000      16.29000000       4.14000000      -0.23231202      -0.16141351       0.03624839
O        2.57000000       0.54000000       8.76000000       0.03675256       0.17635772      -0.97425445
C        1.16000000       0.54000000       8.73000000      -0.35839630       1.39275476      -0.25321296
C        0.48000000      -0.70000000       9.26000000       0.05678375       0.10476857       0.25753617
F       -0.82000000      -0.70000000       9.26000000       0.20672715       0.08982769       0.57927379
F        0.85000000      -0.92000000      10.44000000       0.79215141      -1.38637858       0.92837384
F        0.81000000      -1.73000000       8.50000000      -0.88423683       0.37698266       0.33991382
C        0.62000000       1.13000000       7.43000000       0.19241706      -0.23845806      -0.65860068
F        1.39000000       2.20000000       7.04000000      -0.06991981      -1.26301158       0.19169388
F       -0.62000000       1.57000000       7.60000000      -1.27576043      -0.61096196      -1.11637794
F        0.54000000       0.23000000       6.45000000       0.03279374      -0.13461999      -0.02808742
H        2.82000000      -0.30000000       8.35000000      -0.10576267       0.06253595       0.08639233
H        0.81000000       1.26000000       9.48000000      -0.12609888      -0.18711166      -0.05698668
O       19.11000000      14.33000000      18.51000000       0.69385200       1.15613111      -0.38131660
C       19.96000000      15.09000000      19.43000000       0.19521682       0.37983541       0.26306991
C       21.48000000      14.89000000      19.14000000       0.01046077      -0.72855840       0.40150782
F       22.28000000      15.53000000      20.03000000       1.00764974      -0.67246522       1.28310320
F       21.85000000      15.48000000      17.93000000      -0.25533964       0.29741076       0.21739650
F       21.83000000      13.62000000      19.19000000       0.62728330      -1.02290532      -0.59611552
C       19.55000000      14.77000000      20.89000000      -0.15874197      -0.31165390      -0.32258888
F       20.24000000      15.33000000      21.89000000       0.02810537       0.01051768       1.00366241
F       19.52000000      13.50000000      21.16000000      -0.64305878       1.13923550      -0.51023134
F       18.26000000      15.13000000      21.08000000       0.96479186      -0.17844326       0.11427615
H       18.26000000      14.79000000      18.38000000       0.27748277       0.03267718      -0.16128555
H       19.75000000      16.16000000      19.31000000      -0.26943504       0.06941418       0.10416323
O       11.78000000      20.06000000       0.02000000      -0.24820238       0.21433716       0.38848362
C       10.69000000      19.83000000      -0.89000000       0.69133845      -0.77750102       0.37202603
C       10.04000000      18.38000000      -0.67000000      -0.33576644       0.75865710      -0.69124556
F        9.21000000      18.36000000       0.33000000       0.09458517      -1.10446283      -0.32898765
F       10.99000000      17.39000000      -0.45000000       0.52360825       0.52188518      -0.59310368
F        9.32000000      17.89000000      -1.75000000       0.79387571       0.18601542       0.01143112
C       11.11000000      20.00000000      -2.37000000      -0.36062692      -0.67539318      -0.40009263
F       12.11000000      19.15000000      -2.66000000       0.57906471       0.55297439       0.14337026
F       11.60000000      21.27000000      -2.58000000      -0.24195853       0.13806614      -0.48431053
F       10.05000000      19.84000000      -3.16000000       0.68617090      -0.57891780      -0.47049440
H       12.40000000      20.71000000      -0.33000000      -0.00039781       0.31589948      -0.19480075
H        9.91000000      20.60000000      -0.78000000      -0.17532533      -0.09650774      -0.15626235
O        1.91000000      18.53000000       4.61000000       0.02870942       0.04398710       0.81132463
C        1.57000000      18.77000000       3.12000000       0.53236933      -0.39624388      -0.46723507
C        0.79000000      20.11000000       2.75000000       0.30820968       0.16923610       0.44039168
F        1.17000000      21.02000000       3.64000000       0.34239371      -0.43567135       1.25100069
F       -0.52000000      20.07000000       2.83000000      -1.19075941       0.60589246       0.47214228
F        1.17000000      20.59000000       1.53000000       0.80873150      -0.98383326       0.22869100
C        0.84000000      17.54000000       2.54000000       0.01522555       0.93051548       0.11743163
F        0.39000000      17.64000000       1.26000000      -0.15811566      -0.58071591      -0.94267819
F       -0.19000000      17.10000000       3.31000000      -0.42059747       0.54661477       0.76735007
F        1.72000000      16.55000000       2.69000000      -0.60175945       0.42123827      -0.43787253
H        1.83000000      19.38000000       5.06000000       0.10957049       0.05479619      -0.05038809
H        2.41000000      18.81000000       2.43000000      -0.31152074      -0.00084018      -0.05937087
O       14.79000000      20.22000000      19.53000000       0.44098444       1.48092868       0.16029247
C       15.55000000      21.34000000      18.89000000       0.10620818       0.13905224      -0.13188836
C       17.05000000      20.95000000      18.67000000       0.46935693      -1.15293001       1.02813761
F       17.57000000      20.49000000      19.80000000      -0.10729885       0.43479029      -0.16221974
F       17.79000000      22.04000000      18.30000000       0.28283750      -2.08272439       0.98341547
F       17.27000000      19.98000000      17.70000000      -0.14881817       0.25337384      -0.34827517
C       15.26000000      22.65000000      19.67000000       0.58981471      -0.08841722       0.47595132
F       13.98000000      22.85000000      19.98000000       0.64968085      -1.09482105       0.42493998
F       15.71000000      23.70000000      18.98000000       0.09012811       1.08454171      -0.05090300
F       15.88000000      22.66000000      20.89000000       1.44594077       0.15223190       0.95199411
H       15.39000000      19.51000000      19.79000000      -0.16764762       0.01317759       0.24529986
H       15.23000000      21.52000000      17.86000000       0.12649844       0.36292536       0.05625270
O        5.35000000      11.65000000      12.15000000       0.42794421      -0.47775012       0.84407772
C        5.10000000      11.28000000      10.74000000       0.75708012       0.35589399       0.39723163
C        4.90000000      12.56000000       9.86000000      -0.09788115       0.61039930       0.43692156
F        4.49000000      12.30000000       8.63000000       1.02441375      -1.40118823      -1.30061124
F        6.10000000      13.19000000       9.74000000      -0.35224518      -0.50904344      -0.57317614
F        3.98000000      13.35000000      10.46000000       0.33154742       0.34780652       0.26325773
C        3.86000000      10.33000000      10.70000000      -0.09791733      -0.08999757      -0.58088036
F        4.06000000       9.17000000      11.32000000       0.34971924       0.35952707       0.32998234
F        3.52000000      10.04000000       9.46000000      -0.68636510       0.47222672       0.83332936
F        2.82000000      10.97000000      11.35000000      -0.07698931       1.01551824       0.68098201
H        4.51000000      11.98000000      12.49000000       0.16311726       0.24507506       0.02702116
H        5.88000000      10.73000000      10.21000000       0.01848011       0.03525228      -0.05682599
O        4.99000000      18.37000000      16.61000000       0.75317930       0.00933923       0.63110199
C        6.19000000      19.15000000      16.94000000       0.20687683      -0.63824385      -0.32382883
C        5.75000000      20.38000000      17.79000000       0.82515440      -0.41240800      -0.17306935
F        4.93000000      20.01000000      18.82000000       1.05632017      -0.09611092      -0.44266417
F        5.06000000      21.33000000      17.07000000      -1.41420746       0.49150766      -0.24744403
F        6.85000000      21.02000000      18.35000000      -1.24506945      -1.34743984       0.56001122
C        6.97000000      19.54000000      15.69000000       0.98253065      -0.09612208       0.17158758
F        8.11000000      20.10000000      16.09000000       0.47741753      -2.07458110       0.94130001
F        6.33000000      20.48000000      14.87000000      -0.74001748       0.18001049      -0.54887264
F        7.22000000      18.49000000      14.88000000      -0.20519197      -0.76706094       0.46348212
H        4.52000000      18.85000000      15.90000000       0.02213633      -0.03830445       0.02381149
H        6.85000000      18.55000000      17.58000000      -0.07310938       0.00132564      -0.12888082
O        5.11000000       0.51000000       1.19000000       0.08136958      -0.92580589      -0.20619937
C        5.58000000      -0.83000000       0.93000000       0.07914599      -0.40259781       0.17996067
C        5.44000000      -1.74000000       2.12000000      -0.17228846      -0.35780138       0.52466054
F        6.20000000      -1.26000000       3.18000000       1.23642071      -0.96326100      -0.97093226
F        5.73000000      -3.04000000       1.82000000       0.32051418      -0.43113060       0.92175963
F        4.18000000      -1.68000000       2.51000000      -0.14725514      -1.23507421       0.24736107
C        6.93000000      -0.92000000       0.15000000       0.02089033       0.00761383      -0.77625183
F        6.94000000      -0.04000000      -0.89000000      -0.61134273       0.12171964      -0.01388405
F        7.10000000      -2.18000000      -0.29000000       0.24327306       0.71615682       0.21918774
F        7.93000000      -0.64000000       0.92000000       0.39242338      -0.01477829       0.91800630
H        5.75000000       0.97000000       1.76000000      -0.03288905      -0.17540288       0.08453616
H        4.95000000      -1.23000000       0.13000000      -0.28946012      -0.18087405       0.24223520
O       10.11000000      20.45000000       3.67000000      -0.00764401       1.14112164       0.22743958
C       10.37000000      19.01000000       3.88000000      -0.49786859      -0.71798426      -0.46621226
C        9.10000000      18.23000000       4.04000000      -0.32095073      -0.04905324      -1.28506922
F        8.38000000      18.34000000       2.95000000       0.04931535      -0.73532757       0.94593021
F        8.57000000      18.73000000       5.09000000       0.27862011      -0.63813814       0.63958309
F        9.41000000      16.92000000       4.21000000       0.48336934      -0.07224408       1.05730836
C       11.35000000      18.96000000       5.02000000      -0.02737247      -0.33182246       0.14776646
F       12.51000000      19.58000000       4.74000000       0.39763151      -0.11621405      -0.12546292
F       11.74000000      17.66000000       5.15000000      -0.12416709      -0.13628718      -0.40898848
F       10.94000000      19.48000000       6.16000000       0.38142712       0.95259313      -1.20321763
H       10.24000000      20.90000000       4.52000000      -0.16884454      -0.12343890       0.20897281
H       10.81000000      18.38000000       3.10000000       0.30918330       0.06718913      -0.11670516
O       16.41000000       7.72000000      19.35000000       0.44536813      -0.33798618       0.84789544
C       15.98000000       7.25000000      18.00000000       0.41614593      -0.15433238      -0.17218002
C       14.44000000       7.28000000      17.88000000       0.52176801      -0.39117680      -0.08584670
F       14.01000000       7.20000000      16.61000000       1.30968036      -0.26721495      -1.26202232
F       13.92000000       8.33000000      18.32000000      -0.93737418       1.19187244       0.07878959
F       13.86000000       6.28000000      18.54000000       0.92835854       1.50017400       0.96294006
C       16.59000000       5.77000000      17.76000000      -0.38128299       0.60266146       0.32473666
F       16.10000000       4.77000000      18.55000000      -0.09372064      -0.34714682       1.26911589
F       17.87000000       5.81000000      18.05000000      -0.91182058      -0.71411854      -0.07951628
F       16.54000000       5.39000000      16.43000000      -0.88733005       0.33958338      -0.04957004
H       15.63000000       7.91000000      19.90000000       0.06790903       0.02684677       0.21274923
H       16.36000000       7.86000000      17.17000000      -0.03911319      -0.02790522      -0.02740279
O       14.47000000      13.09000000      18.74000000      -0.77966977      -0.00997289       0.31978750
C       14.85000000      12.83000000      20.16000000      -0.61962967       0.95136390       0.23570504
C       14.27000000      11.48000000      20.69000000      -0.94460235       0.13200188       0.46799776
F       14.78000000      10.47000000      19.94000000      -0.88858871       0.81569421      -0.56917082
F       12.91000000      11.52000000      20.58000000      -1.26236595      -0.64336838       0.04599706
F       14.62000000      11.25000000      21.99000000      -0.40186618      -0.65579432      -0.58932570
C       14.55000000      14.11000000      21.12000000       0.02142278      -0.31470447      -0.37416740
F       14.90000000      15.24000000      20.46000000       1.15385769       0.25138626      -0.63895858
F       15.27000000      14.10000000      22.24000000       0.02802047       0.52901801      -0.91621343
F       13.19000000      14.28000000      21.46000000      -0.26904891      -0.44087097      -0.54160178
H       13.59000000      13.49000000      18.77000000      -0.20915817       0.41151006       0.09872092
H       15.93000000      12.69000000      20.14000000      -0.23042624       0.19245486      -0.00834770
O       10.68000000       8.57000000      17.26000000      -1.01201979       0.09881997       0.35426029
C        9.81000000       9.29000000      18.17000000      -0.50035755      -0.52197939       0.02322210
C        9.93000000       8.87000000      19.76000000      -0.33443712       0.37637514      -0.43571087
F        9.68000000       9.85000000      20.59000000       0.85253985      -0.69540103      -0.36090874
F       11.25000000       8.57000000      20.04000000      -1.20352194      -0.32671172      -0.30609753
F        9.19000000       7.79000000      20.13000000      -0.62728553       0.51441206       0.13654224
C        8.41000000       9.57000000      17.71000000      -0.32450162       1.58748001      -0.52661078
F        7.77000000      10.37000000      18.54000000       0.15388894       1.01801671       0.28479595
F        7.66000000       8.45000000      17.62000000      -1.13892399      -0.71815279       0.01384143
F        8.36000000      10.06000000      16.45000000       0.11320321      -1.62029555       0.35739868
H       11.54000000       8.43000000      17.71000000      -0.04061353      -0.11801983      -0.08185956
H       10.28000000      10.28000000      18.30000000      -0.11786915      -0.07776104      -0.19741079
O       15.73000000      12.52000000       8.78000000       0.10353099       0.36068377       0.15054136
C       16.39000000      11.21000000       9.05000000       0.03774800      -0.07480804       0.13838837
C       16.63000000      10.24000000       7.75000000       0.65425154      -0.46053621      -1.42707255
F       15.46000000       9.89000000       7.09000000       0.69729931       0.48026438      -0.56954162
F       17.24000000       9.14000000       8.21000000      -0.86470487      -1.16531104       0.44996207
F       17.40000000      10.78000000       6.77000000      -0.72103426       0.09277325       0.14812972
C       15.57000000      10.46000000      10.11000000       0.00096425       0.00598135       0.07888965
F       14.21000000      10.45000000       9.73000000      -0.35952427       0.02455837      -0.44620432
F       15.68000000      11.25000000      11.25000000      -1.62459667      -0.58709042       0.61628961
F       15.86000000       9.21000000      10.40000000       0.81352695       0.76291720      -0.29917956
H       14.82000000      12.43000000       8.45000000      -0.14245996       0.14131607       0.32677445
H       17.38000000      11.37000000       9.49000000      -0.07701558       0.11182115      -0.16656607
O       10.43000000       8.37000000       5.95000000      -0.75244317      -0.64909863       0.90070670
C       11.21000000       9.56000000       5.82000000      -0.40975036      -1.00523646      -0.73233132
C       12.09000000       9.61000000       4.55000000      -0.48668303      -0.28243039      -0.31676730
F       11.27000000       9.49000000       3.44000000      -0.06948823       0.78844166       0.03572615
F       12.96000000       8.50000000       4.51000000      -0.33000978       0.38130655      -0.19121385
F       12.76000000      10.76000000       4.36000000       0.14475730       0.14033505       0.22459600
C       12.14000000       9.74000000       7.04000000       0.21225292       0.38266436      -0.78119799
F       12.95000000      10.77000000       6.92000000       0.29744303       1.30280292       0.00502801
F       12.81000000       8.67000000       7.35000000       0.09133620       1.14762064      -0.91306101
F       11.37000000       9.98000000       8.15000000       0.09175513       0.57658520      -0.33239338
H       10.90000000       7.75000000       5.37000000       0.11086853       0.06681609       0.00220307
H       10.44000000      10.35000000       5.81000000       0.08784812       0.13543565       0.25715464
O       12.27000000      15.15000000      18.59000000      -0.00091363       0.29279492       0.21432072
C       10.86000000      15.23000000      18.23000000      -0.43336987       0.71815148       0.41927674
C       10.14000000      13.87000000      18.18000000      -0.77360297       0.32209948       0.17352323
F        8.77000000      13.89000000      18.09000000       0.04414813      -0.45392258      -0.43812682
F       10.56000000      13.09000000      19.18000000      -0.78522464       0.12355684       0.12165242
F       10.59000000      13.20000000      17.06000000       1.05601597      -0.40121503       0.16092802
C       10.61000000      16.14000000      16.99000000      -0.11892732      -0.13894710      -0.47100195
F       11.14000000      15.61000000      15.87000000       0.54379713      -0.88612404       0.57582756
F       11.14000000      17.36000000      17.16000000       0.21890320      -0.57295922       0.45332319
F        9.29000000      16.22000000      16.74000000      -1.29706154      -0.07416511      -0.39402882
H       12.78000000      15.90000000      18.23000000       0.02330569      -0.00328209       0.00460565
H       10.31000000      15.60000000      19.10000000       0.06041469      -0.01598266      -0.04068359
O        9.29000000       2.61000000      18.89000000       1.51805946       1.26846095       0.44179275
C       10.42000000       2.96000000      19.71000000      -0.01983938       0.07017906       0.35261705
C       10.21000000       2.36000000      21.16000000      -1.03660512       0.09995746       0.46842245
F       11.26000000       2.42000000      22.00000000       0.51047708      -0.70407065       1.12981250
F       10.05000000       1.02000000      21.19000000       0.39250159      -1.03847526      -0.00989398
F        9.11000000       2.92000000      21.73000000      -1.90118992       0.28826863       0.44900586
C       10.71000000       4.51000000      19.73000000      -0.09292861      -0.65604934      -0.67535669
F       11.84000000       4.77000000      20.45000000      -0.15450017       0.74613873      -1.92000389
F        9.64000000       5.18000000      20.27000000      -0.16121439       1.19462758      -1.31683898
F       10.94000000       4.94000000      18.43000000      -0.27728740       0.26930631      -1.66606894
H        8.46000000       2.91000000      19.30000000      -0.02330329       0.03527987       0.04914708
H       11.32000000       2.46000000      19.35000000      -0.19128325      -0.18911423      -0.19364145
O        4.89000000      10.99000000       6.15000000       0.63303843       0.49435014       0.59294805
C        5.79000000       9.98000000       5.63000000       0.04227165       0.49095624      -0.83618740
C        6.16000000       8.99000000       6.71000000      -0.46092327       0.63374948      -0.39051928
F        6.79000000       9.52000000       7.79000000       0.64407841      -0.17636970      -1.10228294
F        6.85000000       7.93000000       6.26000000      -0.20238450      -0.23661987       2.26706963
F        4.99000000       8.59000000       7.12000000      -0.34082220       0.61187182      -0.65461462
C        7.03000000      10.73000000       5.06000000       1.00706538       0.38283677       0.16078457
F        7.99000000       9.85000000       4.66000000       0.89599618       0.45889673       0.44534336
F        7.55000000      11.57000000       5.93000000      -0.65696072       0.69594782      -0.29397396
F        6.68000000      11.46000000       3.96000000      -0.52484315       0.40234690       0.79608264
H        4.05000000      10.60000000       6.44000000      -0.02776346       0.24974525       0.28717890
H        5.29000000       9.51000000       4.78000000      -0.15079682       0.28300184      -0.03793259
O        5.15000000       0.56000000      12.07000000      -0.44321429       0.38234900      -0.09845767
C        4.36000000       0.84000000      13.25000000      -0.14052622       0.41865857       0.70143681
C        3.20000000      -0.20000000      13.41000000      -0.32719581       0.66331073       1.07511361
F        1.98000000       0.37000000      13.73000000      -1.24952248      -1.20596670       0.14451501
F        3.44000000      -1.04000000      14.40000000       0.87406455      -0.03074477       0.48767094
F        3.07000000      -0.98000000      12.34000000       1.46109399      -0.89640328      -0.67205350
C        3.85000000       2.31000000      13.22000000      -0.32927991       0.87660574       0.96246518
F        4.87000000       3.13000000      12.82000000      -0.62378047       0.09224317       0.07698610
F        3.52000000       2.77000000      14.41000000      -0.87834267       0.66860757      -0.26139094
F        2.83000000       2.43000000      12.29000000      -1.27184882       0.05324122       0.23363098
H        4.91000000       1.24000000      11.42000000       0.13667941      -0.06984797       0.08748200
H        4.98000000       0.78000000      14.15000000      -0.00201323      -0.03206143       0.23492062
O       16.85000000      18.19000000       2.77000000      -0.13276163      -1.37518246       0.17656000
C       17.06000000      17.92000000       1.38000000      -0.97198379      -0.38171884       0.35616847
C       18.37000000      18.64000000       0.93000000       0.29311298      -0.31834253      -0.33716360
F       19.36000000      18.31000000       1.79000000       0.43972571      -0.50829656      -1.20877789
F       18.11000000      19.98000000       1.01000000      -0.28785231       0.30496812       0.09806357
F       18.74000000      18.43000000      -0.33000000      -0.27726511       0.91963130      -0.08851947
C       15.86000000      18.26000000       0.49000000      -0.27780202      -0.50424356       0.05080835
F       16.10000000      18.16000000      -0.81000000       0.67075119      -0.06938260       0.38646297
F       15.28000000      19.54000000       0.66000000      -0.07090836       0.29071438      -0.28980865
F       14.84000000      17.44000000       0.75000000       0.09860705      -0.56747315      -0.01405156
H       17.68000000      18.49000000       3.17000000      -0.06514326       0.20353660       0.09968926
H       17.26000000      16.85000000       1.29000000      -0.24025712       0.22897695      -0.03981692
O       14.31000000       5.02000000       3.14000000      -0.08004500      -1.09037699       0.05108733
C       13.84000000       5.91000000       2.06000000      -0.05284870       0.04815624      -0.24458766
C       12.29000000       5.82000000       2.07000000      -0.11593992       0.27647411      -0.45694008
F       11.60000000       6.59000000       1.17000000      -0.09399583       1.30011308       0.05595422
F       11.92000000       6.21000000       3.26000000       0.34648267       0.34129390      -0.28501967
F       11.80000000       4.59000000       1.86000000       0.81372329       1.01404180      -1.18696285
C       14.48000000       5.45000000       0.72000000      -0.30557180       0.18362161      -0.83036245
F       14.30000000       4.18000000       0.37000000      -0.63290335      -1.79167953      -0.55287919
F       15.84000000       5.72000000       0.87000000       0.77961061       1.26658851      -0.55909781
F       13.96000000       6.27000000      -0.31000000      -0.76078838      -0.47569264       0.42675134
H       13.66000000       4.29000000       3.20000000      -0.05588513       0.11269696      -0.17382088
H       14.15000000       6.96000000       2.20000000      -0.16016743      -0.27290573       0.18182760
O        2.34000000      17.36000000       7.76000000       0.04852186      -0.12107925       0.13141723
C        2.70000000      16.81000000       8.97000000      -0.96316017      -0.31277325      -0.66638314
C        1.54000000      16.99000000      10.02000000       0.30254205       0.03698908       0.38720892
F        1.58000000      18.21000000      10.53000000      -0.04281385       1.07769809       1.62274734
F        1.56000000      16.15000000      11.06000000       0.14064192       1.24041747      -0.30539290
F        0.31000000      16.84000000       9.38000000       0.14747936      -0.60008992      -0.96625670
C        3.99000000      17.48000000       9.42000000      -0.00991537       0.48360138       0.31619335
F        4.31000000      16.94000000      10.61000000      -0.56817650       0.24612407      -0.90023735
F        3.85000000      18.88000000       9.50000000      -0.34051352       2.14913723      -0.57823599
F        4.97000000      17.10000000       8.57000000      -1.02852785       0.13032268      -0.64067457
H        1.58000000      16.91000000       7.36000000       0.17878081      -0.08136429       0.26360398
H        2.85000000      15.73000000       8.95000000      -0.17334967       0.12884776       0.06426413
O       21.42000000       2.62000000      11.29000000      -0.66559180      -0.77024511      -0.19205373
C       20.20000000       3.42000000      11.00000000       0.54109456      -0.54681550      -0.37846625
C       18.97000000       2.56000000      10.78000000       0.55293518       1.07226006      -0.34890270
F       19.28000000       1.47000000      10.01000000       0.38159456       0.58599288       1.49440243
F       18.03000000       3.23000000      10.07000000       0.04533750      -0.18600452      -0.73858411
F       18.46000000       2.19000000      11.99000000      -0.05185716      -0.64892592       0.70649309
C       20.44000000       4.48000000       9.87000000       0.08788381      -0.18118795      -0.10336406
F       21.64000000       5.11000000       9.99000000      -0.23292180       0.92319736       0.13097895
F       19.47000000       5.46000000       9.79000000      -0.84577296      -0.07061441      -1.23627077
F       20.51000000       3.85000000       8.64000000      -0.65157633      -0.14264576       1.08682418
H       22.01000000       3.19000000      11.81000000       0.16300208       0.15776632       0.17536429
H       20.10000000       4.14000000      11.82000000      -0.17225243       0.19111233       0.09202564
O       15.17000000       1.20000000       5.14000000      -0.01064633       1.51331551      -0.53828390
C       14.14000000       0.75000000       4.22000000      -0.18292114      -0.56382420      -0.05037002
C       14.56000000       0.81000000       2.70000000      -0.08910055       0.01071336       0.49767922
F       15.82000000       0.51000000       2.66000000       0.90620089      -0.46867530       0.39264468
F       14.45000000       2.06000000       2.19000000      -0.97052588      -0.03180866      -0.37067074
F       13.88000000      -0.12000000       2.01000000       0.09369571       0.63463893       0.13933236
C       12.69000000       1.39000000       4.48000000      -1.03334705       0.20809421       0.97290227
F       11.80000000       0.77000000       3.72000000      -0.59706067      -1.54154875      -0.14709577
F       12.70000000       2.69000000       4.35000000       0.83936260       1.20956507       0.64820387
F       12.31000000       0.98000000       5.75000000       0.70498038       0.39988453       0.30958479
H       15.49000000       0.41000000       5.62000000      -0.02645573      -0.24750242      -0.11166296
H       13.99000000      -0.31000000       4.48000000      -0.01034032       0.16389635       0.22100828
O        2.27000000       9.80000000       5.90000000      -0.36973770       0.06686418      -0.50216148
C        1.73000000       8.44000000       6.07000000       0.60493201       0.53020730      -0.53438686
C        1.85000000       7.74000000       4.72000000      -0.45662292       0.32502183       0.07239216
F        1.13000000       8.28000000       3.69000000       0.57777819       0.50826263      -0.71453306
F        1.65000000       6.38000000       4.77000000      -0.24354757       0.35159695      -0.34799110
F        3.09000000       7.95000000       4.24000000      -0.22635992      -0.90556834       1.02105622
C        0.31000000       8.38000000       6.76000000      -0.05419182       0.37463127       0.60486248
F        0.25000000       8.85000000       7.97000000      -0.41407117       0.24604459      -0.48946766
F       -0.21000000       7.15000000       6.81000000       0.22997149      -0.27301624       0.03606723
F       -0.58000000       9.12000000       5.99000000      -0.04329151       0.09768247       0.42480792
H        1.56000000      10.46000000       5.90000000       0.23092283      -0.41836835      -0.00719157
H        2.39000000       7.80000000       6.68000000      -0.27337831       0.15557070      -0.38818091
O        4.45000000       5.61000000       6.95000000      -0.14356033      -1.26460779      -1.01091289
C        4.07000000       4.44000000       7.72000000       0.07962384      -0.99151758       1.39534229
C        2.80000000       4.81000000       8.58000000       0.41229608      -0.26038792      -0.12874142
F        2.54000000       3.83000000       9.47000000       0.27150960       0.86269263      -0.08370169
F        1.77000000       4.87000000       7.72000000      -0.26544258       0.78326891      -0.27842122
F        2.85000000       5.96000000       9.31000000       0.36862859       0.86770634       0.06542002
C        5.24000000       3.91000000       8.62000000      -0.04082371       0.98413734       0.21654361
F        5.14000000       2.62000000       9.01000000       0.50256185      -0.04604711      -0.23757163
F        5.36000000       4.64000000       9.79000000      -1.03736619       0.66559137       0.69377429
F        6.39000000       3.97000000       7.99000000       0.52471371      -1.31201106       0.94818399
H        5.42000000       5.58000000       6.91000000      -0.05560124       0.12989774       0.12856367
H        3.88000000       3.56000000       7.08000000       0.13031436       0.05393023      -0.27200563
