192
Lattice="14.05790476106759 0.0 0.0 0.0 14.05790476106759 0.0 0.0 0.0 14.05790476106759" Properties=species:S:1:pos:R:3:forces:R:3:charge:R:1:energies:R:1 Built=T with=T Packmol=T charge=0 spin=1 external_field="_JSON [0.0, 0.0, 0.0]" energy=-19.102237701416016 stress="-0.013094192370772362 -0.0012349779717624187 0.001814505783841014 -0.0012349779717624187 -0.012865553610026836 7.454676961060613e-05 0.001814505783841014 7.454676961060613e-05 -0.013312757946550846" dipole="0.361150324344635 -0.06569850444793701 -0.5541041493415833" free_energy=-19.102237701416016 pbc="T T T"
O       13.46584697       5.71360840       6.82875146      -0.00574810       0.01348692       0.02009073      -0.02644879      -0.09991559
C       12.52146063       4.70385057       6.65570684       0.01690707       0.00037563      -0.02014169       0.01314020      -0.27930403
C       11.12983694       5.18214551       7.08948680       0.00452079      -0.03135842      -0.01847066       0.02175444      -0.15998137
F       10.78034651       6.26241382       6.40364311       0.01039018       0.00564641       0.02228130      -0.01149616      -0.22168340
F       11.11452826       5.53142062       8.38633145      -0.01487122      -0.08695569      -0.00604329      -0.00903266      -0.23333688
F       10.19783748       4.23735287       6.92069763       0.01764575      -0.01610655      -0.07567182      -0.00959181      -0.25579369
C       12.98111329       3.45219743       7.40880546       0.03929972      -0.01140734      -0.06130238       0.02399043      -0.14017619
F       13.24206191       3.78501681       8.68154441       0.11109892      -0.05614262      -0.06522445      -0.00747626      -0.23473272
F       14.09749725       2.95652157       6.88527264       0.00904153      -0.00581351      -0.13351499      -0.00826490      -0.26647809
F       12.05865196       2.47696067       7.42545881       0.04039947      -0.00147603      -0.03908709      -0.00821976      -0.27054605
H       13.53074666       5.93572321       7.76807796       0.00953911      -0.03411422       0.03083226       0.02407243      -0.05340148
H       12.46181934       4.46135791       5.59388593       0.03886347       0.02955511      -0.02220824       0.01417925      -0.05306259
O        1.83370343       9.05260997       2.16186822       0.02601378      -0.00535717      -0.00895302      -0.02575356      -0.12890108
C        2.94046022       9.84718336       2.43607751       0.02608052      -0.00038321      -0.01181345       0.01171502      -0.27450487
C        2.76562231      11.24806227       1.82545439       0.02062581       0.00052910      -0.00578856       0.02191369      -0.16629107
F        1.69250132      11.82777569       2.38239024       0.03851518       0.00050011       0.01530552      -0.01082787      -0.26339048
F        2.55505888      11.23431025       0.50850047      -0.00493420       0.01861648       0.00186257      -0.00948732      -0.22727245
F        3.82890226      12.02295377       2.04344243       0.02351977      -0.00069286      -0.02926802      -0.00798635      -0.23195787
C        4.22501049       9.08414283       2.08208282       0.01832604      -0.00015968      -0.03290150       0.02138958      -0.18000598
F        4.27322034       8.73666101       0.79183546      -0.01499497       0.00001126      -0.03246817      -0.01045888      -0.25021514
F        4.24573785       7.95240027       2.79864384       0.04444938       0.00171966      -0.04099533      -0.01100312      -0.25990939
F        5.33608993       9.76673826       2.34894520       0.02781187      -0.00507935      -0.06166088      -0.01116817      -0.22996652
H        1.73235006       8.91954985       1.21012501       0.02679310      -0.02787694      -0.00785021       0.02324707      -0.06703062
H        2.95848282       9.99006163       3.51336660       0.04569725       0.00261223      -0.01384652       0.01080863      -0.04011482
O        7.39821981      12.14532699      13.47815938      -0.03555309       0.10260110       0.02446731      -0.02702509      -0.03196022
C        7.93218051      12.31241857      12.21656088      -0.04403774       0.06822121       0.02332446       0.00902865      -0.27792764
C        9.32971774      12.91042154      12.30187662      -0.03721210       0.05799352      -0.01343837       0.02066728      -0.16515756
F       10.09428851      12.21806411      13.14531631      -0.05819314       0.13225821       0.05532529      -0.01188010      -0.22139385
F        9.29412318      14.17057548      12.76823025      -0.00850519       0.09257601      -0.12469751      -0.01088557      -0.28330934
F        9.91351296      12.87775150      11.09884706      -0.01241602      -0.05289390       0.00261370      -0.01165946      -0.21345568
C        6.92849569      13.10828047      11.38416715      -0.02769161       0.06848461       0.01343853       0.02161969      -0.16992657
F        6.64893008      14.27024176      11.99595375      -0.05034464       0.06504027      -0.00079774      -0.01061646      -0.26878160
F        5.78972645      12.41095730      11.28422325      -0.02407917       0.06891201      -0.01247932      -0.01294334      -0.27736634
F        7.34887568      13.37945816      10.15593058       0.00275542       0.07253838       0.01992900      -0.01121950      -0.23243929
H        7.36083377      12.99464046      13.93313198      -0.04906207       0.12012559      -0.00122291       0.02503814      -0.03503654
H        8.05335432      11.33750545      11.74580867      -0.07005906       0.06831341       0.03978997       0.00981621      -0.04426313
O       13.44351366       8.42228459       2.37334139       0.00832792      -0.01609501      -0.13225500      -0.02964078      -0.13596760
C       12.21711065       8.58291206       2.98322496       0.04537310       0.01584795      -0.07987463       0.01101337      -0.27870306
C       12.19657375       9.71996547       3.97937177       0.09935184       0.00189647      -0.05821567       0.02143692      -0.15297364
F       12.55190534      10.86522580       3.40601424       0.14684980      -0.00319565      -0.03559678      -0.00993193      -0.25060880
F       13.04519919       9.50570372       5.00285881       0.08154976      -0.03009096      -0.05891536      -0.01281930      -0.27886069
F       10.96152705       9.82695192       4.46282013       0.09563599       0.03916549      -0.07550263      -0.01068845      -0.16433555
C       11.79289679       7.28491088       3.64154676       0.02561375       0.00990226      -0.09038184       0.02125728      -0.15721866
F       12.62816638       6.91966765       4.61755624       0.03265238      -0.05237497      -0.13113968      -0.01068130      -0.26067054
F       11.83717614       6.32734077       2.70420149      -0.02135919       0.03106439      -0.11547241      -0.00882787      -0.21441355
F       10.55698224       7.33625677       4.12634474       0.03151679       0.04117668      -0.08248200      -0.01230812      -0.20196494
H       14.15899182       8.41204895       3.02717166       0.06633056       0.06881376      -0.20140359       0.02464380      -0.03288501
H       11.47116960       8.81014700       2.21768756       0.02279272       0.04544664      -0.02754343       0.01330093      -0.04556978
O       10.30669943       4.94052495       0.58123565       0.01882118      -0.07380524       0.04893591      -0.02758379      -0.11667755
C       10.17149418       3.79916988       1.37069151      -0.02757555      -0.08282065       0.03416969       0.01235846      -0.26721141
C        9.21557084       4.08106455       2.53663548      -0.04026705      -0.06912546       0.01461842       0.02200929      -0.17363246
F        8.04922084       4.51647191       2.04839059      -0.01178182      -0.00793151       0.00812055      -0.00951707      -0.27115250
F        9.69459350       5.03148963       3.34778334      -0.01661776      -0.10710223       0.04971045      -0.00996316      -0.24934408
F        8.97274049       2.99882483       3.28064848      -0.09502334      -0.07150607      -0.02268092      -0.00935592      -0.25670803
C       11.51601829       3.16484113       1.79366636      -0.04008913      -0.07658722       0.06286646       0.02222282      -0.16378132
F       12.33966312       4.02347782       2.40413820      -0.03408869      -0.05361362       0.02453021      -0.00899035      -0.24072018
F       12.15781869       2.69784684       0.72780021      -0.03782902      -0.11655729       0.07415162      -0.00913641      -0.21561085
F       11.31893499       2.13828200       2.62691894      -0.02592429      -0.04317885       0.09483506      -0.00973766      -0.24215059
H       10.82374775       5.61534958       1.04110234      -0.00282340      -0.07670663       0.08428507       0.02272676      -0.07345378
H        9.68045197       3.04501619       0.75292566      -0.02499873      -0.06617259       0.02077904       0.01418112      -0.03579403
O        8.48726927       7.19441660      11.69112667       0.03446943      -0.00413053       0.05741064      -0.03042646      -0.03447183
C        8.29910019       8.52006111      12.04316701       0.02804173      -0.01725259       0.11862748       0.00927790      -0.28122821
C        9.02295283       8.75262071      13.36690759       0.01864515      -0.03210536       0.12844893       0.02064326      -0.16004215
F       10.32386698       8.44487964      13.25998152       0.00128660      -0.07281770       0.13719666      -0.01289610      -0.25677502
F        8.52433152       7.94114222      14.31744548      -0.00336888       0.00962049       0.14347726      -0.01074211      -0.28706810
F        8.92416036      10.00306904      13.79412840       0.07474147      -0.01352616       0.11201143      -0.00987454      -0.22147749
C        6.79624514       8.79602078      12.11971930       0.03640905      -0.01530320       0.10353625       0.02096455      -0.14524984
F        6.25545460       7.90085378      12.95131294      -0.01250015      -0.04078184       0.03712084      -0.01049314      -0.18419237
F        6.27388556       8.67438445      10.88964864       0.05063250       0.04092238       0.08733810      -0.01330046      -0.22742702
F        6.46196275      10.00545331      12.55646661       0.04301010      -0.03767590       0.15246135      -0.00936033      -0.19417953
H        8.16801741       6.63482978      12.41251619       0.02405025      -0.04014821       0.02681475       0.02513278      -0.03087462
H        8.72653633       9.14599699      11.25660720       0.04412327       0.00312279       0.17208269       0.01166019      -0.05361093
O        4.18071453       1.50038884      12.01463002       0.00027777      -0.06629071       0.00128173      -0.02549132      -0.09519304
C        2.92697298       1.71001751      11.44571088       0.02711314      -0.03264492      -0.03570501       0.01350981      -0.28130633
C        2.99333239       1.57151099       9.92269375       0.06279686       0.00296361      -0.04110954       0.02277499      -0.15617664
F        3.53845860       0.40120059       9.60486215       0.08428757       0.00896465      -0.03329571      -0.01108205      -0.22186780
F        3.78194856       2.52029797       9.37064023       0.07337771       0.01008684      -0.02321304      -0.00990520      -0.27201754
F        1.78858419       1.68483610       9.36284930       0.07322764      -0.01257745      -0.06099619      -0.01116598      -0.23849314
C        2.38352090       3.06713605      11.86411896       0.00939581      -0.04751705      -0.00067458       0.02267484      -0.15671018
F        3.17775235       4.04033170      11.36665817      -0.01398403      -0.01662982       0.03156133      -0.00998095      -0.24475037
F        2.39852849       3.15811480      13.19394667      -0.00600490      -0.07369669       0.00417485      -0.00857325      -0.25015464
F        1.14348349       3.27667800      11.42662375       0.00482183      -0.07154419      -0.00430693      -0.01182981      -0.24472657
H        4.80159677       2.15981269      11.68082463       0.02910090      -0.06867182       0.05413588       0.02300713      -0.04103003
H        2.25073606       0.94784695      11.83543559       0.01340261      -0.04465664      -0.09226404       0.01612395      -0.04803693
O        2.39680082       6.90587557      10.59119936       0.00643425      -0.01387651       0.04157934      -0.02997014      -0.12200880
C        2.06392759       7.45763738      11.82225755      -0.03673171      -0.01038360       0.03166733       0.00816830      -0.29600447
C        2.78070003       8.76314582      12.11080273      -0.04243631       0.00735783       0.02495432       0.02044619      -0.15817976
F        2.59581377       9.71198648      11.20818896       0.04914413      -0.05963644      -0.04259527      -0.01134232      -0.18478647
F        4.09280169       8.55707064      12.18798062      -0.05414567       0.00967589       0.14756145      -0.01001308      -0.21741675
F        2.33597199       9.25563623      13.27439039      -0.14227003       0.07287924      -0.06390899      -0.00812122      -0.18427296
C        2.28013207       6.45413838      12.96132065      -0.06724332       0.00624742       0.04678429       0.02206079      -0.15744470
F        3.52606402       5.97408031      12.97067818      -0.08073054      -0.00019956       0.10595497      -0.00964049      -0.24806419
F        1.41177717       5.45690447      12.78406763      -0.06945945       0.00238080       0.05139891      -0.01064640      -0.21058813
F        2.04063830       6.95034061      14.18566869      -0.09749948       0.03959895       0.01950401      -0.00852723      -0.25037849
H        3.34650186       6.73547871      10.53147985       0.00853067      -0.02457810       0.10510847       0.02077975      -0.06877366
H        1.00072958       7.66728617      11.80239126      -0.01665866      -0.00244857      -0.00509533       0.00969359      -0.02574653
O        4.20269698      13.61833963       6.86195933      -0.06951325       0.11130787      -0.00641489      -0.02566792      -0.04493047
C        4.68878098      12.41565537       6.36110432      -0.04228820       0.13308257      -0.00521757       0.00941039      -0.28693536
C        6.21053959      12.51091416       6.42980132      -0.04253990       0.11930524       0.02844849       0.02036707      -0.14147241
F        6.50826466      12.56452475       7.73029027      -0.03898542       0.11181778       0.01746899      -0.01221521      -0.20771234
F        6.66059465      13.65138846       5.85907036      -0.02598952       0.11517298       0.03383451      -0.00895481      -0.29145569
F        6.88273878      11.51845637       5.86913919      -0.05480408       0.11625998       0.02661300      -0.00982139      -0.17734343
C        4.15706972      12.12973484       4.96740776      -0.00215246       0.12611365      -0.02171235       0.02127483      -0.11918629
F        4.47395970      13.17333940       4.18886255      -0.00118291       0.09183555      -0.04942640      -0.00819483      -0.20459598
F        2.83697955      11.96932569       4.84170916      -0.00519677       0.14499044      -0.03723801      -0.00967567      -0.16311806
F        4.69314835      10.98954748       4.51603614      -0.01810493       0.10025623       0.02490411      -0.01028470      -0.15473206
H        4.49157071      14.31720034       6.26250385       0.00003072       0.14406364       0.05485886       0.02719300      -0.03250115
H        4.42265486      11.58794924       7.01032719      -0.04393963       0.12295702      -0.02340729       0.00962258      -0.03744810
O       11.61744427      13.05244693       8.28816143       0.01945334       0.03053121      -0.00168781      -0.02805945      -0.09541386
C       10.79466092      11.93952668       8.17282336       0.03552488       0.02419658      -0.03289716       0.00893407      -0.30514777
C       11.38777880      10.90679961       7.21500267       0.03702328       0.07732095      -0.07784583       0.01890247      -0.15544818
F       12.53804685      10.38627166       7.62842944       0.01526956       0.02967130      -0.05195919      -0.01203628      -0.14007951
F       11.66426392      11.54459810       6.06518325       0.10213386       0.08674462      -0.04660524      -0.01000426      -0.20542420
F       10.54971008       9.89172079       6.98542381       0.01397721       0.10913866      -0.09516272      -0.01307348      -0.22266971
C        9.41368598      12.32994939       7.67724583       0.00691660       0.01174427       0.03985260       0.02167932      -0.15563203
F        9.41999658      12.71818358       6.38770183      -0.07255011      -0.04989833       0.03409784      -0.00895228      -0.23933753
F        8.94916029      13.35448379       8.37436168       0.07169121       0.05307049       0.02179228      -0.01040705      -0.20829000
F        8.59546127      11.27720360       7.80543220      -0.00030659       0.04178758       0.15717724      -0.01268776      -0.20596114
H       11.76543640      13.42271380       7.40786890       0.04112145       0.06849853       0.01633213       0.02595710      -0.03923315
H       10.65096113      11.50890093       9.16129142       0.07626337      -0.01881568      -0.05836521       0.00988242      -0.05549282
O       14.07623032       8.79199253      10.26618841      -0.01569223       0.05404700       0.02786991      -0.02618665      -0.07441141
C       12.86813288       8.86557930      10.94668729      -0.02683198      -0.00211766       0.03543896       0.01076770      -0.24512355
C       11.84324726       8.09294473      10.13030468      -0.00051301       0.00444419      -0.01152910       0.02038216      -0.14154337
F       12.30772313       6.85217638      10.05427956       0.02865102       0.01492660      -0.05717402      -0.01144045      -0.17559290
F       11.72953502       8.53357307       8.87434316       0.00080723       0.04870056       0.01134249      -0.01106374      -0.24300763
F       10.62495033       8.08728550      10.65187475       0.00346044      -0.06202081      -0.02664076      -0.01083072      -0.21421707
C       12.52559448      10.29793624      11.33700645      -0.06648664      -0.01375441       0.05220055       0.02106497      -0.16728102
F       12.51224708      11.11336682      10.28088891      -0.05432803       0.01355909       0.08161211      -0.00921778      -0.21345860
F       13.42789858      10.74769301      12.21022707      -0.11262433      -0.01275721       0.08880040      -0.01033301      -0.25632557
F       11.32030907      10.37592717      11.90546788      -0.08251349      -0.05515064       0.01897947      -0.00938444      -0.22976662
H       13.97069879       9.15831514       9.37740932      -0.03245734       0.01041025       0.00993520       0.02270002      -0.04644457
H       12.97006841       8.31951264      11.88855259      -0.01946450      -0.01361809       0.00750941       0.01386715      -0.03060272
O        2.15266419      12.12584480       7.11900938      -0.05316611       0.03789246       0.01978786      -0.02346060       0.03942212
C        2.25512068      11.39673145       8.29129334      -0.03679538       0.01342724       0.00314913       0.01250621      -0.23501202
C        2.17192310       9.91119643       7.89917334      -0.03374499       0.02100648      -0.02328824       0.02298016      -0.12330261
F        3.17978789       9.62893983       7.06377841      -0.07649438       0.07313762      -0.07604660      -0.01008386      -0.25704941
F        1.02492275       9.66946735       7.22726386      -0.04496693      -0.01297167       0.01833802      -0.01084986      -0.28692040
F        2.23381809       9.04938965       8.89813285       0.03614349      -0.00264335      -0.04816991      -0.00904278      -0.18557538
C        1.16948545      11.95386061       9.19925596      -0.01540211       0.00927055       0.04815524       0.02077096      -0.14152399
F        0.01719965      11.92264333       8.52632812      -0.04518707       0.07023419       0.09667848      -0.01070822      -0.18304458
F        1.40357707      13.22795714       9.49004474       0.02778307       0.00893151       0.03894830      -0.01115351      -0.23107176
F        1.03514037      11.30423008      10.34554993       0.01014444       0.01590717       0.04829048      -0.00974997      -0.18464459
H        1.32405213      11.89546733       6.67928060      -0.04796489       0.03713161      -0.01072900       0.02706061      -0.02606919
H        3.22899920      11.57960273       8.75544446      -0.04956199       0.01223173      -0.01702457       0.01374024      -0.04539812
O        8.78130615      10.98157069       4.08601658       0.02960338       0.07135748       0.02532273      -0.02979218      -0.04524998
C        8.67588986      12.26661032       3.56393179       0.01905424       0.04472725      -0.02457514       0.00860700      -0.29735926
C        7.51481605      12.27439330       2.58815700       0.02171535      -0.00642972      -0.04118684       0.02199885      -0.15444477
F        6.38871868      12.05717131       3.23960638       0.01483981       0.05830755      -0.04226328      -0.00946985      -0.17104742
F        7.66584141      11.28047532       1.70940951       0.01822983      -0.05865715       0.03027536      -0.01107010      -0.19653179
F        7.36711121      13.43722604       1.91846898       0.04761354      -0.04401347      -0.09323465      -0.00846038      -0.27295020
C        9.98533949      12.72431022       2.92863162       0.01148211       0.04286372      -0.02463916       0.02099655      -0.18113551
F       10.40020537      11.83928132       2.00469354       0.04238463       0.01984926       0.00727140      -0.01089631      -0.28409350
F       10.93078939      12.83437694       3.86174348       0.00584405       0.07914919      -0.01862269      -0.01079995      -0.23910320
F        9.86858601      13.91546000       2.33222292       0.00742724       0.00597690      -0.06299534      -0.01124581      -0.24696478
H        8.89482680      10.35471374       3.35833938      -0.01642610       0.03368985       0.05543149       0.02555059      -0.03115048
H        8.44709730      12.94277776       4.38323902      -0.01336146       0.06862416      -0.06437479       0.01193278      -0.05821994
O        6.99122636       3.95345930       8.90288138      -0.03503907      -0.06704929       0.00036914      -0.02714622      -0.13874701
C        6.44668177       4.31358308      10.13038811      -0.03732745      -0.07196564       0.00115509       0.01273635      -0.28407207
C        5.99344081       5.76518206      10.11176465      -0.06210533      -0.07238670       0.00277099       0.02152332      -0.15219325
F        4.92343933       5.92472691       9.30458458      -0.02036225      -0.10742038      -0.04563982      -0.01072671      -0.25549859
F        6.98014580       6.54086706       9.69455122      -0.07216735      -0.03673292       0.02804432      -0.01107640      -0.14428604
F        5.59327966       6.16901787      11.32077034      -0.13011214      -0.08143911      -0.02684867      -0.00961159      -0.21580136
C        7.45810028       4.07757365      11.25615517      -0.05518154      -0.09122589       0.00911643       0.02310704      -0.13721229
F        8.55520785       4.79187686      11.02628667      -0.04417234      -0.06354457       0.08009313      -0.00976466      -0.13826887
F        7.79397815       2.78452840      11.31681080      -0.04442161      -0.06747524      -0.02852038      -0.01104345      -0.27200815
F        7.01212114       4.42492859      12.47788723      -0.11906424      -0.11809091      -0.01095004      -0.00960758      -0.27585003
H        7.73667508       4.53765621       8.69678271      -0.03496367      -0.06046565       0.00557061       0.02371382      -0.05493269
H        5.56518417       3.70045510      10.30618986      -0.01695503      -0.06879707      -0.01364206       0.01257143      -0.05246629
O       10.40333602       3.46406255      10.00750092       0.06478085      -0.02072316       0.02921469      -0.02989049      -0.09214415
C       10.91366551       3.27360093      11.29044386       0.07330545      -0.04277783       0.02319839       0.00836604      -0.29811540
C       11.73108894       4.48581752      11.74032911       0.08728955      -0.05406052       0.02379566       0.01916511      -0.18478419
F       10.94495600       5.56776891      11.78187468       0.09874832      -0.04430598       0.04390270      -0.01423781      -0.23998678
F       12.72976208       4.70527289      10.87858704       0.08363398      -0.03185283       0.02798400      -0.01197986      -0.18269092
F       12.29656778       4.34815635      12.93596734       0.08881962      -0.07970227       0.01828597      -0.01065266      -0.22293171
C       11.69266459       1.96338659      11.30004953       0.06645539      -0.05076138      -0.00277039       0.02092179      -0.17748642
F       12.74709862       1.99691873      10.47348338       0.09912986      -0.03070493       0.04472943      -0.01125449      -0.26374939
F       10.88456712       1.00242872      10.86512511       0.08612371      -0.02843959      -0.08547451      -0.01235146      -0.21713583
F       12.13568387       1.63173959      12.51456258       0.00322172      -0.11561916      -0.00338721      -0.01029306      -0.25789398
H       11.14046941       3.57372935       9.39823697       0.07369009      -0.04839814       0.01603106       0.02028355      -0.05625641
H       10.07323286       3.16339129      11.97527647       0.07961174      -0.04754587       0.02242643       0.01044604      -0.05406836
O        6.31383371       6.85811593       7.36478062      -0.02578616      -0.06096965      -0.06232258      -0.02581480      -0.06200261
C        6.96904880       7.54210795       6.35498735      -0.02467192      -0.04731044      -0.05301460       0.01163787      -0.27900612
C        6.03662826       8.59609007       5.78990513      -0.00688474      -0.01114807      -0.01638981       0.02094138      -0.16718495
F        5.74925006       9.47334400       6.76374316       0.04248731      -0.01288600       0.00033383      -0.01215275      -0.23149630
F        4.87202830       8.04899429       5.40124041      -0.02866928       0.03279709       0.01175378      -0.00988777      -0.27608338
F        6.56952201       9.23299553       4.75641637      -0.01434428      -0.00413081      -0.01731457      -0.01036625      -0.20999765
C        7.45712273       6.54703436       5.31106022      -0.04856211      -0.03109607      -0.07678467       0.02148930      -0.16670643
F        6.43548372       5.82356386       4.82634159      -0.05166035      -0.02133074      -0.07742856      -0.00777773      -0.28763121
F        8.30585075       5.69203131       5.88788593      -0.05497698      -0.04899115      -0.09410817      -0.01164830      -0.25144199
F        8.06906785       7.13944317       4.28859372      -0.03922708      -0.02284433      -0.06816030      -0.01092742      -0.23172647
H        5.51755342       6.44604075       7.00658763      -0.04591404      -0.03688147      -0.04783217       0.02706790      -0.03371652
H        7.83312881       8.05828184       6.78283110      -0.00909832      -0.07602287      -0.06245237       0.01292798      -0.05172319
