19
Properties=species:S:1:pos:R:3:energies:R:1:forces:R:3:charge:R:1 energy=-873.3624457406329 free_energy=-873.3624457406329 dipole="-0.2753311595682345 0.0013707225075990962 -0.15728636244434668" pbc="F F F"
C       -2.25228398       1.20623378      -0.21339761     -59.69012822       0.00033425      -0.00000591       0.00180554      -0.14894190
C       -1.16600156       0.16882973      -0.13590290     -58.91991799      -0.00112857       0.00055471      -0.00182866       0.36817935
O       -0.04693079       0.32199629      -0.57024632    -112.59363396       0.00227110       0.00253365      -0.00075246      -0.43923523
O       -1.58758581      -0.94194388       0.44688115    -111.18682108       0.00161885       0.00275260       0.00318282      -0.24567069
C       -0.64944970      -2.01014400       0.57505360     -59.21283325       0.00405395      -0.00332399       0.00195695       0.01777137
H       -2.63486121       1.23677408      -1.23209879     -12.91576277       0.00293200       0.00009613       0.00245730       0.08314228
H       -3.05918083       0.95614878       0.46754035     -13.04926532       0.00099752      -0.00108546      -0.00211078       0.07484293
H       -1.83792709       2.18292667       0.02150255     -12.95680378      -0.00230943      -0.00185820      -0.00033112       0.08177523
H        0.22430266      -1.68252984       1.14343822     -12.79982083       0.00006198       0.00352372      -0.00217997       0.09882643
H       -0.33244151      -2.34985790      -0.41315628     -13.10729231       0.00167082       0.00281357       0.00400913       0.05794749
H       -1.17164390      -2.80522867       1.09983586     -13.00940551       0.00239965       0.00202848      -0.00047175       0.07023493
C        4.40388541      -0.24768783       1.35290099     -59.62090071      -0.00053759       0.00118766       0.00112397      -0.14606991
C        2.93298323      -0.26592861       1.02801275     -59.17019721       0.00020014      -0.00536664      -0.00337039       0.36764585
O        2.08565983      -0.75350481       1.73612689    -112.48824642      -0.00550157      -0.00369383      -0.00182328      -0.43964455
O        2.67346852       0.30251745      -0.13764271    -112.58110623       0.00042105       0.00091230       0.00031196      -0.38386884
H        4.91044029      -0.96623959       0.71184906     -12.99993090      -0.00108251       0.00145666       0.00008936       0.07620288
H        4.55898695      -0.51808715       2.39249076     -13.10745295      -0.00383849      -0.00180740       0.00123429       0.07002141
H        4.81177592       0.73784777       1.14762903     -13.04367630      -0.00061078       0.00115272      -0.00097188       0.07410077
H        1.71081704       0.28994624      -0.34657361     -10.90925002      -0.00195237      -0.00187077      -0.00233103       0.36274021
