19
Properties=species:S:1:pos:R:3:energies:R:1:forces:R:3:charge:R:1 energy=-873.384666849349 free_energy=-873.384666849349 dipole="-0.26804089800989855 -0.16437970313225383 0.09645185127889254" pbc="F F F"
C       -1.04091000       1.14626809      -0.24815658     -59.77558058      -0.00090665       0.00116965      -0.00243132      -0.15996783
C       -0.81548422      -0.27382013       0.15907008     -58.87681423       0.00083399       0.00223362       0.00240816       0.36755758
O        0.16616211      -0.68122218       0.74337141    -112.62480959       0.00420745      -0.00277183      -0.00599574      -0.43898869
O       -1.81818789      -1.06837237      -0.20001418    -111.19543952      -0.00205026      -0.00049637       0.00647890      -0.24644039
C       -1.68514871      -2.44969239       0.10972166     -59.19859524       0.00210289      -0.00154371       0.00002354       0.02972578
H       -2.00615719       1.25520644      -0.72998770     -13.09121998      -0.00303198       0.00038500      -0.00276862       0.07208991
H       -0.97523967       1.79225633       0.62441523     -12.95799495      -0.00029228      -0.00127882       0.00082153       0.08099386
H       -0.23821372       1.42839718      -0.93172130     -12.59892979       0.00417404       0.00649691       0.00120830       0.12333261
H       -1.58097161      -2.58908006       1.18748327     -13.02262963      -0.00559540       0.00316318       0.00262059       0.06522480
H       -0.80464134      -2.86438933      -0.38447715     -13.01785847       0.00173517      -0.00146230      -0.00517657       0.06597053
H       -2.58950430      -2.92998773      -0.25368119     -12.97588579      -0.00041186      -0.00492086       0.00310740       0.07203707
C        4.20336352       1.49566059      -0.83877987     -59.61179272       0.00075272      -0.00033494       0.00260120      -0.14574615
C        2.79549343       1.01704721      -0.59472786     -59.18395741       0.00088621      -0.00307982       0.00134325       0.36789270
O        1.87252659       1.21934222      -1.34720574    -112.54285731      -0.00261582       0.00370763      -0.00407440      -0.44470627
O        2.68566542       0.33936322       0.53357917    -112.59081601      -0.00108923      -0.00115767      -0.00097029      -0.38699354
H        4.69941816       1.68653566       0.10753107     -13.07679125       0.00327957       0.00332480       0.00385979       0.07186765
H        4.19119650       2.38664369      -1.45909456     -13.09445740      -0.00444612      -0.00108000       0.00013719       0.07056626
H        4.74519887       0.71142533      -1.36414245     -12.99482342       0.00183940      -0.00290623      -0.00004270       0.07663129
H        1.76944751      -0.01552772       0.67061671     -10.95341357       0.00062817       0.00055176      -0.00315020       0.35895284
