16
Properties=species:S:1:pos:R:3:energies:R:1:forces:R:3:charge:R:1 energy=-787.2342021612326 free_energy=-787.2342021612326 dipole="-0.41427316895787564 -0.08900423260699486 -0.38040146335526115" pbc="F F F"
C       -2.11011832       1.20320951      -0.17092847     -59.73420428       0.01316713       0.00475135      -0.00000966      -0.14929886
C       -1.24376918      -0.01257371      -0.04666752     -58.92295056      -0.00130482      -0.00274844      -0.01677435       0.37332751
O       -0.04840630      -0.04051220      -0.19802907    -112.51248866       0.01506210      -0.00015208      -0.00188470      -0.42736239
O       -1.95147598      -1.10382410       0.24162537    -112.50272291       0.01339848      -0.00334983       0.00976096      -0.36669694
H       -2.76218503       1.08599501      -1.03419919     -12.87440648      -0.00625523      -0.00695386       0.01956961       0.08694003
H       -1.49499272       2.08815618      -0.29487181     -12.99283412       0.01267908       0.01167324       0.00818409       0.08047606
H       -2.73179472       1.29241542       0.71616505     -12.88628781      -0.00712039       0.00705239      -0.01420403       0.08745653
H       -1.37636396      -1.88092750       0.32363916     -10.96321323       0.00710110      -0.00896659       0.01204705       0.33372822
C        4.72204960       0.07042277       1.31015618     -59.60756890      -0.00635856      -0.00222488       0.00141589      -0.14573850
C        3.21515393       0.06530069       1.25189395     -59.18766054      -0.00468091      -0.01059870      -0.00163882       0.36509118
O        2.48938627       0.08855920       2.21148630    -112.28639317      -0.01277817      -0.00450752      -0.00753087      -0.42386533
O        2.77352984       0.02535024      -0.00105713    -112.60666786      -0.00599815       0.00665195      -0.00507306      -0.38755218
H        5.10069847      -0.83553474       0.84316993     -13.03546789      -0.00691091      -0.00075693      -0.00002787       0.07364536
H        5.05293075       0.12269054       2.34237195     -13.12451842      -0.00166864       0.00554566       0.00014246       0.06875714
H        5.10037714       0.92175771       0.74996380     -13.03689590      -0.00697148       0.00146967       0.00627875       0.07389235
H        1.79463212       0.02419160      -0.03908477     -10.95992142      -0.00136064       0.00311456      -0.01025543       0.35719982
