19
Properties=species:S:1:pos:R:3:energies:R:1:forces:R:3:charge:R:1 energy=-873.3699430085343 free_energy=-873.3699430085343 dipole="-0.22993158015169424 -0.28561499746213104 0.0015856428603192884" pbc="F F F"
C       -1.21272610       1.20105089      -0.28568324     -59.77805344       0.01212699       0.01972121       0.01821082      -0.15981428
C       -0.86081910      -0.18555760       0.14580821     -58.86582221       0.01672850       0.00652265       0.02750552       0.36819575
O        0.09905619      -0.48181520       0.82478618    -112.63887751      -0.03469175      -0.00491931      -0.01456491      -0.44190652
O       -1.73830903      -1.08550596      -0.29135090    -111.21685906       0.01721035       0.01166191       0.02527927      -0.24919782
C       -1.50361154      -2.44033710       0.06885760     -59.20707402      -0.00180471      -0.00420312      -0.00066332       0.02869896
H       -2.06171824       1.17954903      -0.96033914     -13.09347254       0.00802713       0.02040434      -0.00377358       0.07167787
H       -1.44804362       1.79708344       0.59453970     -12.92841709       0.00768206       0.00047169      -0.02300850       0.08285253
H       -0.34017541       1.64631797      -0.76588887     -12.61741150      -0.01677478      -0.02532427       0.00352759       0.12250248
H       -1.18431802      -2.50122919       1.11111987     -12.99698429      -0.00792036      -0.02440778      -0.00324939       0.06919311
H       -0.72542185      -2.86647705      -0.56706875     -13.04108691       0.00429584      -0.00531598      -0.00030710       0.06272069
H       -2.44299762      -2.96581054      -0.08038324     -12.98934568      -0.00535906      -0.01134474      -0.00138124       0.07048729
C        4.21451888       1.33115381      -0.88431775     -59.61218530      -0.00962381      -0.00617977      -0.00892240      -0.14544124
C        2.79008484       1.06018813      -0.47267750     -59.18180355      -0.01082270       0.01283792      -0.00333454       0.36758855
O        1.82472154       1.54492642      -1.01262454    -112.50941982       0.03909266      -0.01793175      -0.00125856      -0.44128951
O        2.71431709       0.21841111       0.54412792    -112.58361351      -0.02261457       0.03076016      -0.00647200      -0.38555978
H        4.83266824       1.47382223      -0.00242819     -13.05102623      -0.00975490      -0.00065043      -0.01378285       0.07374229
H        4.25377005       2.20254870      -1.53069252     -13.10657881       0.00305225       0.00457615       0.01781835       0.06987515
H        4.58780791       0.46571196      -1.42904083     -13.00532534      -0.00171458       0.00301150       0.01943141       0.07566273
H        1.77520924       0.01202302       0.77705600     -10.94658619       0.01286545      -0.00969038      -0.03105457       0.36001175
