16
Properties=species:S:1:pos:R:3:energies:R:1:forces:R:3:charge:R:1 energy=-787.6764797917933 free_energy=-787.6764797917933 dipole="0.00160101874212152 -0.00039777408298820023 0.02316186915505754" pbc="F F F"
C       -2.17463482       0.84024693      -0.01166765     -59.66367013       0.00059490      -0.00128763       0.00074138      -0.14671473
C       -0.76638935       0.33094414      -0.14255913     -59.08621166      -0.00161876       0.00280093      -0.00306167       0.37277319
O        0.20950009       1.00488571       0.13176148    -112.79822628       0.00092611      -0.00414765       0.00103509      -0.45390386
O       -0.70027306      -0.90489284      -0.56588332    -112.56149781      -0.00087449       0.00201212       0.00292563      -0.37987920
H       -2.78443840       0.45143311      -0.82176766     -13.00013786      -0.00024869       0.00285856       0.00200313       0.07846947
H       -2.17924450       1.92590211      -0.00623319     -13.03802418       0.00031960      -0.00436475      -0.00141523       0.07603064
H       -2.58419832       0.47884850       0.93007731     -12.91828756       0.00038951       0.00017199      -0.00191895       0.08316376
H        0.24511313      -1.24255414      -0.63052042     -10.77311556      -0.00079309       0.00101533       0.00112377       0.36993463
C        4.23950276      -1.47097289      -0.52105539     -59.66435776       0.00603378      -0.00139561      -0.00044539      -0.14669284
C        2.83142341      -0.95669867      -0.41048340     -59.08499280       0.00492164      -0.00288354      -0.00256034       0.37276361
O        1.85514993      -1.63339650      -0.67594666    -112.78783839       0.00326699       0.00551751       0.00134802      -0.45271438
O        2.76646540       0.28424992      -0.00142510    -112.56763263      -0.00355568      -0.00491641      -0.00062841      -0.38059977
H        4.80488898      -0.82538350      -1.18853768     -12.95499208      -0.00028535       0.00128937      -0.00007794       0.08109032
H        4.23656601      -2.48956721      -0.89562609     -13.05710883      -0.00382621      -0.00144062      -0.00029359       0.07470601
H        4.70954102      -1.43477678       0.45893604     -12.94713314      -0.00240456       0.00131159       0.00107792       0.08153785
H        1.82067963       0.61854067       0.07087983     -10.77325312      -0.00284571       0.00345881       0.00014658       0.37003531
