16
Properties=species:S:1:pos:R:3:energies:R:1:forces:R:3:charge:R:1 energy=-787.6721598898744 free_energy=-787.6721598898744 dipole="0.01889979547473211 0.009518190590714681 -0.0069277718092308205" pbc="F F F"
C       -2.17775799       0.85480339      -0.06703308     -59.66004861       0.00186570       0.00634611      -0.00994766      -0.14640982
C       -0.77183188       0.32298522      -0.11686182     -59.09140848      -0.00313244      -0.00079109       0.06806618       0.37241131
O        0.20135359       0.98624503       0.19038261    -112.80620859       0.01285031      -0.01476850      -0.01174512      -0.45515732
O       -0.70551138      -0.92746567      -0.49771231    -112.56449533      -0.00187036       0.02871652      -0.01254555      -0.38026888
H       -2.75539136       0.44978347      -0.89276574     -13.00783051       0.00240967      -0.01476379       0.00929859       0.07771874
H       -2.16860647       1.94017273      -0.10009164     -13.04449722       0.01084622      -0.00925087       0.02062661       0.07540283
H       -2.63590042       0.52957033       0.86646140     -12.92303160       0.01587902       0.01364263      -0.02964345       0.08286714
H        0.23906773      -1.26825238      -0.52463149     -10.78065650       0.00218312      -0.02336888      -0.02045347       0.36950062
C        4.24097793      -1.45676158      -0.57925878     -59.66711402       0.00735942      -0.00839111       0.01383763      -0.14683111
C        2.83523855      -0.96872431      -0.36722914     -59.07576376      -0.01677143      -0.01526149      -0.06682178       0.37276737
O        1.85388265      -1.65167796      -0.59464021    -112.77597092       0.02910981       0.02891968       0.02918864      -0.45142370
O        2.78001339       0.26123363       0.07739062    -112.55456630      -0.00501330       0.00008754       0.02995136      -0.37834702
H        4.75980378      -0.77546374      -1.25021602     -12.95158674      -0.02224563      -0.02799449      -0.00147519       0.08139543
H        4.22969410      -2.46263199      -0.98982246     -13.05347204       0.00435241       0.04635648       0.01031375       0.07516554
H        4.76455483      -1.44717481       0.37341041     -12.94022021       0.01409118      -0.01664850       0.01605752       0.08196393
H        1.84006486       0.59016721       0.19256663     -10.77528907      -0.05191370       0.00716977      -0.04470807       0.36924495
