19
Properties=species:S:1:pos:R:3:energies:R:1:forces:R:3:charge:R:1 energy=-873.3614060019909 free_energy=-873.3614060019909 dipole="-0.29861301258634715 0.08833230209857618 0.11744176041219871" pbc="F F F"
C       -2.15159800       1.16930611      -0.22492568     -59.68917319      -0.00229342       0.00251056      -0.00062066      -0.14875840
C       -1.14377406       0.09787871       0.08933801     -58.91963950      -0.00447089       0.00394564      -0.00140854       0.36799428
O       -0.02569293       0.31225730       0.49889567    -112.57819667       0.00477173      -0.00466345       0.00044567      -0.43705890
O       -1.63942682      -1.11237602      -0.11431817    -111.19982233      -0.00511995       0.00171230      -0.00104389      -0.24726147
C       -0.79150705      -2.22558740       0.16726845     -59.21322766       0.00123802       0.00042018      -0.00020942       0.01748749
H       -2.77142332       0.86306406      -1.06192399     -13.01042452      -0.00039049       0.00041074       0.00168887       0.07749113
H       -2.78998874       1.31274723       0.64516687     -12.91964873       0.00143027      -0.00100161      -0.00041860       0.08253226
H       -1.64118360       2.10281355      -0.44182784     -12.99545906       0.00373262      -0.00548450      -0.00139489       0.07931918
H       -0.50310733      -2.22040513       1.22037109     -13.10918784      -0.00380547       0.00176165       0.00272567       0.05785569
H        0.10727614      -2.18758424      -0.45265666     -12.79355956       0.00469057       0.00251411       0.00415180       0.09943465
H       -1.37770590      -3.11122396      -0.06078974     -13.00934060       0.00467112      -0.00396252      -0.00261510       0.07020023
C        4.43893581      -1.29885030      -0.69317380     -59.62097083       0.00381945       0.00003203       0.00059468      -0.14615329
C        2.95712232      -1.10305968      -0.50595623     -59.16926054       0.00070202      -0.00195557      -0.00218044       0.36781505
O        2.10913768      -1.73175731      -1.09162695    -112.49478503      -0.00372719       0.00553624      -0.00075300      -0.44009130
O        2.68787325      -0.15315098       0.37370391    -112.58239539       0.00165539       0.00159211      -0.00266257      -0.38395655
H        4.82287886      -0.47878027      -1.29651861     -12.99383077      -0.00070761       0.00076389      -0.00225482       0.07690981
H        4.62969846      -2.23872217      -1.20147605     -13.10641674      -0.00518660       0.00031173      -0.00029130       0.06998772
H        4.93734311      -1.27386450       0.27140044     -13.04934169      -0.00084574      -0.00077716       0.00379407       0.07356315
H        1.71915557       0.00149504       0.46760797     -10.90672534      -0.00016385      -0.00366639       0.00245248       0.36268926
