16
Properties=species:S:1:pos:R:3:energies:R:1:forces:R:3:charge:R:1 energy=-787.3782760216482 free_energy=-787.3782760216482 dipole="-0.24258944826705187 -0.2262987754209906 0.062178286964740793" pbc="F F F"
C       -1.22099201       1.19062788      -0.34986822     -59.80799419       0.00176284       0.00535603       0.00964911      -0.16195986
C       -1.04707554      -0.23002916       0.06885511     -58.91973820      -0.00289084       0.00421915       0.00468545       0.37175908
O       -0.04315131      -0.70357846       0.55188986    -112.64815418      -0.00113597      -0.00651734      -0.00728958      -0.43852238
O       -2.14001325      -0.96715423      -0.12274320    -112.48562591       0.01274693      -0.00755559       0.01540738      -0.36530923
H       -1.97689461       1.26434865      -1.12520801     -13.00834269       0.00158858      -0.00211935       0.00963441       0.07889725
H       -0.26675263       1.59672713      -0.68348542     -12.67207155      -0.00805905      -0.00946971      -0.00911509       0.12073170
H       -1.54974429       1.76222800       0.51699603     -12.85895626       0.00106732       0.01279864      -0.00554207       0.08821470
H       -2.00020917      -1.87884784       0.18077082     -10.99850497      -0.00787313       0.00207914      -0.01515799       0.33063714
C        4.21123459       1.30980607      -0.79917685     -59.62096036       0.00467368      -0.00017538       0.00717737      -0.14594541
C        2.76221388       1.02562016      -0.50164234     -59.17257287       0.00395203      -0.01138127      -0.01632902       0.36793113
O        1.84143575       1.69433842      -0.90428767    -112.50396106      -0.00389429       0.00683359      -0.01241714      -0.43941470
O        2.61137381      -0.05009701       0.25138402    -112.59208873       0.00522867       0.00216934       0.00901426      -0.38629329
H        4.75305540       1.41569484       0.13698812     -13.01817602       0.01106586       0.00417509      -0.00019607       0.07556554
H        4.30128375       2.21481498      -1.39147474     -13.11274700      -0.01017840       0.00142395       0.00913619       0.06963852
H        4.63404346       0.46732699      -1.34125387     -13.01603570      -0.00153146      -0.00093920       0.00490453       0.07543421
H        1.65984408      -0.25316367       0.42744729     -10.94234635      -0.00652278      -0.00089709      -0.00356175       0.35863560
