10
Properties=species:S:1:pos:R:3:energies:R:1:forces:R:3:charge:R:1 energy=-368.2827178868671 free_energy=-368.2827178868671 dipole="-0.03683140877279514 0.706469367362268 -0.07573983793897608" pbc="F F F"
C        1.24934765       0.23896295       0.12677265     -59.61832850       0.00063927       0.00029543       0.00004741      -0.14118281
C        0.03408784      -0.65384487       0.07009813     -58.58097889      -0.00017647       0.00338426      -0.00036298       0.24670949
O        0.09638668      -1.84881029       0.19820960    -111.67861490       0.00023612      -0.00452975       0.00048558      -0.35411780
C       -1.26582132       0.07702174      -0.16064929     -59.61832850      -0.00066575       0.00021143      -0.00010179      -0.14118281
H        1.13808844       0.96258098       0.93120051     -13.12458285      -0.00102673       0.00014754       0.00086420       0.06419633
H        2.14379191      -0.35460210       0.29469159     -13.14406611       0.00131012       0.00019024       0.00013909       0.06649444
H        1.34807263       0.78712972      -0.80750371     -13.12458459      -0.00078999      -0.00005000      -0.00109340       0.06419619
H       -1.43067214       0.79719253       0.63765142     -13.12458371       0.00077916       0.00026383       0.00107053       0.06419626
H       -2.09259722      -0.62736499      -0.18941924     -13.14406613      -0.00132100       0.00002082      -0.00016148       0.06649444
H       -1.22068447       0.62173435      -1.10105167     -13.12458371       0.00101527       0.00006620      -0.00088717       0.06419626
