16
Properties=species:S:1:pos:R:3:energies:R:1:forces:R:3:charge:R:1 energy=-787.6751357160957 free_energy=-787.6751357160957 dipole="0.003485049543296109 0.006576219490498491 -0.02031193725740938" pbc="F F F"
C       -2.23674434       0.78112048      -0.29624158     -59.66574554       0.00098585       0.00068306       0.00268533      -0.14703651
C       -0.80358095       0.51044010       0.06882184     -59.08791539       0.00298529       0.00308194      -0.00021324       0.37280713
O        0.12004868       0.70139734      -0.70132495    -112.81636799      -0.00246799      -0.00141622      -0.00147797      -0.45610454
O       -0.65130615       0.06209319       1.28740290    -112.54156605       0.00016700      -0.00242072      -0.00013054      -0.37754838
H       -2.45941103       0.32450422      -1.25721192     -12.97167136       0.00116669       0.00412696       0.00193378       0.08026692
H       -2.37436808       1.85602900      -0.39503248     -12.92979617      -0.00161561       0.00103993      -0.00411507       0.08261581
H       -2.89711928       0.39666953       0.47398846     -13.04833753      -0.00171407      -0.00444514       0.00019514       0.07541465
H        0.31227817      -0.10881938       1.52069098     -10.77214435       0.00261833      -0.00252762      -0.00014414       0.36977876
C        4.30164672      -0.39104824       1.32740955     -59.66419463      -0.00260869       0.00043192       0.00097011      -0.14671133
C        2.86646407      -0.12582027       0.96747649     -59.08613433      -0.00401131      -0.00164969       0.00366488       0.37277804
O        1.94200533      -0.33790833       1.73053019    -112.79527487       0.00362322       0.00473693      -0.00330128      -0.45364580
O        2.71506581       0.34263534      -0.24441338    -112.56356131       0.00078437      -0.00245477       0.00158714      -0.38015830
H        4.61793437      -1.30922235       0.83581717     -12.92341273      -0.00270322       0.00217235      -0.00097907       0.08290374
H        4.40004958      -0.50782153       2.40209545     -13.04491663       0.00189377       0.00043623       0.00014815       0.07553220
H        4.92663708       0.42063841       0.96642213     -12.99040627       0.00097031      -0.00152415       0.00013735       0.07902325
H        1.75005192       0.49978914      -0.48079711     -10.77369056      -0.00007392      -0.00027100      -0.00096056       0.37008435
