16
Properties=species:S:1:pos:R:3:energies:R:1:forces:R:3:charge:R:1 energy=-787.3865410535353 free_energy=-787.3865410535353 dipole="-0.23996112755862528 -0.12763475098728086 0.15040889343558805" pbc="F F F"
C       -1.14553378       1.19150534      -0.31916468     -59.80662775      -0.00198582       0.00308016      -0.00031828      -0.16147106
C       -1.03989166      -0.24584008       0.06281319     -58.92545775       0.00315447       0.00137986       0.00044721       0.37199148
O       -0.04905790      -0.78116695       0.50841983    -112.65671091      -0.00129610      -0.00216567       0.00063056      -0.43891655
O       -2.17012332      -0.92198177      -0.12735096    -112.46377537       0.00377556      -0.00023181      -0.00013988      -0.36276874
H       -2.06331213       1.36918319      -0.86899486     -13.03312373      -0.00195094       0.00262922      -0.00180866       0.07730912
H       -0.27137552       1.46632741      -0.91093015     -12.60917248      -0.00152553       0.00034690       0.00288271       0.12446842
H       -1.13514480       1.79910869       0.58411315     -12.88528393      -0.00021370      -0.00056758       0.00074929       0.08656934
H       -2.06843767      -1.85240838       0.13070711     -10.99169533       0.00122293      -0.00179929      -0.00245404       0.33106605
C        4.16965740       1.36424254      -0.73990425     -59.61991311      -0.00030785      -0.00088144      -0.00029908      -0.14600754
C        2.72958959       0.94696472      -0.59311949     -59.17307131      -0.00078614       0.00141270      -0.00051840       0.36781394
O        1.82662863       1.37883654      -1.26906712    -112.53208242       0.00097544      -0.00520850       0.00105604      -0.44220994
O        2.56575647       0.04521339       0.35841540    -112.59807733      -0.00223683       0.00416961       0.00037857      -0.38673743
H        4.62862123       1.45254209       0.24033468     -13.05592324       0.00112329       0.00176951      -0.00230648       0.07316768
H        4.23064984       2.30246622      -1.28248566     -13.10071171       0.00187928      -0.00253531       0.00073246       0.07030206
H        4.69798601       0.59352691      -1.29769552     -12.99303763      -0.00196478       0.00019624       0.00010308       0.07695139
H        1.62363953      -0.24985710       0.43910028     -10.94187707       0.00013671      -0.00159460       0.00086490       0.35847176
