8
Properties=species:S:1:pos:R:3:energies:R:1:forces:R:3:charge:R:1 energy=-393.47502710857884 free_energy=-393.47502710857884 dipole="-0.09571894431794074 -0.4097173545522598 0.03520541328313186" pbc="F F F"
C       -0.96529837      -0.01351921      -0.06373108     -59.69189617       0.00495517       0.00407349      -0.00008041      -0.14745044
C        0.50018848       0.30328231       0.00289694     -59.01354758       0.01160708       0.00319773       0.00046122       0.36578488
O        0.98859341       1.39666970      -0.07533998    -112.19948149       0.01530252       0.00891568       0.00012435      -0.40665507
O        1.23921459      -0.80398946       0.16533162    -112.58446897      -0.00053161       0.00062657      -0.00010055      -0.37955069
H       -1.14656876      -0.69078970      -0.89453508     -12.94130057      -0.00867204      -0.00893003       0.00607097       0.08176837
H       -1.53377207       0.90131387      -0.19509990     -13.03789132      -0.00553125      -0.00017284      -0.00035550       0.07638818
H       -1.26452387      -0.51295241       0.85432139     -12.94129929      -0.00790665      -0.01008101      -0.00525707       0.08176845
H        2.18216659      -0.58001510       0.20615610     -11.06514172      -0.00922322       0.00237041      -0.00086303       0.32794631
