19
Properties=species:S:1:pos:R:3:energies:R:1:forces:R:3:charge:R:1 energy=-873.3519968925445 free_energy=-873.3519968925445 dipole="-0.2414936772874123 0.06679886878407951 -0.0369626928733663" pbc="F F F"
C       -1.91678065       1.27181392      -0.02177463     -59.68856040      -0.01213056       0.00876373      -0.00057870      -0.14892240
C       -1.04233330       0.05663191      -0.16124641     -58.91483303       0.00187168       0.01278162       0.00321239       0.36886312
O       -0.03409692       0.01801913      -0.83100667    -112.61034027      -0.00382207      -0.00352057       0.00863348      -0.44189059
O       -1.51762324      -0.97544873       0.51469532    -111.14561605       0.00384678      -0.00099700      -0.00788761      -0.24201351
C       -0.75624176      -2.18142754       0.47374762     -59.21606621       0.00020912      -0.01096712      -0.00116152       0.01900396
H       -2.59549987       1.31364836      -0.87191712     -12.91672015      -0.00044223      -0.00054889      -0.00239001       0.08288015
H       -2.49739159       1.21314585       0.89295473     -13.03709391      -0.00440015      -0.00746715       0.00124669       0.07587979
H       -1.30132316       2.16711518      -0.03156977     -12.97785261      -0.00108959      -0.00658749      -0.00236510       0.08025278
H        0.18894965      -2.03640516       1.00155602     -12.80078784      -0.00926951       0.00678036      -0.00472788       0.09687911
H       -0.55480870      -2.46401885      -0.56144274     -13.08219389       0.00041389       0.00100507      -0.00005646       0.06100409
H       -1.36180812      -2.93752497       0.96551699     -13.01493547       0.00574620       0.00397339       0.01113091       0.06953710
C        4.21758862      -0.01660759       1.42748958     -59.61927299      -0.00421394      -0.00197695       0.00233648      -0.14618187
C        2.80691363      -0.22919927       0.94345683     -59.17011320      -0.00306767      -0.00739393      -0.00667290       0.36795888
O        1.95104495      -0.80377937       1.57104328    -112.49770805      -0.00145920      -0.00062549       0.00701700      -0.44114178
O        2.61418857       0.27345618      -0.26481180    -112.56708405       0.01883667       0.00767664      -0.01099976      -0.38371494
H        4.82932862      -0.84482301       1.07495653     -12.98614941       0.00461725      -0.00191114      -0.00197395       0.07724735
H        4.24025599      -0.00255224       2.51279725     -13.08828037      -0.00259110      -0.00264463       0.00134855       0.07126006
H        4.61322999       0.90733257       1.01766864     -13.07129591       0.00705798       0.00116754       0.00273645       0.07235738
H        1.69042075       0.13269213      -0.57787067     -10.94709310      -0.00011355       0.00249203       0.00115195       0.36074130
