19
Properties=species:S:1:pos:R:3:energies:R:1:forces:R:3:charge:R:1 energy=-873.3566469491415 free_energy=-873.3566469491415 dipole="-0.3019051012275347 0.11165265675347817 0.11776373242343437" pbc="F F F"
C       -2.19230892       1.17092005      -0.17826656     -59.68518029      -0.01014718       0.01232559      -0.00747757      -0.14895002
C       -1.16239663       0.10208625       0.06577969     -58.92579951       0.00420026       0.00468100      -0.01251678       0.36805919
O       -0.00683166       0.32121425       0.34727834    -112.56963265       0.00567700      -0.00797826       0.02243355      -0.43665752
O       -1.68471757      -1.10824585      -0.05665382    -111.21491134       0.01352794      -0.00638863       0.01124711      -0.24883863
C       -0.82878603      -2.22773599       0.17224734     -59.21415678       0.01242785      -0.01570854       0.00231911       0.01668206
H       -2.79632649       0.90895627      -1.04166719     -12.99244124      -0.00535513       0.00533713      -0.01127977       0.07844767
H       -2.84715759       1.23647807       0.68803126     -12.93763710       0.00154650      -0.00812514       0.01400360       0.08123742
H       -1.70163094       2.12746374      -0.32732345     -13.01262694       0.00596028       0.00533616      -0.00943324       0.07796246
H       -0.62788146      -2.32957418       1.24078209     -13.11279514      -0.00032979       0.01230703      -0.00395714       0.05682006
H        0.11696091      -2.11138313      -0.36276586     -12.78769322      -0.01445431      -0.00616128       0.00000150       0.10118272
H       -1.36967608      -3.09784612      -0.19050494     -13.00914989       0.00617831       0.01038078      -0.00037177       0.07004165
C        4.48396711      -1.32737062      -0.67546066     -59.62372116      -0.00021316       0.00100690       0.00465865      -0.14615218
C        3.00395637      -1.10870097      -0.50100704     -59.16678156       0.00419919       0.01104762      -0.01707278       0.36783691
O        2.15147545      -1.83392720      -0.95235481    -112.47424890      -0.00686248      -0.01003791      -0.00571220      -0.43801197
O        2.74009087      -0.02148187       0.20482226    -112.58521486      -0.00593847      -0.00153502       0.00480802      -0.38356316
H        4.89285087      -0.51591759      -1.27341296     -13.00632658      -0.00325171      -0.00816457       0.00262456       0.07627188
H        4.66346501      -2.27728169      -1.16930557     -13.11180312      -0.00050481       0.01094046       0.00315159       0.06971179
H        4.96746509      -1.30742740       0.29754441     -13.02880447       0.00666060      -0.00124535      -0.00108332       0.07473656
H        1.77149513       0.12397402       0.30079615     -10.89772219      -0.01332089      -0.00801797       0.00365687       0.36318310
