10
Properties=species:S:1:pos:R:3:energies:R:1:forces:R:3:charge:R:1 energy=-368.2826381772382 free_energy=-368.2826381772382 dipole="-0.036832224444804954 0.706485270780267 -0.07574154121856441" pbc="F F F"
C        1.24912990       0.23931735       0.12671062     -59.61958092      -0.00070217      -0.00112525       0.00002856      -0.14124882
C        0.03402510      -0.65264161       0.06996918     -58.58261659       0.00056426      -0.01082355       0.00116008       0.24654707
O        0.09632508      -1.84762915       0.19808296    -111.67994314       0.00069547      -0.01333360       0.00142962      -0.35443764
C       -1.26564187       0.07740168      -0.16066595     -59.61958093       0.00081432      -0.00102725       0.00020201      -0.14124882
H        1.13714223       0.96278958       0.93110958     -13.12402870       0.00767943       0.00058088       0.00227991       0.06425938
H        2.14183511      -0.35682221       0.29467923     -13.14239927       0.00898842       0.01390335      -0.00031704       0.06667548
H        1.34713680       0.78732951      -0.80768128     -13.12403038       0.00801227       0.00030343      -0.00047416       0.06425924
H       -1.42976388       0.79752043       0.63777245     -13.12402949      -0.00800564      -0.00042825       0.00048748       0.06425932
H       -2.09042285      -0.62931908      -0.18895948     -13.14239930      -0.01037279       0.01265652      -0.00252984       0.06667548
H       -1.21976562       0.62205351      -1.10101731     -13.12402946      -0.00767356      -0.00070628      -0.00226661       0.06425931
