12
Properties=species:S:1:pos:R:3:energies:R:1:forces:R:3:charge:R:1 energy=-590.500159760349 free_energy=-590.500159760349 dipole="-0.0008848599143041842 -0.02810911205848478 -0.11733436979904951" pbc="F F F"
C       -2.32612658      -0.10459449      -0.04016399     -59.23268820      -0.00097953      -0.00033917      -0.00124866       0.02942333
O       -1.08863082      -0.21938602      -0.73112918    -111.20810272      -0.00048849      -0.00002313      -0.00001309      -0.26227634
C        0.00004766       0.00151136       0.00631404     -59.35648807      -0.00000631      -0.00019680      -0.00082505       0.48228702
O        0.00883250       0.28058953       1.17121931    -112.54811505      -0.00001799      -0.00057584      -0.00240456      -0.44641056
O        1.07733598      -0.13943351      -0.76661765    -111.20810271       0.00048804       0.00001302      -0.00002916      -0.26227634
C        2.32494609       0.06709384      -0.11637063     -59.23268823       0.00096043      -0.00026688      -0.00128070       0.02942333
H       -2.44462325       0.90178156       0.36618537     -12.98809694      -0.00127609      -0.00366812       0.00261193       0.06763085
H       -3.09695970      -0.31242207      -0.77728716     -12.88079197      -0.00047251      -0.00010359      -0.00035260       0.07965338
H       -2.37414497      -0.82451571       0.77920266     -12.98809848      -0.00160300       0.00434166       0.00069644       0.06763055
H        2.38218042       1.07996304       0.28708227     -12.98809811       0.00162821      -0.00356052       0.00256553       0.06763063
H        3.08447202      -0.08426079      -0.87856398     -12.88079195       0.00046719      -0.00006950      -0.00036789       0.07965338
H        2.45267066      -0.64632673       0.70012895     -12.98809733       0.00130005       0.00444888       0.00064781       0.06763077
