12
Properties=species:S:1:pos:R:3:energies:R:1:forces:R:3:charge:R:1 energy=-590.4997725299379 free_energy=-590.4997725299379 dipole="-0.0008477901795936318 -0.026928137193393032 -0.11240845335261482" pbc="F F F"
C       -2.32174071      -0.10388254      -0.03793745     -59.22911285      -0.02055918      -0.00295765      -0.00884985       0.02948900
O       -1.09048511      -0.22141007      -0.73926423    -111.21181040       0.00894807       0.00294959       0.01078793      -0.26201521
C       -0.00003389      -0.00108231      -0.00450760     -59.35432911      -0.00002406      -0.00076181      -0.00317881       0.48225228
O        0.00875118       0.27800062       1.16041937    -112.54848377       0.00012866       0.00409516       0.01708872      -0.44686644
O        1.07906721      -0.14132321      -0.77481195    -111.21181041      -0.00878351       0.00229069       0.01107947      -0.26201521
C        2.32059486       0.06748360      -0.11400099     -59.22911285       0.02042088      -0.00144424      -0.00952213       0.02948900
H       -2.43525703       0.90237059       0.36943632     -12.98729158       0.00254594       0.00630682       0.00329654       0.06768589
H       -3.09976914      -0.31010123      -0.76711219     -12.88297236      -0.01072216      -0.00466336      -0.01765946       0.07946177
H       -2.36482557      -0.82284671       0.78219600     -12.98729266       0.00296338      -0.00392028       0.00574454       0.06768563
H        2.37290881       1.07986424       0.29063879     -12.98729249      -0.00289374       0.00610725       0.00338710       0.06768569
H        3.08743415      -0.08172739      -0.86848346     -12.88297233       0.01045335      -0.00388205      -0.01800595       0.07946177
H        2.44335525      -0.64534559       0.70342739     -12.98729173      -0.00247763      -0.00412012       0.00583191       0.06768584
