12
Properties=species:S:1:pos:R:3:energies:R:1:forces:R:3:charge:R:1 energy=-462.1436343984972 free_energy=-462.1436343984972 dipole="-0.11375007154737121 0.9310600058612389 -0.19206446248172251" pbc="F F F"
C        1.35094817       0.02087974       0.05086739     -59.48828524      -0.00420769      -0.00663191       0.00116354      -0.05093119
N       -0.08187464      -0.15043980       0.02694608     -79.51931460      -0.00033732       0.00051821      -0.00011823      -0.07852063
C       -0.86344557       1.02547635      -0.24163187     -59.59090827      -0.00360176      -0.00583732       0.00102852      -0.05092342
C       -0.62055673      -1.36014500       0.24850785     -59.18502089      -0.00653362      -0.00780763       0.00130516       0.24257364
O       -0.00111081      -2.37158194       0.47736738    -112.26164276      -0.00110442      -0.00040316       0.00003594      -0.41934927
H        1.70805032       0.38344515      -0.91558130     -13.20265121       0.00354551       0.00323731      -0.00035757       0.04995128
H        1.79814369      -0.94794949       0.26412527     -12.90158161       0.00642714      -0.00607410       0.00148520       0.08914723
H        1.63701679       0.73422202       0.82695134     -13.20265113       0.00355772       0.00317973      -0.00064482       0.04995127
H       -0.67457008       1.78878689       0.51812904     -13.12618291       0.00219054       0.01028733       0.00008934       0.05538828
H       -1.92281081       0.77781817      -0.23496350     -13.16353841      -0.01253879      -0.00769304       0.00103750       0.05855407
H       -0.60371391       1.43889775      -1.21998546     -13.12618257       0.00235235       0.00948656      -0.00388457       0.05538834
H       -1.72607641      -1.33940984       0.19926777     -13.37567480       0.01025034       0.00773801      -0.00114001      -0.00122961
