32
Properties=species:S:1:pos:R:3:energies:R:1:forces:R:3:charge:R:1 energy=-1824.2506822706332 free_energy=-1824.2506822706332 dipole="-0.7792846256990109 0.25584913799700504 0.47776002187650357" pbc="F F F"
C       -3.08200062       0.45006691      -1.66137247     -59.45349548      -0.00740651      -0.00336477       0.00025671      -0.11259807
C       -2.25613117      -0.70130945      -1.07666321     -59.06996448      -0.01756538       0.00062758      -0.00499370       0.00729333
C       -1.54273518      -1.46890006      -2.18847339     -59.53477360      -0.00150781      -0.00323435       0.01493985      -0.12008687
C       -3.15513668      -1.64381686      -0.26556023     -59.43203074      -0.00116470       0.00717550      -0.00560354      -0.11135155
C       -1.22508247      -0.11932170      -0.12543616     -58.63477725      -0.01188323      -0.00581781      -0.01886360       0.36167927
O       -0.03064219      -0.29931799      -0.21481503    -112.67908069      -0.00427143      -0.00114309       0.00107803      -0.44020698
O       -1.77523450       0.60848563       0.83921973    -111.18933159       0.01997258      -0.00398216      -0.00759276      -0.24398303
C       -0.89354013       1.18841230       1.79258606     -59.22723085       0.01628151       0.00289505       0.00460381       0.02628605
H       -3.82963244       0.05512068      -2.34520345     -13.22779616       0.00691997      -0.00570517       0.01099142       0.05363325
H       -2.44230060       1.13697769      -2.21201970     -13.35419451      -0.00364083      -0.01509427       0.01053723       0.04471871
H       -3.58545556       0.99890590      -0.86936656     -13.28041902      -0.00175513      -0.00296370      -0.01333251       0.05106227
H       -0.92139700      -0.80017255      -2.77773010     -13.24238318      -0.00557129       0.00043208       0.00332936       0.05761134
H       -0.89750362      -2.23509702      -1.76877632     -13.23139603       0.01057701      -0.01232276       0.00828650       0.05814352
H       -2.27123312      -1.94350996      -2.84002507     -13.28269503      -0.00569996       0.02313247      -0.00659004       0.04889201
H       -3.91327308      -2.07643107      -0.91430002     -13.22281493       0.01353341       0.00572735       0.00632391       0.05405323
H       -2.56683162      -2.45155670       0.16557753     -13.35462416      -0.01437138       0.00508190      -0.01159034       0.04443802
H       -3.64894558      -1.10265599       0.53814397     -13.29297374       0.00092698      -0.00799571      -0.01320793       0.04985437
H       -0.28440263       0.41682879       2.26679709     -13.00640091       0.01352899      -0.00699426       0.00085386       0.06708373
H       -1.52296309       1.68107796       2.52881717     -12.94079497      -0.01113507       0.00034311      -0.00512039       0.07496748
H       -0.23498639       1.91294020       1.31028459     -13.00736487       0.01499337       0.00221925      -0.00740315       0.06682981
O        2.60105730       0.06611481       0.08611038    -112.83154483      -0.00275478       0.00983302       0.01160190      -0.42010311
C        3.25497427      -0.33182982      -1.05504156     -58.90430655      -0.00216193       0.00689893       0.01801686       0.08967381
C        2.82585209       0.48012854      -2.29935954     -58.22305856      -0.00294265       0.01324650       0.01476023       0.47398607
F        2.88381619       1.78875900      -2.03546953    -129.13350701       0.00380990       0.00742769       0.00043194      -0.18462854
F        1.58105999       0.22452760      -2.70438008    -129.13396165       0.00262810      -0.00787823       0.00432788      -0.18367914
F        3.63573222       0.25631015      -3.34062494    -129.27386530      -0.01908628      -0.00333753      -0.00100054      -0.19374406
C        3.11121193      -1.84743377      -1.32665642     -58.23881570      -0.00350612       0.00050268      -0.01088883       0.47402894
F        1.87493392      -2.21265805      -1.66548581    -129.10062384      -0.00904395       0.00919042       0.01172478      -0.18152988
F        3.44000646      -2.54876685      -0.23909547    -129.10981684       0.00931444       0.01413346       0.00248172      -0.18280866
F        3.92500386      -2.24889978      -2.31091228    -129.28341932       0.00302745      -0.01075882      -0.00674241      -0.19494590
H        1.62734858      -0.07998532       0.01827278     -10.85674402       0.00564201       0.00060295      -0.00822455       0.36486012
H        4.32707046      -0.13362217      -0.90669468     -12.49647649       0.00431268      -0.01887729      -0.00339169       0.10057044
