25
Properties=species:S:1:pos:R:3:energies:R:1:forces:R:3:charge:R:1 energy=-1540.9425592900016 free_energy=-1540.9425592900016 dipole="-0.6410692818708351 0.12713662321207778 0.3028191476993832" pbc="F F F"
C       -2.18091611       0.71322069      -0.25083103     -59.21027422       0.00128266       0.00015256       0.00138138      -0.06390196
C       -2.24275335      -0.72245831       0.26645554     -59.19201067       0.00329823      -0.00328799       0.00101313      -0.06251435
C       -0.83638539      -1.21161220      -0.06090483     -59.04775853       0.00503699       0.00094746       0.00029882       0.07575395
O        0.01883620      -0.08894240       0.13355416    -112.06846800      -0.00194991       0.00190743      -0.00037873      -0.34469202
C       -0.74813737       1.11436341       0.10046259     -59.04453026       0.00142411       0.00066923      -0.00105771       0.07450548
H       -2.32069854       0.72761139      -1.33187103     -13.23163265       0.00081708       0.00344074       0.00109560       0.04895611
H       -2.91508243       1.36771583       0.21194831     -13.31421894       0.00068285       0.00256343       0.00081798       0.04531655
H       -3.01049139      -1.32063584      -0.21687019     -13.32177046      -0.00274112       0.00109961       0.00064977       0.04536834
H       -2.40462605      -0.73090796       1.34479784     -13.24404634      -0.00123570      -0.00307427       0.00232004       0.04726179
H       -0.48555044      -2.01548603       0.58910149     -13.18228932      -0.00281566      -0.00166210      -0.00226503       0.04728516
H       -0.77232182      -1.53675868      -1.10687528     -13.16838011      -0.00347168      -0.00390134       0.00443013       0.04190124
H       -0.69218002       1.57801504       1.09254529     -13.18093306      -0.00404319      -0.00228722      -0.00066683       0.03960116
H       -0.30859728       1.79307482      -0.63448402     -13.18040986       0.00106884       0.00030566      -0.00082092       0.04578669
O        2.71932255       0.03415785       0.01630865    -112.77294155      -0.00025647      -0.00436266       0.00308317      -0.41512282
C        3.18495134      -0.41254102      -1.19622467     -58.91188583       0.00242149       0.00437614      -0.00094563       0.08754232
C        2.72077029       0.48213159      -2.36897445     -58.17399958      -0.00012616       0.00107564      -0.00203238       0.47487522
F        3.27690450       1.69279751      -2.28750062    -129.14896315      -0.00084647       0.00263534      -0.00482739      -0.18430604
F        1.39832575       0.66307633      -2.37766469    -129.14718897      -0.00271991       0.00040802      -0.00214079      -0.18372546
F        3.06010270      -0.02718322      -3.55749606    -129.26756494       0.00513150       0.00324775      -0.00341325      -0.19274091
C        2.80082661      -1.88428221      -1.48850411     -58.18588040      -0.00084713       0.00185558       0.00089673       0.47365508
F        1.57668173      -2.01212376      -2.01098553    -129.24078441       0.00167080      -0.00333010      -0.00077846      -0.19106192
F        2.82399366      -2.60952879      -0.37104775    -129.07742762      -0.00442412      -0.00258035      -0.00405114      -0.17882243
F        3.65287542      -2.45224927      -2.34830405    -129.24139128      -0.00048232      -0.00087211       0.00776313      -0.19056880
H        1.73241700      -0.00881726       0.07815713     -10.92428852      -0.00172968       0.00181822      -0.00362551       0.35602309
H        4.28326510      -0.36581028      -1.16857084     -12.46352059       0.00485497      -0.00114466       0.00325389       0.10362453
