24
Properties=species:S:1:pos:R:3:energies:R:1:forces:R:3:charge:R:1 energy=-2171.9836907524063 free_energy=-2171.9836907524063 dipole="0.16665767610667426 0.15014408554708375 -0.19829807291705445" pbc="F F F"
O       -0.04803956       0.22937808       0.85170384    -113.08820855      -0.00036030       0.00254267       0.00844931      -0.41173538
C       -1.26180133       0.06278518       0.19683787     -58.73839520       0.00332109      -0.01287694      -0.00210110       0.08042375
C       -2.12915118       1.33851666       0.31381751     -58.09770987       0.00155489      -0.02087764       0.00333516       0.47817229
F       -1.42959470       2.39899584      -0.09140823    -129.07373953      -0.01221690       0.00430685       0.00495414      -0.17712249
F       -2.50107926       1.56838707       1.57531341    -129.17167284       0.00497557       0.00051320      -0.00054941      -0.18361928
F       -3.22701828       1.27139405      -0.43482580    -129.12618737       0.00226278       0.02537924       0.00354095      -0.17945720
C       -2.01983389      -1.17246220       0.73809840     -58.14410436       0.01064996       0.00935402       0.01398745       0.47809120
F       -2.10860746      -1.11879409       2.07027027    -129.15956877       0.00678909       0.00415467       0.01503210      -0.18323764
F       -1.37577560      -2.29513268       0.42860482    -129.02025066      -0.01447725       0.01779375      -0.03752023      -0.17365148
F       -3.25449995      -1.27072233       0.25065883    -129.11986060       0.01312541      -0.00075886      -0.00237186      -0.17967605
H       -0.16639187       0.29558386       1.81440000     -10.71508806      -0.01851702      -0.01009369      -0.02382573       0.35036374
H       -1.04365065      -0.09355727      -0.86684544     -12.35321515      -0.00050100      -0.03338848      -0.01695289       0.11588537
O        2.65435948      -0.06053808      -0.07497110    -112.75270856      -0.03124568      -0.01455574       0.02823031      -0.39968570
C        3.27018027      -0.88603046       0.84413028     -58.87755613       0.00766124       0.00919458       0.00903565       0.08128740
C        2.63286909      -2.29611892       0.87581041     -58.13290657       0.00198914       0.01782784       0.01040117       0.47513930
F        2.64990100      -2.84201665      -0.33878807    -129.06367570      -0.00365003      -0.00732023       0.01525872      -0.17627613
F        1.35613018      -2.25285373       1.27226767    -129.25538059      -0.01316164       0.02644763       0.00247845      -0.19015811
F        3.27817187      -3.12160264       1.69997518    -129.17721841       0.00481148      -0.02762552      -0.03664717      -0.18422154
C        3.26627019      -0.26749722       2.26065640     -58.09270028       0.01575762       0.01937108       0.00001799       0.47541068
F        2.01950203      -0.08833608       2.72533548    -129.38773904      -0.00029816      -0.01242276      -0.00826456      -0.19773339
F        3.84081360       0.93351004       2.24190257    -129.05818360       0.02304222       0.01566351       0.01810324      -0.17629124
F        3.91892699      -1.01243816       3.15047047    -129.14923606       0.00113130       0.02004732      -0.00363699      -0.18154681
H        1.72486992       0.11457923       0.16583144     -10.87224331       0.00529061      -0.02183225       0.00174157       0.34534519
H        4.31858264      -0.99942174       0.53511768     -12.35614154      -0.00793443      -0.01084426      -0.00269628       0.11429352
