22
Properties=species:S:1:pos:R:3:energies:R:1:forces:R:3:charge:R:1 energy=-1454.5812415823964 free_energy=-1454.5812415823964 dipole="-0.9693178819770851 -0.3455604406018325 -0.055887057888162166" pbc="F F F"
C       -2.01060320       1.26995513       0.01666401     -59.74691943       0.01154740       0.00661436       0.00018050      -0.14758263
C       -1.21107046       0.00036438       0.00016556     -58.39340320       0.00670312      -0.00334211       0.00005238       0.25702837
O       -0.00087427      -0.00641458      -0.00175546    -112.15488344      -0.00081199      -0.00668163      -0.00169775      -0.38513224
C       -2.01831359      -1.26797528      -0.01585321     -59.70415070       0.00988059      -0.00563445      -0.00002551      -0.14453780
H       -2.65014424       1.29080587       0.89638796     -12.99770560       0.01185664      -0.00010148       0.00147718       0.07530786
H       -1.34753279       2.13009153       0.02693440     -13.02677135       0.01242731       0.00886184      -0.00046188       0.07960206
H       -2.65143185       1.31276461      -0.86143002     -13.00044843       0.00993648      -0.00019010      -0.00007238       0.07489608
H       -2.65789712      -1.30972926       0.86330123     -13.01869465       0.00686107       0.00691006      -0.00901717       0.07357460
H       -1.36089238      -2.13314583      -0.02730308     -13.08143931      -0.00422388      -0.01065034       0.00047687       0.07169059
H       -2.65790695      -1.28669204      -0.89585577     -13.01989888       0.00553762       0.00529297       0.00999019       0.07334398
O        2.74212121      -0.01713423      -0.00281000    -112.75754269       0.01051119      -0.00466829      -0.00174643      -0.41183523
C        3.20649516       1.26083824       0.20182692     -58.90412469       0.00131164      -0.01137402      -0.00184027       0.08826239
C        2.78325882       1.82135880       1.57894775     -58.21068290      -0.01003570       0.00375502      -0.00527401       0.47431130
F        3.21068103       1.01975172       2.55715817    -129.11366702      -0.01688753       0.00029933      -0.00815434      -0.18269493
F        1.45927307       1.92793180       1.70886072    -129.14734565      -0.01166284       0.01196040      -0.00899926      -0.18435616
F        3.30259609       3.03147569       1.81378964    -129.26063177      -0.00229873      -0.00138986       0.01904305      -0.19309991
C        2.78342025       2.22406644      -0.93097677     -58.21109340      -0.00893468       0.00153144       0.00609927       0.47427254
F        1.45961726       2.36815695      -1.02122680    -129.14807992      -0.01044145       0.00888347       0.01443751      -0.18426746
F        3.21000843       1.76781808      -2.11073306    -129.11318191      -0.01750144      -0.00143094       0.00658940      -0.18263562
F        3.30391617       3.44650450      -0.77597066    -129.26204538      -0.00035241       0.00387533      -0.01857715      -0.19319754
H        1.76014078      -0.05167864      -0.00804246     -10.82091434      -0.02169328      -0.00533106      -0.00075765       0.36477866
H        4.30508403       1.22325958       0.19569454     -12.48761690       0.01827088      -0.00718995      -0.00172255       0.10227107
