24
Properties=species:S:1:pos:R:3:energies:R:1:forces:R:3:charge:R:1 energy=-1548.5568572558168 free_energy=-1548.5568572558168 dipole="-1.3581035407424484 -0.1396878428426526 -0.03147218749999514" pbc="F F F"
C       -1.74168287       2.55930807      -0.28217735     -59.57039732       0.00250082      -0.00183738       0.00056138      -0.06160444
N       -2.03939625       1.15490193      -0.11673926     -79.37505895      -0.00439757      -0.00318076       0.00079718      -0.05199597
C       -3.43210942       0.79703158      -0.07546879     -59.65546600      -0.00621926      -0.00239705       0.00312995      -0.05861254
C       -1.05939089       0.26512126      -0.00266831     -59.05954810      -0.00281324       0.00170831       0.00515373       0.24361430
O        0.13028859       0.53009537      -0.02342434    -112.77069608      -0.00200115      -0.00068135      -0.00642955      -0.45408632
H       -2.17773611       2.92791705      -1.21200538     -13.10189383       0.00146937       0.00072455       0.00236980       0.06028304
H       -0.66134155       2.68085743      -0.31425693     -12.81363300       0.00505945       0.00388498      -0.00030513       0.10038820
H       -2.14629966       3.13139792       0.55443345     -13.09650764       0.00044087       0.00161705      -0.00316737       0.06091151
H       -3.92715674       1.30469511       0.75588831     -13.03206266      -0.00045857       0.00157696       0.00401284       0.06483404
H       -3.53976897      -0.27796091       0.05350284     -13.10638588      -0.00053294      -0.00341521      -0.00176613       0.06369104
H       -3.92603408       1.09440576      -1.00379435     -13.03491800       0.00605863      -0.00133037      -0.00163025       0.06454502
H       -1.41805180      -0.77076605       0.11743541     -13.27525170      -0.00048515       0.00255436      -0.00281301       0.01231918
O        2.69583101      -0.09442191      -0.05582811    -112.75147463      -0.00043773       0.00029001       0.00066376      -0.41807624
C        3.24696434       1.13653948       0.19519884     -58.93058688       0.00156683      -0.00074880      -0.00371938       0.08988475
C        2.64320636       1.83960688       1.43811757     -58.25111878      -0.00007971       0.00111012       0.00706339       0.47444396
F        2.22672922       0.94861599       2.33601884    -129.04800621      -0.00025653       0.00451134      -0.00243076      -0.17811516
F        1.60680891       2.63451519       1.16060232    -129.16800797       0.00305059      -0.00309580       0.00242597      -0.18708765
F        3.55932278       2.60847112       2.04568260    -129.31132491      -0.00489974      -0.00115354      -0.00008380      -0.19758079
C        3.15690269       2.08894607      -1.02203297     -58.22002745      -0.00040595      -0.00193968      -0.00399603       0.47445801
F        1.91496004       2.25228357      -1.47636248    -129.08158885       0.00150062      -0.00207727       0.00298963      -0.18020274
F        3.88590613       1.62394973      -2.03988442    -129.14748012       0.00180716      -0.00118710       0.00514607      -0.18569723
F        3.63389633       3.30747007      -0.72930764    -129.32889378      -0.00080728      -0.00292428      -0.00028592      -0.19879777
H        1.70922826      -0.02840090      -0.10478201     -10.91153226      -0.00140571       0.00217592      -0.00425144       0.36395225
H        4.31791134       0.98774637       0.39902073     -12.51499626       0.00174618       0.00581498      -0.00343493       0.09853155
