22
Properties=species:S:1:pos:R:3:energies:R:1:forces:R:3:charge:R:1 energy=-1454.5747786278694 free_energy=-1454.5747786278694 dipole="-0.9692016293707362 0.12357890565766551 0.3260427240442416" pbc="F F F"
C       -2.01624635       1.26821022       0.01360399     -59.71150991       0.00916303       0.00512982      -0.00161803      -0.14481634
C       -1.21011956       0.00014981       0.00003136     -58.39349125       0.00722579       0.00144304      -0.00215346       0.25723822
O       -0.00013589       0.00280415       0.01312723    -112.14869787      -0.00108844       0.00239318       0.01252925      -0.38432716
C       -2.01298093      -1.26860990      -0.01939803     -59.72912133       0.01025076      -0.00523761      -0.00454182      -0.14611163
H       -2.65643506       1.28648752       0.89333334     -13.01710986       0.00291452      -0.00035182      -0.00979610       0.07323616
H       -1.35962221       2.13373388       0.02491973     -13.07474252       0.00253163       0.00696902      -0.00173852       0.07270245
H       -2.65486223       1.30959764      -0.86595776     -13.00661988       0.00849280      -0.00859025       0.00338084       0.07499053
H       -2.65282385      -1.31160426       0.85977586     -13.01147801       0.00893664      -0.00379151      -0.00659147       0.07366655
H       -1.35394431      -2.13195027      -0.03509751     -13.05061178       0.00974352      -0.00560296      -0.00329436       0.07608815
H       -2.65266000      -1.28693172      -0.89881582     -12.99886286       0.00757207       0.00895436      -0.00122330       0.07561998
O        2.74225845       0.00617122       0.01558290    -112.75625570       0.01098073       0.00144596       0.00684781      -0.41185583
C        3.20755527      -0.45597309      -1.19297909     -58.90664450       0.00104278       0.00425100       0.01125511       0.08812724
C        2.78357926       0.45692051      -2.36614870     -58.20875830      -0.01122352      -0.00742604      -0.00034004       0.47443914
F        3.21248782       1.70470322      -2.16142964    -129.11095196      -0.01425440      -0.01017659       0.00565227      -0.18255341
F        1.45891430       0.51845533      -2.51851563    -129.15597893      -0.01310582      -0.01095918      -0.00459851      -0.18523583
F        3.29963210       0.05590595      -3.53287400    -129.25568051      -0.00506342       0.01528794      -0.00828999      -0.19268979
C        2.78400539      -1.91870464      -1.45936130     -58.21163911      -0.00794266       0.00456627      -0.00400001       0.47424530
F        1.46000733      -2.07047002      -1.53138441    -129.14627936      -0.00999205       0.00705176      -0.00794066      -0.18423025
F        3.21460360      -2.71209736      -0.47531632    -129.11472095      -0.01121982       0.00827514      -0.00327408      -0.18285405
F        3.30045069      -2.39598999      -2.59689238    -129.25919996      -0.00321371      -0.01851554       0.00465742      -0.19292894
H        1.76017435       0.01835956       0.04686149     -10.81955926      -0.01978627       0.00368610       0.00901890       0.36489419
H        4.30610729      -0.44234163      -1.15683502     -12.48686481       0.01803585       0.00119791       0.00605878       0.10235531
