32
Properties=species:S:1:pos:R:3:energies:R:1:forces:R:3:charge:R:1 energy=-1824.3158860093276 free_energy=-1824.3158860093276 dipole="-0.7713490168623521 -0.2590478304917464 0.016106188384429253" pbc="F F F"
C       -2.61102811       0.46488173      -1.68341670     -59.49610950      -0.00780766      -0.01413920      -0.00782146      -0.11585659
C       -1.76845985      -0.54793466      -0.90392010     -59.07903492      -0.00016819      -0.00969127      -0.03671522       0.00493408
C       -0.66077257      -1.10893774      -1.79548816     -59.52740073       0.00689377      -0.00389898       0.01729452      -0.11787303
C       -2.64970844      -1.69000083      -0.37527893     -59.41260245       0.01121325      -0.00420301      -0.03769937      -0.11043058
C       -1.17127905       0.12758764       0.31712670     -58.69203653      -0.00551234       0.00089135      -0.01956956       0.36046130
O       -0.01911733       0.01826344       0.68404612    -112.74542614       0.00278410       0.02218930      -0.01571311      -0.44553619
O       -2.06882197       0.82932230       0.98350867    -111.08554546      -0.01010656       0.00917049       0.00687734      -0.23359931
C       -1.62738465       1.47697141       2.16869432     -59.23514982       0.00285287       0.01343966       0.04747032       0.02383426
H       -3.04641638      -0.01930655      -2.55427074     -13.23572798       0.00399563       0.02101204      -0.00876022       0.05274306
H       -1.98890513       1.29333045      -2.01637171     -13.32866649      -0.02493334      -0.01941222      -0.00710304       0.04802044
H       -3.41280023       0.85894899      -1.06468021     -13.25189650       0.01553366      -0.00889323      -0.00873375       0.05414092
H       -0.04118772      -0.30674989      -2.18993434     -13.31241540      -0.01572958      -0.02019804       0.00232508       0.04999151
H       -0.02482755      -1.79209772      -1.23814992     -13.25824706       0.00051155      -0.01167094      -0.00629109       0.05421180
H       -1.10242126      -1.64815579      -2.63073583     -13.25227091       0.03318412       0.02561661       0.02006622       0.05169674
H       -3.06717920      -2.24101694      -1.21377896     -13.20264042      -0.02951282      -0.01340379      -0.00846085       0.05540160
H       -2.05900551      -2.37791708       0.22712858     -13.35223262      -0.02240124       0.01247679       0.00179851       0.04469741
H       -3.46645341      -1.30053104       0.22875526     -13.29740220       0.04439581      -0.00146274      -0.00726448       0.04991526
H       -1.19182719       0.74740043       2.85292964     -12.98939769       0.03132649       0.00784628       0.02845299       0.06909040
H       -2.51205489       1.93075791       2.60469473     -12.94687415      -0.01288253       0.03982621       0.03732506       0.07419180
H       -0.87928077       2.23554479       1.93242081     -12.94584494      -0.00215889      -0.01533406      -0.00318101       0.07605889
O        2.40948704      -0.22722157      -0.36163187    -112.80513313       0.04775650      -0.00241120      -0.01897309      -0.42005903
C        2.91471245       1.03279499      -0.16149724     -58.92194729       0.01179738      -0.00316169      -0.02035207       0.08930772
C        2.78319574       1.52345829       1.30394709     -58.23841126      -0.00191511      -0.00976636      -0.00597486       0.47489135
F        2.70538248       0.49617990       2.14415765    -128.98006697      -0.00523997       0.01547685       0.01597725      -0.17269230
F        1.71437560       2.29634975       1.51837986    -129.22063523      -0.04013329      -0.01683593       0.01527851      -0.19083930
F        3.84981184       2.24906863       1.66531414    -129.29964360       0.02583790       0.02095423      -0.01108672      -0.19608988
C        2.28158186       2.06418506      -1.12374326     -58.16684473      -0.01665252       0.01184162      -0.01418403       0.47578826
F        0.95800888       2.17478392      -0.97836837    -129.20729581      -0.03735855      -0.01097489       0.00559451      -0.18914233
F        2.49148243       1.71038023      -2.39406803    -129.15015987       0.03176864      -0.00964921      -0.00329257      -0.18517131
F        2.80230308       3.28544123      -0.96596237    -129.29993364       0.00399152       0.00957231       0.03518666      -0.19493863
H        1.47827986      -0.28612786      -0.03323466     -10.88007021      -0.06791925      -0.02066349       0.04117348       0.36292223
H        3.98894957       1.00526493      -0.39268156     -12.49882235       0.02658866      -0.01454348      -0.03364395       0.09992942
