22
Properties=species:S:1:pos:R:3:energies:R:1:forces:R:3:charge:R:1 energy=-1454.6261211820704 free_energy=-1454.6261211820704 dipole="-0.850941930870415 0.22431746803797253 -0.03617042258048729" pbc="F F F"
C       -1.82824678       1.30933449       0.27145727     -59.70600904      -0.00030437       0.00246263       0.00071353      -0.14423243
C       -0.96920314       0.11375543      -0.02409798     -58.39056876       0.00240558       0.00027447       0.00220075       0.25785124
O        0.18688578       0.22462476      -0.36915582    -112.23782148      -0.00209113       0.00082607      -0.00146925      -0.39271318
C       -1.63714054      -1.21667867       0.15137870     -59.76941285       0.00019747      -0.00124699       0.00036054      -0.14983890
H       -1.87910353       1.43000262       1.35309314     -12.92572891       0.00225213      -0.00214874      -0.00074348       0.08181621
H       -1.38903767       2.20816737      -0.15358475     -13.05336600      -0.00186886      -0.00300495       0.00242250       0.07433164
H       -2.83900929       1.16745536      -0.10069287     -13.09544967       0.00619027       0.00061171       0.00120343       0.06747688
H       -2.14913561      -1.25305298       1.10928915     -13.00432666      -0.00220363      -0.00103266       0.00072225       0.07585259
H       -0.91093540      -2.02138618       0.08816647     -13.01430385       0.00202409      -0.00277156      -0.00340420       0.08124330
H       -2.38067114      -1.34468379      -0.63341342     -12.95832038      -0.00322427      -0.00000619      -0.00287650       0.07815602
O        2.86860816      -0.09111192      -0.17928123    -112.73469184       0.00103118      -0.00286215       0.00391464      -0.41041702
C        3.04733298      -0.84274535       0.95567415     -58.92060899      -0.00069592       0.00255680       0.00408898       0.08787879
C        2.75493611      -2.34389623       0.71377766     -58.16897284      -0.00395655       0.00294387       0.00391208       0.47510793
F        3.67047447      -2.88081645      -0.09289215    -129.11977022       0.00139916      -0.00459673      -0.00509708      -0.18237176
F        1.56443023      -2.54454774       0.14441466    -129.14872836       0.00038762       0.00414050      -0.00109669      -0.18377958
F        2.77254488      -3.04958943       1.85093611    -129.29941632       0.00212108      -0.00084003       0.00285811      -0.19541091
C        2.21024389      -0.34652782       2.16025089     -58.19217290       0.00403935       0.00256296      -0.00216597       0.47438543
F        0.96785233      -0.84366489       2.18284155    -129.27219816      -0.00167111       0.00071153       0.00106697      -0.19313498
F        2.09561191       0.98013921       2.14947260    -129.05840385       0.00145002      -0.00062475      -0.00158644      -0.17763446
F        2.78114145      -0.68410393       3.32233309    -129.26582090      -0.00285818       0.00246964      -0.00378988      -0.19256140
H        1.91641024       0.00486070      -0.40799315     -10.81575007      -0.00205840       0.00072339      -0.00082936       0.36534260
H        4.10595614      -0.76473402       1.24402425     -12.47427911      -0.00256554      -0.00114880      -0.00040492       0.10265198
