22
Properties=species:S:1:pos:R:3:energies:R:1:forces:R:3:charge:R:1 energy=-1454.5789114531333 free_energy=-1454.5789114531333 dipole="-0.9685946410973986 0.21863247838088645 -0.27127079126650844" pbc="F F F"
C       -2.01717781       1.26802997       0.01888969     -59.70795935       0.00918142       0.00555759       0.00112191      -0.14465134
C       -1.21044391       0.00002867       0.00021098     -58.39346326       0.00684641       0.00220926       0.00209076       0.25716469
O       -0.00037668       0.00476065      -0.01028995    -112.15148240      -0.00082222       0.00463581      -0.01016333      -0.38466725
C       -2.01181157      -1.26922721      -0.01397343     -59.73864684       0.01064179      -0.00617018       0.00437800      -0.14698146
H       -2.65607504       1.28678131       0.89910869     -13.01100381       0.00823895      -0.00818159      -0.00527605       0.07453273
H       -1.36044306       2.13358061       0.02945295     -13.07851573      -0.00008368       0.00864436       0.00174579       0.07216025
H       -2.65718651       1.30899688      -0.86016394     -13.01891978       0.00287232      -0.00214260       0.01002557       0.07316100
H       -2.65186199      -1.31060655       0.86442068     -12.99803016       0.00821093       0.00678898       0.00294707       0.07559718
H       -1.35095733      -2.13129240      -0.02051458     -13.03706661       0.01132613      -0.00695709       0.00262108       0.07803588
H       -2.65191212      -1.28980480      -0.89371867     -13.00926725       0.01093564      -0.00424645       0.00420861       0.07389906
O        2.74181208       0.01067494      -0.01288446    -112.75663920       0.01055053       0.00267033      -0.00645916      -0.41186440
C        3.20691687      -0.80604816       0.99074893     -58.90616280       0.00064852       0.00749784      -0.00939864       0.08819655
C        2.78403151      -2.27907996       0.78707082     -58.21172647      -0.00723617       0.00279589       0.00491068       0.47423393
F        3.21457917      -2.72492147      -0.39561370    -129.11434991      -0.01136512       0.00561549       0.00515654      -0.18281126
F        1.46024645      -2.44791755       0.80891048    -129.14757659      -0.00917420       0.00458061       0.01096061      -0.18418560
F        3.30144052      -3.08729227       1.71856970    -129.26033627      -0.00180593      -0.01603543      -0.01040196      -0.19301043
C        2.78332609      -0.30517961       2.39042115     -58.20844505      -0.01199363      -0.00731243      -0.00164653       0.47446548
F        1.45867170      -0.29459030       2.55448320    -129.15645934      -0.01382867      -0.01200851       0.00197220      -0.18527754
F        3.21237947       0.94400308       2.58565090    -129.11101397      -0.01471010      -0.00785429      -0.00909910      -0.18255613
F        3.29954310      -1.05062841       3.37342551    -129.25554499      -0.00549616       0.01150379       0.01271053      -0.19268641
H        1.75974490       0.03239590      -0.03879193     -10.81965818      -0.02065024       0.00603523      -0.00689675       0.36489491
H        4.30549963      -0.78186279       0.96058529     -12.48664349       0.01771347       0.00237340      -0.00550783       0.10235017
