24
Properties=species:S:1:pos:R:3:energies:R:1:forces:R:3:charge:R:1 energy=-1548.5449843911235 free_energy=-1548.5449843911235 dipole="-1.335053948849064 -0.1004652894474927 -0.05860296716969262" pbc="F F F"
C       -1.71323745       2.52786041      -0.31250883     -59.58187221      -0.00105671       0.00742837      -0.00137701      -0.06296791
N       -2.05718284       1.13325210      -0.15523421     -79.37444584      -0.00233674       0.00126736       0.00497790      -0.05245962
C       -3.46083883       0.82059630      -0.11794335     -59.65474544      -0.00201779      -0.00909794       0.00156306      -0.05838434
C       -1.10349427       0.21120377      -0.07511638     -59.06061144      -0.00340770       0.00220236      -0.00392101       0.24377110
O        0.09274097       0.44078613      -0.11716603    -112.76687699       0.00310625      -0.00753574      -0.00391298      -0.45431005
H       -2.04127656       2.89148681      -1.28767762     -13.09970650      -0.01195558       0.00670050      -0.00671898       0.06025279
H       -0.63329060       2.62681690      -0.23612813     -12.80312442       0.01348246       0.00500139      -0.01002427       0.10147153
H       -2.18875350       3.12121774       0.46874965     -13.10187722      -0.00669628       0.00115698       0.01340552       0.06068142
H       -3.94239171       1.35169913       0.70668887     -13.03408749       0.00316044       0.00543177      -0.00601922       0.06475666
H       -3.60506793      -0.24857975       0.02229877     -13.11008180       0.00906879      -0.01293657      -0.00798440       0.06334358
H       -3.94056171       1.12350309      -1.05221163     -13.03860868      -0.00021503       0.00334892       0.00635034       0.06409490
H       -1.49180356      -0.81522813       0.03579322     -13.28118943      -0.00169152       0.00652721       0.00888882       0.01172764
O        2.69246259      -0.06881773       0.01699789    -112.73972432       0.00137174      -0.00590883      -0.01231969      -0.41712854
C        3.25419785       1.16607273       0.22245323     -58.92738744      -0.00546671      -0.00750419       0.00262988       0.09039503
C        2.74229509       1.84992860       1.51340794     -58.24282035       0.00156857      -0.00045574      -0.00472279       0.47360303
F        2.68268804       0.96722635       2.51161534    -129.08212378       0.00189863       0.01847241       0.00775668      -0.18100868
F        1.52842007       2.39275462       1.39889169    -129.15148485       0.00392720      -0.00359154      -0.00105310      -0.18555703
F        3.56569125       2.83186678       1.90669531    -129.30756012       0.00525348      -0.00313474      -0.00311733      -0.19700787
C        3.08474954       2.11402950      -0.98922641     -58.23757084       0.00589863      -0.00388591       0.00562012       0.47364622
F        1.83018683       2.51922925      -1.19068957    -129.12483861       0.00035523      -0.01238321      -0.00341647      -0.18334591
F        3.48561161       1.51197793      -2.11030080    -129.09323977       0.00043889       0.00286341       0.00180787      -0.18185973
F        3.83175825       3.21908661      -0.85230060    -129.32117566      -0.00708052       0.00713292       0.01272847      -0.19812227
H        1.70830704      -0.00659619      -0.06277236     -10.90595172       0.00232654       0.00179385      -0.00066412       0.36496529
H        4.33777747       1.02095323       0.35285260     -12.50387945      -0.00993227      -0.00289306      -0.00047730       0.09944277
