24
Properties=species:S:1:pos:R:3:energies:R:1:forces:R:3:charge:R:1 energy=-1676.8661014636675 free_energy=-1676.8661014636675 dipole="-0.35097717797863404 0.20693584314409597 -0.23067128556972713" pbc="F F F"
C       -1.56958346       0.48791494       2.43729571     -59.26186953      -0.01854375       0.01079387      -0.01174635       0.01999694
O       -1.99649626       0.06313531       1.14352999    -111.04940783       0.01361251      -0.03482519       0.01912355      -0.24284219
C       -1.06997611       0.04828448       0.20357380     -59.27362197       0.03602224      -0.02615573       0.02024903       0.49026941
O        0.06433658       0.44441410       0.34673246    -113.09437466      -0.03466414      -0.03414701      -0.00768934      -0.48425076
O       -1.57099123      -0.45146388      -0.91382817    -111.07853208      -0.05214056       0.04455979       0.01891489      -0.24679128
C       -0.69059177      -0.56230373      -2.02803732     -59.28685728      -0.00004314      -0.01331135       0.03903022       0.02061974
H       -1.08275201       1.46292618       2.37616457     -12.91683736       0.00933574      -0.01661285       0.01220803       0.07575929
H       -2.47211839       0.54748465       3.03961486     -12.80238552       0.00492058      -0.00372542      -0.01012332       0.08717151
H       -0.87315548      -0.23941895       2.86032271     -12.88133768      -0.02238702       0.04826055      -0.01491819       0.08066701
H       -0.11119106       0.35299493      -2.15682271     -12.93598965      -0.01206190       0.01989169      -0.03127237       0.07411899
H       -1.32777769      -0.74691290      -2.88915270     -12.78078563       0.01528348       0.03385803       0.00248437       0.08892871
H       -0.01047282      -1.40139689      -1.88137364     -12.91865777       0.04882100      -0.03781668      -0.00280900       0.07462089
O        2.62781654      -0.01954556      -0.26075573    -112.81637172       0.03277545       0.00907928      -0.02104971      -0.41748660
C        3.07498775      -0.85906034       0.73042048     -58.90832240       0.02453970       0.02802081       0.00066818       0.08838870
C        2.46677390      -2.27519335       0.59848187     -58.12860124       0.00656750       0.00963058       0.00499897       0.47583039
F        2.85444813      -2.83898659      -0.54951031    -129.16887337      -0.03121201      -0.00941486       0.04059939      -0.18523156
F        1.12956365      -2.26059294       0.58762836    -129.22481012       0.02506633      -0.00672692      -0.02619533      -0.18970234
F        2.84962926      -3.08738712       1.58792054    -129.26446763      -0.01169119       0.02028093      -0.01721343      -0.19143952
C        2.82768476      -0.31084333       2.15725112     -58.20201231      -0.00255033      -0.00907373       0.02158676       0.47471840
F        1.64325779      -0.67224549       2.66295643    -129.24937767       0.00080593       0.03699329      -0.00162479      -0.19181034
F        2.87698796       1.01937650       2.17694731    -129.01755315      -0.01617465      -0.06167822      -0.00686956      -0.17418813
F        3.75942060      -0.75419361       3.01045177    -129.26821060      -0.00905982      -0.00175319       0.00271320      -0.19281120
H        1.68471169       0.23156989      -0.11793529     -10.87199125      -0.01666556      -0.00395334      -0.00108132       0.36261281
H        4.16310743      -0.96772806       0.61411616     -12.46485305       0.00944360      -0.00217432      -0.02998388       0.10285114
