24
Properties=species:S:1:pos:R:3:energies:R:1:forces:R:3:charge:R:1 energy=-1676.8732514382657 free_energy=-1676.8732514382657 dipole="-0.35088899979032323 0.22855702466092898 -0.22815285035327443" pbc="F F F"
C       -1.61807176       0.50735971       2.45056252     -59.26452797       0.00030551      -0.00016415      -0.00176449       0.02032859
O       -2.01077138       0.03132248       1.16500390    -111.04617163      -0.00334069       0.00306514       0.00066413      -0.24246134
C       -1.07330887       0.02192288       0.23625009     -59.28065742       0.00003765      -0.00059238       0.00230075       0.48997746
O        0.06079333       0.41148023       0.39324086    -113.08133517      -0.00013058      -0.00363691      -0.00444488      -0.48308308
O       -1.56668821      -0.45682085      -0.89399736    -111.08206629       0.00122441       0.00214379      -0.00117789      -0.24689045
C       -0.67138245      -0.54532449      -1.99874734     -59.28882820       0.00305754      -0.00040514      -0.00095508       0.02035226
H       -1.15573501       1.49234713       2.36711713     -12.92451577      -0.00124237      -0.00108858       0.00552564       0.07482484
H       -2.53200783       0.55962993       3.03573655     -12.80276934       0.00269658      -0.00122608      -0.00248905       0.08706990
H       -0.90758809      -0.18294689       2.90760777     -12.87813785       0.00123142       0.00476781       0.00061006       0.08078097
H       -0.13592678       0.39531161      -2.14045519     -12.94080137      -0.00075850       0.00179011       0.00211135       0.07304331
H       -1.29364441      -0.76346036      -2.86251277     -12.77915822       0.00165092      -0.00152986      -0.00051223       0.08897777
H        0.04748223      -1.35071638      -1.84010356     -12.91975613       0.00230067      -0.00089295       0.00180663       0.07510451
O        2.62041708      -0.03032656      -0.28637596    -112.82692358      -0.00331279      -0.00093499       0.00283720      -0.41763232
C        3.08931832      -0.86448028       0.70033790     -58.90725620      -0.00252418      -0.00173555      -0.00117910       0.08811092
C        2.48849278      -2.28589537       0.58127872     -58.13771206       0.00084759       0.00323064      -0.00004019       0.47579752
F        2.94817927      -2.90192628      -0.51111495    -129.17297658       0.00169241       0.00001708       0.00107696      -0.18575549
F        1.15601691      -2.26423246       0.47453693    -129.21637385       0.00061806      -0.00003481       0.00127211      -0.18941950
F        2.79260286      -3.05963550       1.62627723    -129.25253462       0.00362934       0.00241023      -0.00093796      -0.19109478
C        2.84115314      -0.32007960       2.12810422     -58.21008815      -0.00271460      -0.00074342      -0.00527674       0.47528576
F        1.63180190      -0.62984529       2.60631524    -129.22852112       0.00013526      -0.00245365       0.00334970      -0.19053560
F        2.94756232       1.00576681       2.15683578    -129.02015136       0.00134803       0.00042010       0.00429063      -0.17486215
F        3.73568657      -0.80847275       2.99609318    -129.26784689      -0.00217969       0.00184619      -0.00561983      -0.19278373
H        1.67606420       0.20936234      -0.12720866     -10.86981041      -0.00245814       0.00143936      -0.00134870       0.36214403
H        4.17717363      -0.95951178       0.57121004     -12.47433125      -0.00211385      -0.00569198      -0.00009903       0.10272061
