23
Properties=species:S:1:pos:R:3:energies:R:1:forces:R:3:charge:R:1 energy=-1565.8265543816337 free_energy=-1565.8265543816337 dipole="-0.7335959729905637 0.13196434709801816 -0.19645549614804841" pbc="F F F"
C       -1.38487310       1.13369004      -0.00569490     -59.77660073       0.00087204      -0.02116879       0.01015186      -0.15387699
C       -0.95514466      -0.30419033      -0.05145999     -58.86477136       0.04243730       0.01257129       0.04393113       0.36765383
O        0.13402687      -0.68709817      -0.42458379    -112.70052479       0.02180078       0.01470064       0.02233368      -0.44125069
O       -1.91344275      -1.12131603       0.34507945    -111.09996628      -0.04229253       0.01735156      -0.04896485      -0.23507535
C       -1.64345321      -2.51981908       0.30372295     -59.24505978      -0.02961232       0.00662694      -0.00443856       0.02126799
H       -2.08345638       1.30552765      -0.82320061     -12.84626575       0.00518773       0.03545489       0.02939276       0.08865088
H       -1.89532069       1.33559933       0.93146239     -12.89944040      -0.01823722      -0.00923155      -0.01005629       0.08698097
H       -0.52865667       1.79229795      -0.11765088     -12.96556866       0.00923056      -0.03149172      -0.01460311       0.08265192
H       -0.90878002      -2.78594329       1.06519452     -12.91898184       0.00982732       0.01449508      -0.02860811       0.07833824
H       -1.26227928      -2.80059211      -0.67969932     -12.96684735       0.03452735      -0.00204119       0.02394042       0.07176632
H       -2.59350581      -3.01055661       0.49759583     -12.91085854       0.00572415      -0.01564854       0.02150020       0.07736816
O        2.58578427       0.28329552       0.01415257    -112.79355935      -0.01701752      -0.01461845      -0.00703559      -0.41846550
C        3.07595333      -0.53504940       1.00326859     -58.90440520       0.01780704      -0.00149116      -0.01180482       0.08923328
C        2.92318274      -2.04298311       0.69215230     -58.23402089      -0.00743275      -0.00629272       0.02905762       0.47498079
F        3.07245967      -2.28396120      -0.60761902    -129.00656680      -0.00524075       0.00702108       0.03303088      -0.17395729
F        1.73919949      -2.54221647       1.05808004    -129.19892592      -0.00813103      -0.02116430      -0.01488370      -0.18888009
F        3.85428825      -2.75829120       1.33834771    -129.29312229       0.00289307      -0.01343429      -0.01459238      -0.19548210
C        2.43608940      -0.21856519       2.37572508     -58.15878067      -0.02124488       0.01582046      -0.00636943       0.47547300
F        1.10360428      -0.32683753       2.35447441    -129.22986563      -0.02619176      -0.00062213       0.00877654      -0.19026591
F        2.71158448       1.03405010       2.74350425    -129.12980336       0.01241729       0.01998875      -0.00128760      -0.18349085
F        2.88669452      -1.01790755       3.34796395    -129.28003065      -0.01800885      -0.03111382      -0.03536921      -0.19325760
H        1.66562116       0.02146233      -0.24561864     -10.91101011       0.01284161      -0.03065114      -0.01196835       0.35893678
H        4.15371789      -0.34235429       1.10300126     -12.49157804       0.01784338       0.05493910      -0.01213307       0.10070020
