23
Properties=species:S:1:pos:R:3:energies:R:1:forces:R:3:charge:R:1 energy=-1565.8532430951159 free_energy=-1565.8532430951159 dipole="-0.7059038076296525 0.12265113652743811 -0.18519088470848563" pbc="F F F"
C       -1.26037870       1.06448794       0.17427147     -59.81288089      -0.00290783      -0.00157275       0.00247286      -0.15670535
C       -0.93957543      -0.38179915      -0.05330222     -58.86063064      -0.00050648       0.00148724      -0.00159190       0.36780453
O        0.14376303      -0.79655604      -0.41172978    -112.70491637      -0.00075513       0.00134407       0.00092725      -0.44151753
O       -1.96732860      -1.17390821       0.19041936    -111.09856067       0.00146227       0.00001185      -0.00068908      -0.23355159
C       -1.74379515      -2.57550166       0.06135241     -59.22896050       0.00144155       0.00111647       0.00012531       0.02221805
H       -2.33208452       1.22564547       0.12262897     -12.96696085      -0.00188268      -0.00202756      -0.00085259       0.08169006
H       -0.90857296       1.33726408       1.16792380     -12.76434461      -0.00124660       0.00046369       0.00082543       0.09807488
H       -0.73865069       1.67987933      -0.55339561     -12.90820191       0.00023897       0.00295283      -0.00232664       0.08617673
H       -1.00095128      -2.90478636       0.78974788     -12.93279413       0.00417766       0.00181171      -0.00114817       0.07660584
H       -1.38214434      -2.80904393      -0.94142081     -12.96168425      -0.00219127      -0.00069054      -0.00404700       0.07177084
H       -2.70236270      -3.05215891       0.24573390     -12.91619573      -0.00133335      -0.00204761       0.00290062       0.07755916
O        2.57915326       0.21186955      -0.07916245    -112.81770428       0.00107317      -0.00168860      -0.00142154      -0.42160060
C        3.06600327      -0.49991567       0.98931150     -58.91634754       0.00030377      -0.00196393      -0.00086536       0.08931038
C        2.90209789      -2.03155979       0.83298929     -58.23226063      -0.00149868      -0.00010999       0.00048084       0.47493404
F        3.05156080      -2.40075562      -0.43601116    -129.00662828      -0.00091453      -0.00030614       0.00335204      -0.17431567
F        1.70971180      -2.47936220       1.23940158    -129.21250604       0.00066725       0.00102603      -0.00060565      -0.18988617
F        3.82352762      -2.69107773       1.54746221    -129.28550117      -0.00072594       0.00011569      -0.00036707      -0.19475282
C        2.42120803      -0.05135441       2.32286382     -58.14129440       0.00026341      -0.00031986       0.00047997       0.47532079
F        1.08450153      -0.04268145       2.26645146    -129.25884185       0.00162794       0.00061805       0.00025391      -0.19166744
F        2.79685339       1.19051693       2.63679962    -129.15553572       0.00125325      -0.00010206       0.00034482      -0.18483009
F        2.76906953      -0.83656698       3.34668888    -129.27222380      -0.00008978       0.00008746       0.00021454      -0.19299107
H        1.65820457      -0.07992892      -0.31132602     -10.89898219       0.00069879       0.00061859       0.00129205       0.36010939
H        4.14348345      -0.29446493       1.07050003     -12.49928665       0.00084422      -0.00082464       0.00024535       0.10024363
