24
Properties=species:S:1:pos:R:3:energies:R:1:forces:R:3:charge:R:1 energy=-2172.003072187928 free_energy=-2172.003072187928 dipole="0.15611933429601013 0.15175317900075505 -0.23186442429064555" pbc="F F F"
O       -0.01830516       0.26811777       0.83342480    -113.09937496      -0.00032353       0.00108633      -0.00293252      -0.41264144
C       -1.21486959       0.06776258       0.15546697     -58.73086516      -0.00103429      -0.00301426       0.00066569       0.08058769
C       -2.16355012       1.27078976       0.36356191     -58.10277207       0.00115650      -0.00347685       0.00098618       0.47833698
F       -1.54639584       2.40097950       0.01745418    -129.07210728       0.00592396       0.00249937       0.00026044      -0.17711520
F       -2.51907743       1.39237277       1.64527020    -129.17775290      -0.00228305       0.00007201       0.00195003      -0.18421069
F       -3.27180061       1.18148768      -0.36586607    -129.11593794      -0.00449734      -0.00180231      -0.00211749      -0.17864708
C       -1.88344982      -1.25280348       0.60354342     -58.13738124       0.00084319       0.00210056       0.00154228       0.47865154
F       -1.98513216      -1.30107320       1.93439144    -129.14603331       0.00072391      -0.00051960       0.00241081      -0.18216488
F       -1.15077729      -2.29644585       0.22077232    -129.03552229       0.00527444       0.00040163       0.00057933      -0.17498287
F       -3.10196333      -1.41097088       0.09326997    -129.12276848      -0.00382495       0.00129368      -0.00013520      -0.17977907
H       -0.15409364       0.29512764       1.79564076     -10.70993271      -0.00055643      -0.00055896      -0.00368004       0.35084426
H       -0.98232657      -0.00477351      -0.91473068     -12.35009503       0.00134693       0.00058749       0.00062900       0.11662009
O        2.66046329      -0.05049698      -0.07722908    -112.75179586       0.00271625       0.00360493       0.00046304      -0.40001281
C        3.22176440      -0.90096346       0.85245037     -58.88559739      -0.00263118       0.00101501      -0.00000137       0.08065416
C        2.41042438      -2.21180185       1.00811731     -58.13386032      -0.00272454      -0.00196116      -0.00152629       0.47473563
F        2.00096268      -2.64755059      -0.18096725    -129.04582425      -0.00266552       0.00123938      -0.00395612      -0.17503328
F        1.31575657      -2.03774799       1.76099017    -129.32027841       0.00014269       0.00135927      -0.00055107      -0.19463896
F        3.13058449      -3.18207868       1.56863639    -129.15618613       0.00169574      -0.00080009       0.00403536      -0.18207428
C        3.37744260      -0.21607059       2.23089714     -58.08462638       0.00039408       0.00190165       0.00233703       0.47610947
F        2.22189379       0.33729073       2.62892263    -129.34322968       0.00011645      -0.00142729      -0.00232724      -0.19458211
F        4.27922209       0.76110364       2.17836585    -129.06366655      -0.00112100       0.00167172      -0.00070882      -0.17598875
F        3.76032169      -1.06420922       3.18486464    -129.18652721       0.00119586      -0.00268804      -0.00182257      -0.18453824
H        1.75384952       0.20639210       0.17524754     -10.87190154       0.00231963      -0.00167620       0.00119607       0.34566627
H        4.22418961      -1.16883012       0.49186896     -12.35903508      -0.00218779      -0.00090824       0.00270348       0.11420356
