18
Properties=species:S:1:pos:R:3:energies:R:1:forces:R:3:charge:R:1 energy=-1310.1088021771632 free_energy=-1310.1088021771632 dipole="-0.5077472421566612 -0.0954068134891911 0.4419355601509906" pbc="F F F"
C       -1.05754585       0.01184577      -0.13345712     -59.40533613      -0.00134467       0.00129361       0.00498925       0.02926261
O        0.14067647      -0.44771075       0.46400975    -113.30608645      -0.01218952      -0.01001646      -0.00549550      -0.44963982
H       -1.72753152       0.43827277       0.61781533     -13.22944404      -0.00838413       0.00245907      -0.00468595       0.04014196
H       -0.77602211       0.78345332      -0.84652620     -13.02259416      -0.00373527      -0.00816345       0.01623818       0.06905506
H       -1.56808783      -0.79392723      -0.66539397     -13.21303964       0.02004622       0.00235529      -0.00589228       0.04386714
H       -0.05677728      -1.18201904       1.05493690     -11.45025588      -0.01439317       0.00846155      -0.00311199       0.30327659
O        2.73664506       0.12884036      -0.00102191    -112.78851963      -0.01030029       0.01615277      -0.00564729      -0.41444028
C        3.11994165      -0.37795136      -1.22044572     -58.89929082       0.00875754       0.00380543       0.00138180       0.08726151
C        2.60207334       0.48029367      -2.39876646     -58.17241703      -0.00207012       0.00412190      -0.00282638       0.47457542
F        2.98325748       1.75001167      -2.25352210    -129.09466671       0.01091150       0.00211380       0.00225875      -0.18076419
F        1.26936860       0.48406228      -2.48932026    -129.18546293      -0.00316975       0.01752690       0.00930014      -0.18642678
F        3.08026609       0.05813277      -3.57323442    -129.26562064      -0.01434203      -0.01737978      -0.00878184      -0.19217820
C        2.69747378      -1.85235997      -1.40811669     -58.19275060      -0.00856467      -0.00481014      -0.00065690       0.47368936
F        1.38750966      -2.00176947      -1.62054969    -129.17344756      -0.01485613      -0.00448059      -0.00383387      -0.18610794
F        2.98994924      -2.55993499      -0.31418078    -129.13296407       0.01772021      -0.01154477      -0.00516282      -0.18307864
F        3.33140003      -2.42658157      -2.43420129    -129.24335164       0.00721843      -0.00745354       0.00526628      -0.19032301
H        1.76646171       0.03076853       0.14947109     -10.87001743       0.01106035      -0.00248988       0.00396806       0.35798871
H        4.21803785      -0.34935643      -1.26368540     -12.46353681       0.01763550       0.00804827       0.00269233       0.10384050
