22
Properties=species:S:1:pos:R:3:energies:R:1:forces:R:3:charge:R:1 energy=-1454.6027495926967 free_energy=-1454.6027495926967 dipole="-0.9205237882684295 -0.24732427999972312 -0.012932879986420445" pbc="F F F"
C       -1.69677250       1.26061938       0.04843801     -59.77944890      -0.00139530       0.00243130       0.00010031      -0.15094341
C       -1.09760642      -0.11219772      -0.02463108     -58.38661558       0.00124812       0.00370456       0.00424883       0.25742123
O        0.09528273      -0.30453898      -0.10228773    -112.17618863       0.00149270       0.00067700      -0.00205290      -0.38624964
C       -2.08544084      -1.24463463       0.00427608     -59.70256413       0.00177091       0.00087779       0.00084973      -0.14413332
H       -2.25690595       1.36353414       0.97503449     -12.97687582       0.00356857       0.00194852       0.00204367       0.07719424
H       -0.92158918       2.01921995       0.00952205     -13.00851296      -0.00063744       0.00120232      -0.00247959       0.08238379
H       -2.38938735       1.40374084      -0.77780794     -12.99168142      -0.00255002      -0.00279012       0.00022708       0.07569910
H       -2.70102271      -1.17479985       0.89799671     -13.02337831      -0.00288803      -0.00270256      -0.00127439       0.07316897
H       -1.56794728      -2.20000640      -0.00927431     -13.07555835       0.00176875      -0.00212851      -0.00192620       0.07238847
H       -2.74237490      -1.17756755      -0.86036386     -13.00631452       0.00008441       0.00055967       0.00084974       0.07443238
O        2.80445673      -0.00229020      -0.03208167    -112.74965424      -0.00209141      -0.00150179       0.00036969      -0.41224064
C        3.14456935       1.30722110       0.20413303     -58.91330285       0.00177744       0.00054162       0.00094459       0.08856221
C        2.60784416       1.81963689       1.56067440     -58.19396059      -0.00210909      -0.00039681       0.00001693       0.47415186
F        3.02903141       1.03789941       2.55560049    -129.09988729      -0.00083266       0.00086093      -0.00149939      -0.18130063
F        1.27308953       1.83703750       1.61576033    -129.18612484      -0.00111859       0.00032945       0.00254548      -0.18675226
F        3.02781436       3.06053418       1.83245884    -129.27706839      -0.00412618      -0.00286143      -0.00047130      -0.19373474
C        2.69394675       2.24973902      -0.93678467     -58.19308761       0.00214906       0.00069791      -0.00020673       0.47411301
F        1.36754762       2.40647878      -0.98942460    -129.21109476       0.00183517      -0.00050062      -0.00273306      -0.18861739
F        3.07731841       1.76889961      -2.11910488    -129.07501390      -0.00288534      -0.00129673      -0.00089572      -0.17956586
F        3.22716195       3.47080614      -0.81799406    -129.27102192       0.00053836       0.00124484       0.00130759      -0.19328930
H        1.82899995      -0.13100392      -0.07712686     -10.82143225       0.00168037       0.00053020       0.00106040       0.36493141
H        4.24192965       1.36404575       0.25076083     -12.48396234       0.00272020      -0.00142753      -0.00102478       0.10238052
