22
Properties=species:S:1:pos:R:3:energies:R:1:forces:R:3:charge:R:1 energy=-1454.6317341630672 free_energy=-1454.6317341630672 dipole="-0.8252478784313618 0.1575583242286771 0.08042932898685837" pbc="F F F"
C       -1.71968726       1.33973028      -0.27431381     -59.71218263       0.00107498      -0.00128520      -0.00185835      -0.14471199
C       -0.92389302       0.11056997       0.05442043     -58.39074314       0.00113808      -0.00075327       0.00064204       0.25798325
O        0.21939368       0.17376403       0.45107140    -112.24838044      -0.00295569      -0.00656621       0.00067055      -0.39402393
C       -1.63388943      -1.19254842      -0.15883382     -59.76570006      -0.00065484      -0.00063702       0.00018231      -0.14940125
H       -2.74662565       1.24461433       0.06637410     -13.09163390      -0.00334195       0.00001193      -0.00098164       0.06779787
H       -1.25524779       2.22154974       0.15901704     -13.05217499       0.00149931       0.00200830      -0.00066373       0.07475037
H       -1.73055406       1.45225682      -1.35786022     -12.91310550       0.00110923       0.00086271      -0.00174104       0.08334571
H       -2.42374650      -1.29284571       0.58363115     -12.96542606       0.00092652       0.00198004       0.00389285       0.07754523
H       -0.94282982      -2.02454040      -0.06095452     -13.01806529       0.00017277      -0.00242691       0.00019129       0.08022867
H       -2.09445264      -1.20762944      -1.14318415     -13.00108707       0.00172182       0.00193032      -0.00027992       0.07626706
O        2.88559030      -0.13311355       0.15665482    -112.72893941       0.00320788       0.00130550      -0.00090041      -0.40997855
C        3.01602208      -0.49831106      -1.16033264     -58.92421836      -0.00261839       0.00248358      -0.00094281       0.08772859
C        2.19194685       0.38451411      -2.13002252     -58.18632509       0.00246058       0.00210753      -0.00104746       0.47458297
F        2.11686703       1.63849173      -1.69036768    -129.03722700      -0.00311553      -0.00371238      -0.00005919      -0.17594165
F        0.93471501      -0.04417470      -2.30145666    -129.29836171       0.00049663       0.00440540       0.00216978      -0.19501280
F        2.75117365       0.42463252      -3.34496003    -129.26683213      -0.00021487      -0.00156204       0.00242051      -0.19262605
C        2.65549021      -1.98605103      -1.39230383     -58.16804177      -0.00392576       0.00182655       0.00256061       0.47508351
F        1.46820817      -2.30734001      -0.87399749    -129.15212726      -0.00189991       0.00065708      -0.00333568      -0.18388942
F        3.55817516      -2.78719657      -0.82536255    -129.12363345       0.00300983       0.00006434      -0.00216810      -0.18263158
F        2.61762790      -2.29730922      -2.69340267    -129.29963514      -0.00005379      -0.00275418       0.00104542      -0.19528606
H        1.94164517      -0.07378187       0.42863396     -10.81837472       0.00166813      -0.00025646      -0.00253373       0.36525287
H        4.07401642      -0.37845542      -1.43622001     -12.46951906       0.00029498       0.00031039       0.00273670       0.10293720
