32
Properties=species:S:1:pos:R:3:energies:R:1:forces:R:3:charge:R:1 energy=-1824.3335674428813 free_energy=-1824.3335674428813 dipole="-0.739998797745435 0.21200482781129537 -0.1886097102290145" pbc="F F F"
C       -2.84959700       0.30751229      -1.59401906     -59.44891341       0.00049317       0.00108283       0.00063430      -0.11237725
C       -1.77805628      -0.58952810      -0.96274076     -59.08405887      -0.00140292       0.00096126       0.00089153       0.00551133
C       -0.72520246      -0.96613804      -2.00476004     -59.52897636      -0.00003454       0.00045560       0.00146425      -0.11811654
C       -2.42190654      -1.85198088      -0.37769537     -59.47631060      -0.00370447       0.00074676      -0.00140893      -0.11564338
C       -1.12770999       0.17265276       0.18044184     -58.68940715       0.00144195      -0.00182075      -0.00006675       0.35992754
O        0.05633294       0.42932396       0.26052689    -112.71689053      -0.00266811       0.00209492      -0.00204391      -0.44318619
O       -1.99738881       0.54430006       1.10415159    -111.10540880       0.00152523      -0.00512278      -0.00201791      -0.23506758
C       -1.47648505       1.23702182       2.23376702     -59.22746415      -0.00016003      -0.00303209      -0.00398206       0.02380587
H       -3.35440631      -0.23246993      -2.39139876     -13.22554264       0.00279890       0.00242688      -0.00117858       0.05355202
H       -2.39792165       1.20291266      -2.01591810     -13.35960407      -0.00157903      -0.00070964       0.00125969       0.04356153
H       -3.58703080       0.60379661      -0.85275264     -13.27581366       0.00559905      -0.00293042       0.00286995       0.05195968
H       -0.19145298      -0.08453749      -2.35102048     -13.28996273      -0.00014422       0.00139190      -0.00039901       0.05106166
H       -0.00300953      -1.66416889      -1.59069584     -13.28072765       0.00336547       0.00226103       0.00530050       0.05280232
H       -1.20613855      -1.43761129      -2.85768243     -13.25444051      -0.00013309      -0.00081599       0.00132007       0.05149322
H       -2.87203188      -2.43597297      -1.17658273     -13.21755368      -0.00312141      -0.00032727      -0.00002482       0.05442867
H       -1.67393564      -2.46361864       0.12104316     -13.30890611      -0.00309484       0.00180182      -0.00310175       0.05116709
H       -3.19217202      -1.58757586       0.34169391     -13.26816991      -0.00268675      -0.00169878       0.00040548       0.05256534
H       -0.83949481       0.57222194       2.81928876     -12.94710855       0.00233046       0.00279777      -0.00039441       0.07526305
H       -2.33688193       1.55606421       2.81586962     -12.95245827       0.00285179       0.00043191       0.00036639       0.07405495
H       -0.88600183       2.09658187       1.91170797     -12.98288855      -0.00606521       0.00264094      -0.00023158       0.07026206
O        2.40712711      -0.55455769      -0.48829901    -112.82302898      -0.00287414       0.00037613       0.00489425      -0.42142576
C        2.87863070      -1.11975099       0.66979363     -58.91991728       0.00079322      -0.00148537       0.00060899       0.08997553
C        2.13199647      -2.42781465       1.02297473     -58.15879194       0.00021343      -0.00120851      -0.00100691       0.47531995
F        2.38527453      -3.37546536       0.11679073    -129.16689312      -0.00128678      -0.00288079       0.00147813      -0.18594759
F        0.80482690      -2.27172921       1.05092952    -129.21132170       0.00050876      -0.00097084       0.00006862      -0.18876747
F        2.49828717      -2.91501822       2.21280855    -129.28806028       0.00149614      -0.00262184      -0.00200218      -0.19437089
C        2.83156833      -0.16370390       1.88718698     -58.23171958       0.00253621      -0.00336712      -0.00160751       0.47493482
F        1.66532765      -0.19109362       2.53958412    -129.21016737      -0.00101409       0.00005090      -0.00030697      -0.18984503
F        3.04616028       1.09508266       1.51537597    -129.01362890      -0.00024291       0.00768742       0.00214147      -0.17486158
F        3.77742853      -0.47807666       2.78273470    -129.29756431       0.00272836       0.00298705       0.00026166      -0.19577895
H        1.50924484      -0.15493741      -0.35046792     -10.86359859       0.00394156      -0.00126766      -0.00440001       0.36429743
H        3.93325827      -1.38837562       0.50947878     -12.50826920      -0.00241116       0.00006475       0.00020799       0.09944413
