18
Properties=species:S:1:pos:R:3:energies:R:1:forces:R:3:charge:R:1 energy=-1310.1059534225808 free_energy=-1310.1059534225808 dipole="-0.5109099694859259 -0.47241923836623706 0.1564207198322605" pbc="F F F"
C       -1.06508155       0.12963934      -0.01645084     -59.40748785      -0.00323238       0.00382548      -0.00499727       0.02898219
O        0.13942972      -0.40676372       0.49824084    -113.30275268      -0.01173610       0.00423167       0.01210618      -0.44942444
H       -1.63331873       0.64134325       0.76327587     -13.21613698       0.00990973       0.00243765       0.00351929       0.04327716
H       -0.78514691       0.85211891      -0.77977258     -13.01606151      -0.00145682      -0.01635307       0.00539265       0.07018403
H       -1.68116108      -0.65406273      -0.46540907     -13.23540635      -0.00344180       0.00344246      -0.00213870       0.03959023
H       -0.06127781      -1.01278759       1.21928933     -11.45150234      -0.00921777       0.00452386      -0.01249280       0.30286828
O        2.73505577      -0.01449154      -0.13821683    -112.79132593      -0.00468691      -0.00150451      -0.01182853      -0.41472827
C        3.12311301       1.27899581       0.12219628     -58.89765479       0.00510351      -0.00343294       0.00083076       0.08723647
C        2.67794358       1.75913948       1.52168943     -58.20148256      -0.00431166       0.00202776       0.00475048       0.47375959
F        2.98931873       0.84552010       2.44440352    -129.12995378       0.01127440       0.00377329       0.00466751      -0.18297590
F        1.36199277       1.96396067       1.61219917    -129.15280897      -0.00607738       0.00745359       0.00069035      -0.18461811
F        3.28083657       2.89837278       1.87402862    -129.24647599       0.00383633      -0.00115501       0.00547719      -0.19076273
C        2.63028510       2.26327130      -0.96492817     -58.17020265      -0.00330973       0.00066402      -0.00103225       0.47472771
F        1.29867551       2.36671091      -1.00237128    -129.19730682      -0.00549095      -0.00978411      -0.01178111      -0.18733430
F        3.01989378       1.85583000      -2.17349942    -129.09063825       0.01328793       0.00014209       0.00176897      -0.18050220
F        3.12053857       3.49359283      -0.78724557    -129.26096478      -0.01250570       0.01163536       0.01035595      -0.19183254
H        1.76400614      -0.13907471      -0.01748437     -10.87130524       0.00799092      -0.00955327       0.00431471       0.35790105
H        4.22199323       1.30830259       0.10540947     -12.46648593       0.01406439      -0.00237431      -0.00960337       0.10365177
