18
Properties=species:S:1:pos:R:3:energies:R:1:forces:R:3:charge:R:1 energy=-1310.13608342301 free_energy=-1310.13608342301 dipole="-0.6004877086056467 0.11653609620190826 -0.1408441712350953" pbc="F F F"
C       -1.28780888       0.12871835      -0.13006415     -59.40248901      -0.00235126       0.00152353      -0.00145335       0.03178768
O       -0.17790224      -0.50827214       0.46919149    -113.31025867      -0.00531280      -0.00104987      -0.00369353      -0.45051488
H       -1.87098324       0.68522355       0.60802567     -13.23733746       0.00333131       0.00156318      -0.00043131       0.04013668
H       -0.88805627       0.82236184      -0.86689871     -13.04714065       0.00142614      -0.00118708      -0.00096871       0.06451259
H       -1.93385223      -0.59577854      -0.63273885     -13.23202839      -0.00166258       0.00130104       0.00287424       0.04040963
H       -0.48152085      -1.12030315       1.14847055     -11.40800309       0.00210080      -0.00076779       0.00004107       0.30964074
O        2.44255762      -0.01522221       0.01750514    -112.78606774      -0.00033010       0.00312864      -0.00667455      -0.41406824
C        3.14898808      -0.75198847       0.93871826     -58.91685585      -0.00195311       0.00509535      -0.00227284       0.08622252
C        2.90240044      -2.27117886       0.78518000     -58.17565356      -0.00123054       0.00041536       0.00197481       0.47384896
F        3.11379418      -2.65425135      -0.47349928    -129.06901681       0.00134246       0.00302533       0.00115873      -0.17849994
F        1.64804991      -2.62096706       1.09385825    -129.25659184      -0.00246225      -0.00659097       0.00224188      -0.19109608
F        3.71443287      -2.99572383       1.56013505    -129.24122953       0.00459751       0.00220061       0.00178988      -0.19035325
C        2.85009260      -0.30648813       2.38939041     -58.17365941      -0.00127436      -0.00066728       0.00393507       0.47393866
F        1.58146350      -0.53853424       2.74516186    -129.24084498      -0.00541442      -0.00021574       0.00278113      -0.19001146
F        3.05879230       1.00274852       2.52722879    -129.07804653       0.00145423      -0.00049861      -0.00005007      -0.17920226
F        3.62841622      -0.92614635       3.28100384    -129.24625227       0.00560262      -0.00473675       0.00021709      -0.19071385
H        1.46884879      -0.13966799       0.12380947     -10.85447306       0.00069231      -0.00083525      -0.00131133       0.35920952
H        4.21938360      -0.57648517       0.75910134     -12.46013458       0.00144406      -0.00170372      -0.00015821       0.10475296
