24
Properties=species:S:1:pos:R:3:energies:R:1:forces:R:3:charge:R:1 energy=-1676.8693250010379 free_energy=-1676.8693250010379 dipole="-0.3365243770447079 -0.3466413069793448 0.0012332078442573557" pbc="F F F"
C       -1.38979433       0.49997547       2.43327684     -59.25171791      -0.00044133       0.00294713       0.00526216       0.02203984
O       -1.95127150       0.30691518       1.13722923    -111.07522006       0.00307804       0.00183404       0.00234246      -0.24515772
C       -1.09429085       0.05132316       0.16494466     -59.27078786       0.00161888      -0.00402552       0.00068513       0.49081728
O        0.10134861      -0.05373803       0.30607833    -113.09586487      -0.00168112       0.00157737      -0.00096921      -0.48576282
O       -1.74181438      -0.09037364      -0.97965601    -111.09759246       0.00628578      -0.00046532      -0.00213734      -0.24786266
C       -0.94138207      -0.35550172      -2.12867631     -59.28370907       0.00238814      -0.00249650      -0.00418756       0.02007774
H       -0.79434837       1.41373162       2.45417642     -12.89803978      -0.00009635       0.00293018      -0.00257406       0.07839272
H       -2.23546253       0.58190860       3.11010681     -12.81021169      -0.00462593      -0.00326778       0.00302585       0.08640596
H       -0.75696377      -0.34628383       2.70656187     -12.93367308       0.00027633       0.00226868       0.00003171       0.07409834
H       -0.32125270       0.51031821      -2.36486367     -12.89653113      -0.00100245      -0.00213548      -0.00328948       0.07846724
H       -1.64229111      -0.55110285      -2.93536923     -12.79178490      -0.00458770       0.00076636       0.00128458       0.08808228
H       -0.30159089      -1.22358491      -1.95869021     -12.95400303       0.00022194      -0.00203146      -0.00307818       0.07121033
O        2.73411910      -0.06811812      -0.28753985    -112.77872423       0.00007036       0.00147144      -0.00031498      -0.41268805
C        3.13173969       1.21249015       0.01416752     -58.91652832       0.00051245       0.00121422      -0.00006680       0.08748784
C        2.64944811       1.69234691       1.40444842     -58.20082060       0.00178801       0.00008683       0.00510034       0.47536996
F        2.61612608       0.68375401       2.27307823    -129.05193370      -0.00536334      -0.00092014      -0.00196533      -0.17672377
F        1.42726054       2.23362015       1.38493230    -129.22450695       0.00345752      -0.00261801      -0.00142681      -0.19047570
F        3.47252915       2.61965527       1.90884162    -129.26618692      -0.00065794      -0.00012707      -0.00032120      -0.19265061
C        2.67656767       2.22562140      -1.06430268     -58.14528508      -0.00084003       0.00175567      -0.00180141       0.47576604
F        1.37989914       2.09902261      -1.36126417    -129.19964836       0.00119108       0.00222398       0.00506567      -0.18762568
F        3.35069579       2.03984392      -2.20165952    -129.15540028      -0.00394989       0.00000862       0.00247774      -0.18458670
F        2.87937536       3.49267702      -0.69171139    -129.25765753       0.00162232      -0.00492422      -0.00010301      -0.19179715
H        1.76768917      -0.18032299      -0.14412930     -10.85052559       0.00063376       0.00505594      -0.00072068       0.36367138
H        4.23128386       1.22822356       0.02778768     -12.46297161       0.00010147      -0.00112895      -0.00231957       0.10344390
