25
Properties=species:S:1:pos:R:3:energies:R:1:forces:R:3:charge:R:1 energy=-1540.9354000860842 free_energy=-1540.9354000860842 dipole="-0.6823723056170699 -0.4035361697402384 -0.039322819354706204" pbc="F F F"
C       -2.39984465       0.62910040      -0.19030792     -59.19605894      -0.00056243      -0.00270780       0.00137041      -0.06261921
C       -2.13163292      -0.81527738       0.22692389     -59.20378210       0.00039568      -0.00273912      -0.00146437      -0.06344229
C       -0.72721440      -1.04519532      -0.33023495     -59.04711078       0.00047170       0.00124239      -0.00133920       0.07337310
O       -0.08392483       0.22946125      -0.36437109    -112.06088983       0.00219175       0.00446882       0.00003053      -0.34214186
C       -1.01811486       1.24993436      -0.01526610     -59.06681573      -0.00106453       0.00055081       0.00219240       0.07238458
H       -2.70336831       0.67100106      -1.23680344     -13.23651581       0.00089723      -0.00044722       0.00158972       0.04817169
H       -3.15287542       1.11960973       0.42066546     -13.31648910       0.00286608       0.00256184       0.00167106       0.04578856
H       -2.85321457      -1.51986739      -0.17846938     -13.31354610      -0.00126121      -0.00235006       0.00002348       0.04548278
H       -2.12653077      -0.89767956       1.31426631     -13.24925427       0.00284738       0.00064174      -0.00218863       0.04675217
H       -0.13061671      -1.72567476       0.28260360     -13.19578266       0.00225608      -0.00091982       0.00142166       0.04385228
H       -0.76419250      -1.43324370      -1.35476045     -13.15892228      -0.00145097       0.00061565      -0.00398595       0.04199764
H       -0.85132672       1.54790019       1.02689375     -13.17058044      -0.00053022       0.00246600       0.00362980       0.04178248
H       -0.83618294       2.10783562      -0.66395138     -13.12407110       0.00068397       0.00002654       0.00008028       0.05411042
O        2.52792551      -0.02052507       0.25338487    -112.81491005      -0.00045082       0.00057786       0.00076940      -0.41992367
C        3.19379946       1.17931281       0.33325440     -58.90474837       0.00160325      -0.00262532       0.00292974       0.08771007
C        2.87679004       1.91971234       1.65587261     -58.16002277      -0.00343341       0.00088646       0.00192404       0.47506464
F        3.45345727       1.30586548       2.69135560    -129.13918444      -0.00446583      -0.00060455      -0.00346682      -0.18377130
F        1.56489269       1.95246894       1.90424089    -129.17747632      -0.00212031       0.00303513       0.00074768      -0.18568644
F        3.31439990       3.18235055       1.65735881    -129.26340422      -0.00006260      -0.00328960      -0.00273424      -0.19238368
C        2.90245937       2.10924884      -0.86661856     -58.21235103      -0.00038449      -0.00416104      -0.00010506       0.47429963
F        1.74007661       2.75858460      -0.74784734    -129.23322063       0.00069542       0.00336002      -0.00308041      -0.19032790
F        2.84836526       1.41255335      -2.00061446    -129.05546134      -0.00081187       0.00055569      -0.00505242      -0.17772977
F        3.85671064       3.03406858      -1.01689897    -129.23963254      -0.00382058      -0.00026169      -0.00136302      -0.19074945
H        1.55880719       0.10283231       0.07899719     -10.91109556       0.00210811       0.00270441       0.00078086       0.35600484
H        4.27288828       0.96799729       0.32809188     -12.48407369       0.00340264      -0.00358715       0.00561907       0.10200070
