23
Properties=species:S:1:pos:R:3:energies:R:1:forces:R:3:charge:R:1 energy=-1565.8303138799913 free_energy=-1565.8303138799913 dipole="-0.5648823468623357 -0.40088833066120394 0.11136912046241094" pbc="F F F"
C       -2.04331555       1.34615344      -0.35236984     -59.78850943      -0.00001463       0.00006885      -0.00274667      -0.15368973
C       -1.06002174       0.21933512      -0.29531348     -58.83309688       0.00151001       0.00201584       0.00042350       0.36983322
O       -0.03389040       0.17636485      -0.94081379    -112.73802734       0.00091826      -0.00014917       0.00041094      -0.44541945
O       -1.42906025      -0.72979457       0.55073562    -111.12556543      -0.00148966      -0.00022735       0.00049382      -0.23815372
C       -0.55549635      -1.84210012       0.71746322     -59.26148400       0.00151064      -0.00156708       0.00165173       0.02135100
H       -2.18058071       1.66129665      -1.38291471     -12.85947105      -0.00112372       0.00017313      -0.00177617       0.09046433
H       -2.98618223       1.05161445       0.09574809     -12.98420489      -0.00075438      -0.00051603       0.00114172       0.08017643
H       -1.62158792       2.18418831       0.20037540     -12.75231145       0.00064761       0.00047715      -0.00317637       0.09930502
H        0.32808777      -1.54819269       1.28661621     -12.98003009      -0.00316675       0.00048514       0.00173366       0.07037093
H       -0.24326584      -2.23105102      -0.25377523     -12.97915214       0.00003702      -0.00023337       0.00295768       0.07029824
H       -1.12132726      -2.59058648       1.26578078     -12.89325240       0.00012765      -0.00007102      -0.00189828       0.07944402
O        2.52441599      -0.22440604      -0.35234463    -112.85144071      -0.00171210      -0.00076239      -0.00102565      -0.42198328
C        2.94056047       0.99257160       0.13125659     -58.89896462       0.00002540       0.00052012       0.00015859       0.08922085
C        2.37190789       1.27427519       1.54260013     -58.12873950       0.00106673      -0.00068318      -0.00082246       0.47558599
F        2.87270919       0.41397158       2.43310831    -129.17448604       0.00244616      -0.00160681       0.00036060      -0.18595280
F        1.04145739       1.14184540       1.59340026    -129.25650547      -0.00054339      -0.00352405       0.00015238      -0.19180053
F        2.66422899       2.50323701       1.97478289    -129.26251841       0.00233135       0.00150570       0.00085502      -0.19172419
C        2.59613338       2.17726776      -0.80356741     -58.24134931      -0.00106393       0.00021528       0.00070150       0.47503053
F        1.36479525       2.65771104      -0.60912240    -129.18945383      -0.00068860       0.00226424       0.00142131      -0.18801746
F        2.68802224       1.81875716      -2.08061827    -128.99296905      -0.00208045      -0.00088363      -0.00170300      -0.17336742
F        3.44301753       3.19829011      -0.61719743    -129.27872297       0.00002287       0.00255534       0.00183391      -0.19425059
H        1.57710016      -0.19101967      -0.64256140     -10.86667783       0.00196008       0.00046010      -0.00067698       0.36244335
H        4.03558574       0.96008523       0.22870456     -12.49338103       0.00003382      -0.00051679      -0.00047077       0.10083526
