25
Properties=species:S:1:pos:R:3:energies:R:1:forces:R:3:charge:R:1 energy=-1540.921907045947 free_energy=-1540.921907045947 dipole="-0.6838727953861797 -0.39149671158362115 -0.015453706434629576" pbc="F F F"
C       -2.41277371       0.61251159      -0.23127679     -59.19548973       0.00985116      -0.00097872      -0.00633543      -0.06269017
C       -2.22476181      -0.82828437       0.24066271     -59.19743678      -0.00401595      -0.00080640      -0.00007549      -0.06285401
C       -0.75533824      -1.08645344      -0.09488537     -59.04347764      -0.01090916      -0.00118889       0.00122637       0.07521584
O       -0.10001796       0.18034237      -0.08535630    -112.06166686      -0.01076307       0.00048686       0.00242518      -0.34430683
C       -1.05559328       1.21983391       0.11009128     -59.07060693      -0.00656716       0.00700171      -0.00077106       0.07323838
H       -2.57979976       0.64073885      -1.30829063     -13.24218523       0.00464303      -0.00158321      -0.00304452       0.04767394
H       -3.23011924       1.12452699       0.27058657     -13.32014071       0.01065341      -0.00956861      -0.00862007       0.04525237
H       -2.88495564      -1.53213594      -0.25968782     -13.31752102      -0.01170302       0.00142020       0.00638753       0.04484309
H       -2.38528054      -0.89429177       1.31714352     -13.25513215       0.00467580      -0.00279533      -0.00104086       0.04605749
H       -0.26711692      -1.74473595       0.62922937     -13.20176136       0.01675165       0.01303451      -0.00834213       0.04248035
H       -0.64371995      -1.51888793      -1.09649842     -13.18004765      -0.00339102       0.00168225       0.00636090       0.03971768
H       -1.02428953       1.54513481       1.15747250     -13.17152790       0.01415234      -0.00484640      -0.00317835       0.04070069
H       -0.77343110       2.05617855      -0.53064999     -13.12106214      -0.00896773       0.00811034       0.00950039       0.05454578
O        2.60142781       0.02637731      -0.01252861    -112.77865491       0.00167101      -0.00994090       0.00271815      -0.41600096
C        3.24273782       1.22312649       0.20244979     -58.90560365      -0.00130169       0.00039385      -0.00135475       0.08798086
C        2.86611456       1.84654931       1.56520124     -58.19241134      -0.00228410       0.00726313       0.00710435       0.47436693
F        3.10415675       0.98142197       2.55295541    -129.10384498       0.00451878      -0.00850704       0.00330932      -0.18168365
F        1.57419031       2.17647310       1.64193198    -129.19443549      -0.01139889      -0.00146483       0.00096483      -0.18736716
F        3.57245376       2.94905330       1.83181238    -129.24605641       0.00900569       0.01115189      -0.00061015      -0.19122242
C        2.99558324       2.23554527      -0.93971867     -58.19716136      -0.00280882      -0.00077375      -0.00419124       0.47411552
F        1.72768308       2.65235882      -0.99914849    -129.20382904      -0.00203290      -0.00135759       0.00500615      -0.18801260
F        3.27845055       1.68275817      -2.11985224    -129.08097350       0.00400837      -0.00736950      -0.00496954      -0.18005582
F        3.76429083       3.32292240      -0.82221413    -129.24745912      -0.00070322       0.00562925       0.00318323      -0.19139204
H        1.61770873       0.12774637      -0.03763031     -10.92515197      -0.00935445      -0.00379724      -0.00535768       0.35590228
H        4.32393289       1.02356434       0.22596623     -12.46826919       0.00626993      -0.00119557      -0.00029512       0.10349445
