23
Properties=species:S:1:pos:R:3:energies:R:1:forces:R:3:charge:R:1 energy=-1565.7772045224192 free_energy=-1565.7772045224192 dipole="-0.7062484161985084 -0.5138380653583707 -0.04140940164757941" pbc="F F F"
C       -1.97627953       1.23829465      -0.10331471     -59.79395116       0.00636224      -0.00941585       0.00152460      -0.15488520
C       -1.14635736      -0.00579212      -0.00875155     -58.81049027      -0.00546456       0.00086392      -0.00380874       0.37065374
O        0.06267135      -0.03411970      -0.04328990    -112.67637058       0.00281444      -0.00905544      -0.00161617      -0.44190370
O       -1.88922343      -1.10012403       0.11486085    -111.20570644       0.00038440      -0.00249213       0.00315202      -0.24623678
C       -1.19553809      -2.33957543       0.21142086     -59.21546972      -0.00536332      -0.00780447       0.00167896       0.02658195
H       -2.62751467       1.17186781      -0.97210223     -12.87755969       0.01385316       0.00963319       0.01236641       0.08689338
H       -2.60240832       1.32349448       0.78171196     -12.87674732       0.01426302       0.00506839      -0.01078138       0.08740375
H       -1.32280431       2.10155141      -0.18715644     -12.90305198      -0.01445429      -0.00969853       0.00106008       0.09102737
H       -0.56505629      -2.35439742       1.10246702     -12.99840127       0.00822820       0.01416246      -0.00538119       0.06745847
H       -0.56957594      -2.49599205      -0.66922804     -12.99773154       0.00649039       0.01584514       0.00394179       0.06756773
H       -1.95846477      -3.11002210       0.27545710     -12.92338499      -0.02335192      -0.00160700       0.00131282       0.07650960
O        2.75931257      -0.02732958      -0.00818819    -112.77071073      -0.00196321       0.01187267      -0.00048647      -0.41322929
C        3.17132922       1.26666380       0.20119357     -58.91232542       0.00545601       0.01388107       0.00361701       0.08829297
C        2.71938903       1.81859841       1.57378601     -58.21248462      -0.00093189      -0.01021241       0.00263457       0.47404440
F        3.04726829       0.96620575       2.54658825    -129.10262999       0.00482866      -0.00693383       0.01552157      -0.18202583
F        1.40179237       2.01495503       1.65638866    -129.15422286      -0.00659344      -0.00573391       0.00598625      -0.18529650
F        3.31056469       2.98476184       1.85976863    -129.27460199      -0.01100882      -0.00273573      -0.00611443      -0.19373703
C        2.72391969       2.22678244      -0.92534441     -58.21953596       0.00108298      -0.00422552      -0.00601905       0.47411540
F        1.41082466       2.46576575      -0.92936044    -129.15778466      -0.01032297       0.00569040      -0.00271926      -0.18535124
F        3.03027631       1.71837851      -2.11957103    -129.08892877       0.00923452      -0.00587937      -0.01856586      -0.18101481
F        3.33907349       3.41217153      -0.83467587    -129.27759385      -0.01061351       0.00714609      -0.00254788      -0.19413285
H        1.77891504      -0.09112421      -0.03503544     -10.84789352       0.01101939      -0.00784574      -0.00011748       0.36491955
H        4.27117976       1.26879953       0.20234879     -12.47962719       0.00605054      -0.00052337       0.00536182       0.10234493
