32
Properties=species:S:1:pos:R:3:energies:R:1:forces:R:3:charge:R:1 energy=-1824.2956425523562 free_energy=-1824.2956425523562 dipole="-0.7083670877672937 0.2810004766799346 -0.14350257211064327" pbc="F F F"
C       -2.81098651       0.31630078      -1.68999194     -59.42743376      -0.00776308       0.00122866      -0.00357181      -0.11107001
C       -1.91107979      -0.66923264      -0.93421549     -59.08185953       0.00574251       0.01170587       0.00713094       0.00593031
C       -0.92522833      -1.32282558      -1.90109995     -59.51174277       0.00399542       0.00232813      -0.00303872      -0.11675372
C       -2.75968740      -1.73417136      -0.23217248     -59.47343733       0.00303898      -0.00310495      -0.01081352      -0.11447813
C       -1.15641486       0.11844270       0.12371101     -58.67697438       0.00743188       0.00156378       0.01675043       0.36184081
O        0.04347793       0.29118042       0.14162061    -112.73119607       0.01316687      -0.00983587      -0.01794071      -0.44660782
O       -1.96126963       0.63417282       1.04083066    -111.13973004       0.01179281       0.00209219       0.01405704      -0.23944366
C       -1.34810916       1.38867065       2.08075224     -59.22169746      -0.00572429       0.00157486      -0.00076862       0.02507858
H       -3.35557486      -0.21158517      -2.46840450     -13.22133152      -0.01863952      -0.00462041      -0.00809127       0.05387632
H       -2.21443355       1.09734128      -2.15683950     -13.36587210      -0.00240963       0.00197720      -0.00055241       0.04303287
H       -3.52560500       0.77782243      -1.01390122     -13.28989073      -0.00207352       0.00869754       0.00639477       0.05044070
H       -0.29309464      -0.57370098      -2.37102912     -13.29674178       0.00545028       0.01129444       0.00612549       0.05010413
H       -0.28923173      -2.03157834      -1.38032622     -13.26800807      -0.00425540       0.00077269       0.01635684       0.05495467
H       -1.47106047      -1.85374565      -2.67625347     -13.27848024      -0.00026868       0.00009383      -0.01286510       0.04898337
H       -3.28820436      -2.32907768      -0.97226579     -13.23265053      -0.01133340      -0.00221919      -0.02123234       0.05297431
H       -2.12782220      -2.39681897       0.35464670     -13.33417355       0.01125289       0.00411269       0.00105490       0.04782195
H       -3.48743461      -1.26799960       0.42641287     -13.26503011       0.00902020      -0.00653247       0.01159697       0.05275165
H       -0.80462117       0.72428766       2.75490456     -12.97104331      -0.00964453       0.00071019      -0.01491550       0.07224346
H       -2.15523437       1.88917766       2.60939867     -12.96319307       0.00433168      -0.00069071      -0.00223003       0.07297786
H       -0.65018838       2.11569126       1.66044786     -12.99564777      -0.01066592       0.00030653       0.00879238       0.06935096
O        2.67758361      -0.07626651      -0.22134165    -112.76078174      -0.01385777      -0.01925839      -0.00510533      -0.41365084
C        3.05869525      -0.89731406       0.81075105     -58.92246791       0.00889712      -0.00382952      -0.00046004       0.08904609
C        2.52811055      -2.33921774       0.63534236     -58.18334495       0.00403371       0.00846267      -0.00464476       0.47515074
F        3.00944481      -2.87723174      -0.48723074    -129.12893126       0.00241605      -0.02052764       0.00388998      -0.18348060
F        1.19700270      -2.39699137       0.55024101    -129.16448059      -0.00052294      -0.00698609       0.02023348      -0.18585482
F        2.89342603      -3.13952589       1.64310868    -129.28997595       0.00352450       0.01991877       0.00752489      -0.19454607
C        2.65676290      -0.35666484       2.20417822     -58.20699530      -0.00881220      -0.00925201      -0.00279458       0.47456544
F        1.40225158      -0.65631540       2.55392137    -129.21676397      -0.01661150       0.00152654       0.00025130      -0.19012483
F        2.76646122       0.97024661       2.24754659    -129.06314836      -0.00506375      -0.00020003       0.00489383      -0.17811595
F        3.44993044      -0.84993256       3.16350883    -129.28610101       0.00499515       0.00429283       0.00038813      -0.19453915
H        1.70417073       0.07994462      -0.21518385     -10.84267401       0.00401089       0.00370565       0.00131391       0.36599129
H        4.15660290      -0.95973739       0.80104799     -12.48384337       0.01454518       0.00069223      -0.01773055       0.10155007
