18
Properties=species:S:1:pos:R:3:energies:R:1:forces:R:3:charge:R:1 energy=-1310.1318966282272 free_energy=-1310.1318966282272 dipole="-0.4257555064205275 -0.1853713994490292 0.30994481906370724" pbc="F F F"
C       -0.95672429      -0.04540896      -0.16258107     -59.42147687       0.00344282      -0.00073051       0.00223065       0.02700019
O        0.20105621      -0.42804604       0.55831100    -113.30846537       0.00100004      -0.00104932       0.00511997      -0.44805433
H       -1.84550212      -0.10171277       0.46977093     -13.22590871      -0.00389273       0.00117071       0.00173092       0.04160886
H       -0.80146786       0.98445180      -0.47475452     -13.01862293      -0.00162367       0.00281273      -0.00168266       0.06876222
H       -1.09400159      -0.67129811      -1.04733144     -13.19779684       0.00143816       0.00346462      -0.00257471       0.04600609
H        0.09881520      -1.33781240       0.85900146     -11.45555863      -0.00254444       0.00048544      -0.00207429       0.30350384
O        2.76681582       0.23352095      -0.01124667    -112.79332770      -0.00133035       0.00116925      -0.00147459      -0.41496817
C        3.09400487      -0.34346136      -1.21520349     -58.90257579       0.00121893       0.00107335       0.00131355       0.08685146
C        2.56577798       0.48209714      -2.41489390     -58.14483434       0.00025265      -0.00156640       0.00334800       0.47538171
F        3.24328193       1.62357396      -2.53855563    -129.12407916      -0.00394391       0.00202217      -0.00178401      -0.18204690
F        1.27798839       0.80233890      -2.27051215    -129.15598872      -0.00079523      -0.00055883      -0.00176969      -0.18357496
F        2.68629222      -0.17444537      -3.57357167    -129.28154414       0.00027130       0.00108679      -0.00257766      -0.19340576
C        2.59564051      -1.80265037      -1.33468613     -58.14721441       0.00108651       0.00211430       0.00034524       0.47411334
F        1.30769760      -1.88457785      -1.69068307    -129.26751372       0.00093882      -0.00577069       0.00161971      -0.19220316
F        2.70532346      -2.43527098      -0.16421002    -129.15065697      -0.00349056      -0.00015415       0.00185175      -0.18333451
F        3.29675186      -2.50023455      -2.22986546    -129.21900790       0.00415666       0.00181940      -0.00279331      -0.18770274
H        1.80476313       0.13619060       0.19662976     -10.85119170       0.00309779      -0.00472902      -0.00136839       0.35822689
H        4.19058305      -0.36318425      -1.29180687     -12.46613273       0.00071721      -0.00265985       0.00053952       0.10383596
