24
Properties=species:S:1:pos:R:3:energies:R:1:forces:R:3:charge:R:1 energy=-2172.004577761722 free_energy=-2172.004577761722 dipole="0.27082433371629167 0.0757764097289704 0.2685480756429736" pbc="F F F"
O        0.24911507       0.10834096       0.81241351    -113.07779129      -0.00036036      -0.00274139       0.00241079      -0.41022599
C       -0.97009150      -0.02238880       0.15234307     -58.76435582       0.00133531       0.00027490       0.00044024       0.07579865
C       -1.75917388       1.30350941       0.22604000     -58.12241262       0.00111220      -0.00069460      -0.00113781       0.47839097
F       -1.04933971       2.28882339      -0.32200268    -129.04679013      -0.00331842       0.00306096      -0.00038945      -0.17568218
F       -1.98993672       1.65141907       1.49844518    -129.21885248       0.00215488       0.00033926      -0.00242207      -0.18766352
F       -2.92875327       1.24832984      -0.40132906    -129.09641264       0.00156306      -0.00529650      -0.00127572      -0.17722913
C       -1.77936409      -1.19489154       0.74815748     -58.13238403       0.00058312       0.00093582       0.00078954       0.47866750
F       -1.98295176      -1.01239796       2.05953095    -129.22302669       0.00108486       0.00125956       0.00114709      -0.18808380
F       -1.10655315      -2.33610312       0.61669122    -129.02163829      -0.00342850      -0.00137401      -0.00061906      -0.17410425
F       -2.96472879      -1.35275780       0.16905583    -129.09957142       0.00133614       0.00156861      -0.00097906      -0.17760728
H        0.11345461       0.28594971       1.75743101     -10.75566601       0.00033963       0.00079057       0.00240033       0.34345326
H       -0.75644469      -0.24406770      -0.90007550     -12.25433414      -0.00737390       0.00205824      -0.00223059       0.12926354
O        2.97923630       0.05776682      -0.03129308    -112.74878079       0.00166962      -0.00172354      -0.00055370      -0.39994723
C        3.13064289      -0.45251320      -1.30402225     -58.87592815      -0.00090247      -0.00174768       0.00076169       0.08191404
C        2.51668574       0.48932938      -2.36647821     -58.08704726      -0.00022210       0.00015072       0.00427592       0.47621747
F        3.09305871       1.68693250      -2.32405439    -129.02984121       0.00207901      -0.00148552      -0.00636210      -0.17366708
F        1.20541136       0.67572371      -2.14927002    -129.36872045      -0.00012605       0.00304636      -0.00209886      -0.19727922
F        2.64977483       0.02123792      -3.60715225    -129.18236162      -0.00231154       0.00652077       0.00369952      -0.18403780
C        2.51633171      -1.86672045      -1.43285300     -58.10660846       0.00103140      -0.00241543      -0.00226489       0.47564435
F        1.17747251      -1.83063579      -1.35517718    -129.36911313       0.00130576      -0.00300946       0.00022413      -0.19763470
F        2.94360318      -2.65488032      -0.45042946    -129.02578895      -0.00271642       0.00424288       0.00495636      -0.17345129
F        2.83129265      -2.45438953      -2.58629462    -129.16344876       0.00255983      -0.00171416      -0.00272068      -0.18272330
H        2.03882934       0.12916475       0.21904590     -10.86829096       0.00358376      -0.00391732       0.00494826       0.34615385
H        4.20756223      -0.53314794      -1.50412662     -12.36541245      -0.00097883       0.00187095      -0.00299988       0.11383314
