24
Properties=species:S:1:pos:R:3:energies:R:1:forces:R:3:charge:R:1 energy=-2172.0034870961686 free_energy=-2172.0034870961686 dipole="0.2817748349270741 0.06826806911741731 0.26581146369075276" pbc="F F F"
O        0.24978366       0.10741496       0.82016861    -113.07745170      -0.00046339       0.00393065       0.00125725      -0.41002945
C       -0.96699388      -0.02127653       0.15647342     -58.76904808      -0.00640255      -0.00468972      -0.00228764       0.07568329
C       -1.76168253       1.30143798       0.22948609     -58.12453884       0.00213992      -0.00063718      -0.00603885       0.47834834
F       -1.05910326       2.29399222      -0.31421643    -129.04593708       0.01229753      -0.00453027      -0.00056463      -0.17555931
F       -1.99937049       1.64427537       1.50180427    -129.21793282       0.00032701       0.00841205       0.00319202      -0.18768876
F       -2.92849307       1.23841615      -0.40240513    -129.09650273      -0.00813826       0.00251974      -0.00169642      -0.17747409
C       -1.78128367      -1.19204990       0.74887656     -58.13289123      -0.00406082      -0.01001634      -0.00930129       0.47857203
F       -1.99307358      -1.01040939       2.05916606    -129.22411838       0.00773161       0.00403657      -0.00820014      -0.18809776
F       -1.11144436      -2.33519703       0.62065684    -129.02211183       0.00666418      -0.00733643       0.00282868      -0.17420280
F       -2.96296165      -1.34656975       0.16155048    -129.09770377      -0.01076029      -0.00571163       0.00283284      -0.17769152
H        0.10794886       0.27898230       1.76497818     -10.75865275       0.01747449       0.00804935       0.02099181       0.34326161
H       -0.75021380      -0.24355802      -0.89495187     -12.25515060      -0.01230334       0.00712468      -0.01008099       0.12924300
O        2.98717905       0.05814159      -0.04042401    -112.74413171       0.02005996       0.02353906       0.01776078      -0.39982510
C        3.13630862      -0.45214341      -1.31341682     -58.87655190      -0.00239113      -0.01180405       0.01434565       0.08189747
C        2.52425069       0.49079635      -2.37595428     -58.08837374       0.00033534      -0.00490990       0.00763401       0.47639871
F        3.08720990       1.69392849      -2.32037904    -129.02420733       0.00172788       0.00476471       0.00744451      -0.17332177
F        1.20865102       0.66061664      -2.17199613    -129.36872882      -0.00084011       0.01564367      -0.00676617      -0.19732496
F        2.67745025       0.03311486      -3.61789461    -129.18252625      -0.00756553      -0.01461353      -0.00773341      -0.18405906
C        2.51283137      -1.86210300      -1.42955596     -58.10645880      -0.01150691      -0.02470848      -0.00290327       0.47603705
F        1.17545684      -1.81689048      -1.33630199    -129.36779352      -0.02144284       0.00469068      -0.00325641      -0.19790518
F        2.94310153      -2.64470403      -0.44381744    -129.02797397       0.01784228      -0.00728537       0.00042215      -0.17382247
F        2.80845383      -2.46228778      -2.58072357    -129.15980646       0.02168740      -0.00272139      -0.02169002      -0.18235594
H        2.04829746       0.11621662       0.21709449     -10.86798340      -0.01462372       0.01087809       0.00886028       0.34605185
H        4.21283076      -0.53851090      -1.51362189     -12.36691137      -0.00778869       0.00537504      -0.00705074       0.11386482
