24
Properties=species:S:1:pos:R:3:energies:R:1:forces:R:3:charge:R:1 energy=-1548.507282605678 free_energy=-1548.507282605678 dipole="-1.192414256131886 0.5407959322230695 0.26245475664603424" pbc="F F F"
C       -1.34575861       2.37866015      -0.44114713     -59.53630802       0.00134624      -0.00309851       0.00053753      -0.05633784
N       -1.91246259       1.07086484      -0.20920062     -79.41106708       0.00073112      -0.00991286       0.00233473      -0.05772355
C       -3.34822249       0.98268653      -0.21657718     -59.65120716      -0.00385334      -0.00213107      -0.00526683      -0.05805292
C       -1.12539212       0.01949477       0.00726169     -59.05150837       0.00674708      -0.01550562       0.01476302       0.24601349
O        0.09040903       0.04912938       0.05141917    -112.76424500       0.00767315       0.01016666       0.00672841      -0.45482855
H       -1.66854316       2.76186807      -1.41038928     -13.10200240       0.00003701       0.00523574      -0.00087166       0.06057962
H       -0.26191078       2.28761577      -0.43182144     -12.88483033       0.00558467       0.00730782      -0.00252146       0.09011000
H       -1.65913930       3.07228850       0.34152429     -13.12147994      -0.00341421       0.00755450      -0.00446391       0.05783288
H       -3.76941812       1.61903926       0.56579292     -13.04965244      -0.00037250       0.00991461      -0.00252036       0.06280038
H       -3.66014720      -0.04433957      -0.04002423     -13.10068378       0.00054954      -0.00978272      -0.00051236       0.06439135
H       -3.74315200       1.31075116      -1.18056621     -13.03967931       0.00050210       0.01064671      -0.01269472       0.06438907
H       -1.68462263      -0.91766629       0.15680462     -13.24722380      -0.00361885      -0.01969433       0.00001306       0.01518907
O        2.76595206       0.00360721       0.04930095    -112.74060194      -0.00276693      -0.00686711       0.01304791      -0.41448343
C        3.15521028      -0.45278540      -1.18539991     -58.92807010       0.00338718       0.00346116       0.00030956       0.08942323
C        2.68542151       0.46839506      -2.33562916     -58.22320942      -0.00593289       0.00199519      -0.00213539       0.47372730
F        3.02774554       1.73614338      -2.08903158    -129.13547899       0.01632318      -0.00197770       0.01097911      -0.18453914
F        1.36469985       0.45987944      -2.52423263    -129.13723065      -0.01142946       0.00408372       0.00262131      -0.18470365
F        3.25116018       0.13280226      -3.50159955    -129.28592006      -0.00568129       0.00234102      -0.00610517      -0.19516153
C        2.70899138      -1.90874352      -1.46013700     -58.25331536       0.00041732       0.00463764      -0.00189712       0.47385962
F        1.39945056      -2.03546990      -1.67568105    -129.11059906      -0.01238090      -0.00311719       0.01986419      -0.18346225
F        3.01634708      -2.69355923      -0.42624546    -129.07606083      -0.00496507       0.00251016       0.00442099      -0.18078208
F        3.33207908      -2.41713419      -2.53222045    -129.29175307       0.00268194      -0.00031368      -0.00886588      -0.19634580
H        1.78482790       0.01493722       0.13974835     -10.86918700       0.01000536      -0.00379125      -0.01502942       0.36756864
H        4.25546218      -0.45168608      -1.20632389     -12.49596849      -0.00157044       0.00633709      -0.01273554       0.10053610
