12
Properties=species:S:1:pos:R:3:energies:R:1:forces:R:3:charge:R:1 energy=-1085.862062959378 free_energy=-1085.862062959378 dipole="-0.09593679791087042 0.1956756341173751 -0.14746373034409693" pbc="F F F"
O       -0.65405829       1.35532400      -0.77252265    -112.65175983      -0.00141615       0.00305739      -0.00033546      -0.38913264
C       -0.07630036       0.11387444      -0.57362706     -58.80360728       0.00268878      -0.00604319      -0.00197946       0.08248518
C       -1.01828513      -0.81462505       0.22802145     -58.11960143       0.01132818       0.01151363      -0.00567113       0.47638550
F       -2.17758444      -0.96224461      -0.41362343    -129.07237392       0.00872952      -0.00295773       0.00707715      -0.17771160
F       -1.29758767      -0.29558627       1.42911534    -129.21488540      -0.01371117      -0.00458970      -0.00778746      -0.18764449
F       -0.51001728      -2.03079222       0.41757195    -129.16012407      -0.00047272       0.01188612       0.00033360      -0.18257382
C        1.29415219       0.24601445       0.13099028     -58.11960135      -0.01646915      -0.00123630      -0.00450455       0.47638551
F        1.16604502       0.83440347       1.32573910    -129.21488620       0.01184734       0.00713264      -0.00885984      -0.18764455
F        2.11496700       1.00660703      -0.59374180    -129.07237428      -0.00294636      -0.00831267       0.00756686      -0.17771162
F        1.89729656      -0.92663564       0.31656150    -129.16012338      -0.00866521       0.00812815       0.00067755      -0.18257377
H       -0.82596845       1.80702730       0.06801016     -10.90393702       0.00838718      -0.01706534       0.01336320       0.33481885
H        0.08734085      -0.33336691      -1.56249485     -12.36878880       0.00069976      -0.00151301       0.00011954       0.11491746
