24
Properties=species:S:1:pos:R:3:energies:R:1:forces:R:3:charge:R:1 energy=-1548.5824206101024 free_energy=-1548.5824206101024 dipole="-1.1235010705348094 0.36057405855169017 0.037749047498128775" pbc="F F F"
C       -1.40290238       2.57155343      -0.40887108     -59.54293130      -0.00170987      -0.00351285       0.00206350      -0.05788411
N       -1.60502642       1.15009828      -0.25086249     -79.34858306       0.00098508      -0.00003479       0.00137841      -0.04866796
C       -2.90278756       0.64194310      -0.60683178     -59.67734091      -0.00060380      -0.00011535       0.00112387      -0.06073078
C       -0.61700657       0.37152166       0.17407594     -59.09365325       0.00046322       0.00013363      -0.00522021       0.23933754
O        0.50147335       0.76486578       0.46941265    -112.79085265       0.00318251      -0.00002371       0.00175268      -0.45378170
H       -1.57137812       2.86256700      -1.44685491     -13.09528782       0.00120492      -0.00100127      -0.00351728       0.06145488
H       -0.37712766       2.80350802      -0.12948146     -12.85128181      -0.00037839      -0.00057180       0.00032215       0.09390106
H       -2.09017232       3.12445015       0.23411729     -13.11627434      -0.00270202       0.00364098      -0.00330421       0.05851758
H       -3.67209354       1.09266260       0.02503085     -13.03759286      -0.00117315       0.00535319       0.00161216       0.06406358
H       -2.92806384      -0.43819345      -0.48087277     -13.07856462       0.00129835      -0.00139651       0.00233042       0.06707570
H       -3.12571621       0.88140966      -1.64906608     -13.01257653       0.00199745      -0.00196045      -0.00034766       0.06724173
H       -0.89131198      -0.69180819       0.24033893     -13.20342698      -0.00393339       0.00029727       0.00349263       0.02216672
O        2.90157391      -0.28943879       0.14920611    -112.74494478       0.00274131       0.00092154      -0.00070720      -0.42089814
C        2.96467844      -0.61331927      -1.18120761     -58.94103573      -0.00126163      -0.00132982      -0.00113825       0.09040612
C        2.40976161       0.48653410      -2.11856585     -58.22072277       0.00211866      -0.00020589      -0.00096007       0.47443209
F        2.66681772       1.70234674      -1.64413897    -129.01515254      -0.00151118      -0.00518866       0.00183370      -0.17489087
F        1.08558412       0.40931202      -2.30437332    -129.29131797       0.00405643      -0.00029483      -0.00022478      -0.19535452
F        2.96841896       0.41300606      -3.33424069    -129.29067709      -0.00112789       0.00359974       0.00393593      -0.19536158
C        2.24671365      -1.95089596      -1.48909600     -58.17146720      -0.00249645      -0.00200453      -0.00046619       0.47452806
F        0.99205640      -1.97858335      -1.02962180    -129.21102885       0.00481562       0.00166236       0.00183705      -0.18897159
F        2.88856748      -2.97523661      -0.92585549    -129.11729952       0.00001099       0.00439214      -0.00508802      -0.18278175
F        2.18804947      -2.20189741      -2.80310464    -129.31191223       0.00211270      -0.00038168      -0.00120265      -0.19682551
H        2.00529544       0.06655183       0.40181501     -10.90779494      -0.00626568      -0.00062398       0.00233616       0.36449598
H        4.02358368      -0.75617858      -1.44532662     -12.51070085      -0.00182378      -0.00135473      -0.00184216       0.09852747
