24
Properties=species:S:1:pos:R:3:energies:R:1:forces:R:3:charge:R:1 energy=-1676.8613261765747 free_energy=-1676.8613261765747 dipole="-0.3259859538030779 -0.3062339668854567 -0.026441131744034157" pbc="F F F"
C       -1.38737960       0.45412414       2.39919205     -59.26346572       0.00179364       0.00039405       0.00326537       0.02153025
O       -1.95177283       0.28269109       1.10203217    -111.07641761      -0.00679915       0.00730576      -0.00493632      -0.24621939
C       -1.10165767       0.02898274       0.12213921     -59.27684796      -0.00829280       0.00845067      -0.00364236       0.49097953
O        0.08922989      -0.11939886       0.25874139    -113.08920150       0.00947721       0.00400400      -0.00067822      -0.48535131
O       -1.75671397      -0.05336666      -1.02408512    -111.08968174      -0.00874074      -0.00108450      -0.00305935      -0.24787228
C       -0.97377472      -0.28010525      -2.19275180     -59.28138528      -0.00216868      -0.00706588       0.00370931       0.02086604
H       -0.81238453       1.38009962       2.43812242     -12.89691831       0.00739384       0.00825123       0.00302908       0.07826466
H       -2.23065123       0.50211658       3.08211091     -12.81074597      -0.00609204      -0.00714895       0.00866483       0.08628071
H       -0.73445978      -0.38356023       2.64909726     -12.93945486      -0.00103989      -0.01334796      -0.00008238       0.07359556
H       -0.33525826       0.58182432      -2.39006411     -12.90311549       0.00007893      -0.01188186      -0.00929662       0.07764036
H       -1.68776575      -0.41541187      -3.00065765     -12.79712588       0.00177251      -0.00094877       0.00308896       0.08745729
H       -0.35496304      -1.17162450      -2.07637348     -12.95473228       0.00502000      -0.00136713       0.01066342       0.07130109
O        2.77293650      -0.09306837      -0.10838751    -112.76171916      -0.00294827       0.00338701      -0.00674660      -0.41103218
C        3.14796937       1.21551874       0.07837952     -58.91780935       0.00363364       0.00007596      -0.00705327       0.08771127
C        2.71996547       1.77794325       1.45541682     -58.19152471      -0.00140808      -0.00139565      -0.01433933       0.47486031
F        2.86083941       0.85488587       2.40539702    -129.06199579      -0.00314467      -0.00148975       0.00576203      -0.17772375
F        1.44697416       2.18379297       1.49202243    -129.23228373      -0.00996133       0.00528281      -0.01297062      -0.19067267
F        3.47026833       2.82734690       1.80938983    -129.25808446       0.00773764       0.00153066       0.00213544      -0.19194010
C        2.62553298       2.13346255      -1.05112851     -58.15804756       0.00561771      -0.00056075      -0.00143349       0.47542524
F        1.30035863       2.06088382      -1.20392291    -129.19820254      -0.01027773       0.00624974       0.01254167      -0.18815435
F        3.16231725       1.78423279      -2.22276755    -129.14770780       0.01604662       0.00500550      -0.00422481      -0.18420471
F        2.93041929       3.41753175      -0.84578358    -129.25410845       0.00621530       0.01233828       0.01466909      -0.19137701
H        1.80126325      -0.20249511      -0.01100185     -10.84611986      -0.01063154      -0.01440962       0.00247829       0.36437723
H        4.24632664       1.25599488       0.04265062     -12.45463016       0.00671790      -0.00157484      -0.00154413       0.10425821
