25
Properties=species:S:1:pos:R:3:energies:R:1:forces:R:3:charge:R:1 energy=-1540.9340673579807 free_energy=-1540.9340673579807 dipole="-0.6696207923875719 0.15401967707614186 0.3201723714662831" pbc="F F F"
C       -2.23791034       0.75682710      -0.23219884     -59.20601018       0.00154996      -0.00349987      -0.00317585      -0.06355334
C       -2.28301573      -0.67409958       0.29914147     -59.19638900      -0.00038040      -0.00861849       0.00338585      -0.06266596
C       -0.88827174      -1.17241553      -0.06514928     -59.05612628       0.00333308      -0.00633642      -0.00279011       0.07469816
O       -0.02674723      -0.04151936       0.03572975    -112.04955505       0.01534542      -0.00145588      -0.00383124      -0.34377396
C       -0.79875994       1.15587280       0.08741526     -59.03526246       0.00415795       0.00284878      -0.00277555       0.07677235
H       -2.40003936       0.76352324      -1.30992203     -13.23056345      -0.00065501       0.00050820      -0.00914177       0.04923591
H       -2.96315387       1.41245328       0.24292549     -13.31883093       0.00691304       0.00900608      -0.00303760       0.04503963
H       -3.06532458      -1.27843031      -0.15160497     -13.31803861      -0.01239108       0.00561520      -0.00817638       0.04565006
H       -2.41301311      -0.66813957       1.38171969     -13.24629487       0.00085560      -0.01361474       0.00991356       0.04676345
H       -0.51163033      -1.94781786       0.60541252     -13.18777229      -0.00372738       0.00048121       0.00570984       0.04572534
H       -0.86027930      -1.54652632      -1.09576327     -13.15067762      -0.00255539      -0.00102448      -0.00326331       0.04376585
H       -0.72062369       1.57687019       1.09770628     -13.19269353       0.01218104      -0.00632925       0.00195379       0.03762174
H       -0.38048140       1.86854684      -0.62690074     -13.18707897      -0.00511918       0.00054032      -0.01288058       0.04563731
O        2.67630788      -0.05961366       0.00750882    -112.77364185       0.00746121       0.00647093      -0.00811165      -0.41592000
C        3.21279134      -0.45247313      -1.19553723     -58.90562870       0.00429165      -0.00185603      -0.00782953       0.08811324
C        2.75316429       0.44823699      -2.36391565     -58.19612600      -0.01401878      -0.00329805       0.00509347       0.47409934
F        3.11265181       1.71517085      -2.14329164    -129.13639599       0.00001798      -0.00230130      -0.00779830      -0.18367075
F        1.42759221       0.44450898      -2.52379086    -129.15712446      -0.01460191      -0.00316529       0.01093171      -0.18471222
F        3.29323231       0.08379702      -3.53093670    -129.25114593       0.00382212       0.00904362       0.00876434      -0.19151161
C        2.91786303      -1.93720130      -1.51672555     -58.19006418       0.00124887       0.00174069       0.01032508       0.47382193
F        1.63672084      -2.16158995      -1.82283613    -129.22262092      -0.01376605       0.01731316      -0.00588277      -0.18922531
F        3.20587605      -2.70498456      -0.46524943    -129.08878505      -0.00607006      -0.00747089       0.01528438      -0.18047839
F        3.65203610      -2.38409168      -2.54031989    -129.24153143       0.00595013       0.00249616      -0.00884386      -0.19094194
H        1.68660750      -0.07586070       0.00401174     -10.92773451       0.00824805       0.00502081       0.01769076       0.35612971
H        4.30593992      -0.35421656      -1.12120697     -12.46797508      -0.00209088      -0.00211446      -0.00151428       0.10337947
