24
Properties=species:S:1:pos:R:3:energies:R:1:forces:R:3:charge:R:1 energy=-2171.958095445696 free_energy=-2171.958095445696 dipole="0.19856414362184482 -0.24282617916056434 -0.054034437273691276" pbc="F F F"
O        0.01782607       0.06187444       0.76974919    -113.06061841      -0.00224738       0.00890570       0.00145160      -0.40955576
C       -1.25228659       0.03095347       0.20691205     -58.74562499      -0.00314678       0.00195415       0.00173962       0.08029045
C       -1.99328754       1.37087446       0.42040127     -58.15768785      -0.00107898       0.00146870       0.00950250       0.47758681
F       -1.31918176       2.37578987      -0.13026124    -128.98584792      -0.01842113       0.00733331      -0.00582849      -0.17184097
F       -2.11895167       1.64545212       1.72272817    -129.17125896       0.00880266       0.00548788       0.00509998      -0.18451558
F       -3.21232041       1.36260862      -0.11563408    -129.12851530       0.00306534      -0.00416794       0.01107707      -0.18034019
C       -2.06753190      -1.14632738       0.79211075     -58.09724034       0.00181957      -0.00064379      -0.00130651       0.47810480
F       -2.24217123      -1.00653055       2.10982441    -129.18158162       0.00988449      -0.00269406      -0.00444735      -0.18478606
F       -1.40853659      -2.29078071       0.60659495    -129.07863185      -0.00522587      -0.01123847      -0.01852510      -0.17761800
F       -3.26573818      -1.27644947       0.23077055    -129.11806782       0.00878000       0.00556922      -0.00617197      -0.17860787
H       -0.02984890       0.24842831       1.72170398     -10.74914950      -0.00772945       0.01862673       0.00147505       0.34631377
H       -1.13545332      -0.12838821      -0.87201802     -12.34702424       0.01436914      -0.00818237      -0.00370504       0.11739009
O        2.78761145       0.00179303      -0.10891036    -112.73867000      -0.01143026      -0.00900662      -0.00073671      -0.39878175
C        3.28628749       1.28024586       0.04477534     -58.87607571       0.00141680      -0.01025231       0.00431676       0.08113668
C        3.06955750       1.80136214       1.48342342     -58.10236272       0.00572692       0.00749391       0.01181617       0.47507106
F        3.51935201       0.91149525       2.36912953    -129.09310513       0.00724519      -0.00818181      -0.00110699      -0.17890534
F        1.77036802       1.98660407       1.75959656    -129.35822262      -0.00674244       0.01004767      -0.00482415      -0.19626946
F        3.69885475       2.94946414       1.71830945    -129.13182845       0.00891132       0.01319268      -0.00677405      -0.18015329
C        2.66653845       2.24719657      -0.99119664     -58.12281426      -0.00987091       0.00246368      -0.00079236       0.47611628
F        1.33194110       2.17037680      -0.97838043    -129.22819900      -0.01087709      -0.02036931      -0.00629038      -0.18817294
F        3.06200647       1.92425119      -2.22319491    -129.09505610       0.00652064       0.00503133       0.00278434      -0.17910191
F        3.00361574       3.51892977      -0.78549391    -129.16617711      -0.00318084       0.00343222       0.00287689      -0.18312570
H        1.82801577      -0.03072775       0.06120755     -10.86544843      -0.01168477      -0.01087242       0.00472952       0.34536519
H        4.36846680       1.23868465      -0.13600838     -12.35888712       0.01509385      -0.00539808       0.00363957       0.11439969
