32
Properties=species:S:1:pos:R:3:energies:R:1:forces:R:3:charge:R:1 energy=-1824.3341316918647 free_energy=-1824.3341316918647 dipole="-0.755245052494937 -0.2628439146858514 0.026019316480599467" pbc="F F F"
C       -2.39116162       0.55503664      -1.71139532     -59.48009104       0.00187003       0.00192219      -0.00091014      -0.11548633
C       -1.74426730      -0.55725509      -0.87881490     -59.08422382      -0.00195260       0.00244794      -0.00020188       0.00540322
C       -0.62186682      -1.22873530      -1.66913443     -59.53072642      -0.00321319      -0.00146544       0.00151321      -0.11821627
C       -2.79868015      -1.59392823      -0.47006015     -59.43918849       0.00218039       0.00005986      -0.00052415      -0.11183448
C       -1.18413505       0.06255659       0.39138562     -58.69067355       0.00029320       0.00405626      -0.00176040       0.35978581
O       -0.02678606      -0.01109627       0.75086155    -112.71258441      -0.00190149      -0.00246126       0.00249237      -0.44238684
O       -2.10649979       0.69821607       1.09331587    -111.10385034       0.00109095       0.00183709       0.00183432      -0.23505881
C       -1.67760110       1.32910281       2.29518217     -59.22949816       0.00273191      -0.00068952      -0.00003920       0.02383903
H       -2.79445265       0.13733783      -2.63063604     -13.22473078       0.00296106      -0.00148547       0.00216147       0.05380678
H       -1.65537971       1.31353568      -1.96770441     -13.31586361       0.00383908      -0.00134156       0.00000778       0.05010019
H       -3.19754646       1.02665901      -1.15645558     -13.26363798      -0.00267131      -0.00381813      -0.00241952       0.05301318
H        0.10847715      -0.49596622      -2.00111616     -13.28895589      -0.00398474      -0.00458922      -0.00381190       0.05206188
H       -0.11185894      -1.97105446      -1.06024021     -13.27974769       0.00425214      -0.00007302      -0.00143647       0.05200145
H       -1.03392779      -1.72250948      -2.54508363     -13.25409264      -0.00218217       0.00038081      -0.00062219       0.05160885
H       -3.23729097      -2.04023300      -1.35915562     -13.22107312       0.00211089       0.00172630      -0.00265499       0.05398902
H       -2.34669720      -2.38484297       0.12483668     -13.35992811       0.00061358       0.00143381       0.00231695       0.04360197
H       -3.58868402      -1.12619139       0.11174597     -13.28054049       0.00324495       0.00060163      -0.00281618       0.05145130
H       -1.30643677       0.58366261       3.00091257     -12.99654788       0.00122145       0.00025041      -0.00110174       0.06797737
H       -2.55078885       1.83577681       2.69748608     -12.94987229       0.00535762      -0.00161221       0.00212667       0.07430555
H       -0.87948995       2.04193033       2.08243816     -12.93952652      -0.00050185       0.00116326       0.00240328       0.07694312
O        2.39861355      -0.21001337      -0.32939634    -112.82223629      -0.00672510       0.00081955      -0.00147757      -0.42119403
C        2.89666512       1.06415476      -0.22418509     -58.92127505       0.00133324      -0.00252068       0.00215472       0.08994578
C        2.82541553       1.63530094       1.21344164     -58.22912829      -0.00154286      -0.00085019       0.00349717       0.47484066
F        3.01428907       0.67801257       2.11760939    -129.01508507      -0.00044731      -0.00271488      -0.00042548      -0.17507043
F        1.65634246       2.21943698       1.49402439    -129.21142051      -0.00009369       0.00347995       0.00070092      -0.18991679
F        3.77411905       2.55987966       1.41378752    -129.29383837      -0.00417574       0.00001110      -0.00304635      -0.19542938
C        2.20145767       2.04504990      -1.19764839     -58.15965272      -0.00019554      -0.00133437      -0.00099589       0.47529752
F        0.87069881       2.04314686      -1.07267793    -129.21122771      -0.00183544      -0.00036604       0.00130199      -0.18882518
F        2.46452436       1.71688372      -2.46529415    -129.16879962       0.00150768      -0.00204260      -0.00317912      -0.18610987
F        2.61361427       3.30496050      -1.02543171    -129.28579614      -0.00265088       0.00088411       0.00193694      -0.19416070
H        1.47911286      -0.26848660       0.03948336     -10.86488061      -0.00425322       0.00476017       0.00280405       0.36402023
H        3.95886093       1.03459045      -0.50819029     -12.50543806       0.00371896       0.00153014       0.00017132       0.09969625
