23
Properties=species:S:1:pos:R:3:energies:R:1:forces:R:3:charge:R:1 energy=-1565.7875391466869 free_energy=-1565.7875391466869 dipole="-0.7021088050172546 -0.017369662771177734 0.3432682551897885" pbc="F F F"
C       -2.00583261       1.22586539      -0.12400791     -59.75220292       0.00701133      -0.00410307      -0.00786213      -0.15160066
C       -1.19116850      -0.02769336       0.01231642     -58.83744097       0.00344187       0.00393302       0.00917222       0.36998800
O        0.01815598      -0.06551526       0.03986965    -112.68089012       0.00616176      -0.01692048      -0.00271274      -0.44179649
O       -1.95429976      -1.10803785       0.11202812    -111.18824826       0.00067810       0.00542335      -0.00757442      -0.24441121
C       -1.28520434      -2.35902971       0.24061586     -59.23548388       0.00725432       0.01157677       0.00197694       0.02338449
H       -2.62928109       1.15517942      -1.01176009     -12.88579505       0.00628618      -0.00505122      -0.00574230       0.08679637
H       -2.65994543       1.33323057       0.73831915     -12.90335595       0.01809155      -0.01352970      -0.00468718       0.08462752
H       -1.34586703       2.08420983      -0.20161911     -12.96622225      -0.00374943      -0.00124907       0.00079157       0.08249562
H       -0.58800566      -2.32790507       1.07974687     -13.00167817       0.00794433      -0.01241424       0.01088850       0.06771657
H       -0.73193086      -2.58398645      -0.67219925     -12.95119102      -0.00150248      -0.00559418      -0.00736845       0.07450487
H       -2.05822771      -3.10300902       0.41315167     -12.93007655      -0.00471768       0.01767465      -0.00776391       0.07638012
O        2.74589155      -0.00650255       0.02032261    -112.74414840      -0.00459850      -0.00282105      -0.00830081      -0.41063436
C        3.20997803      -0.43163552      -1.20132322     -58.91325930       0.00182928      -0.00135183      -0.00600007       0.08815559
C        2.74297553       0.47919269      -2.36096058     -58.20623673      -0.00576545      -0.00727261       0.01541183       0.47441291
F        3.10632076       1.74266769      -2.13184665    -129.10206152      -0.00274929      -0.00570155      -0.01416038      -0.18158482
F        1.41840126       0.47664760      -2.52401581    -129.14159453      -0.00316260       0.00415534       0.00716440      -0.18445154
F        3.28606288       0.12029058      -3.53036268    -129.27263634      -0.00924025       0.00436848       0.01829562      -0.19344147
C        2.83879224      -1.90404585      -1.49670999     -58.18598285      -0.00410176       0.00831017      -0.00040163       0.47417732
F        1.54203514      -2.07693715      -1.77007034    -129.22226563      -0.02071433       0.00037814       0.00388024      -0.18973197
F        3.11571231      -2.67608947      -0.44439371    -129.10312266      -0.00018409       0.00425143       0.00436836      -0.18129005
F        3.52626704      -2.39351525      -2.53350150    -129.25639331       0.00184780      -0.00211717      -0.00691128      -0.19197833
H        1.76390941      -0.00798822       0.06149593     -10.83708426      -0.00065481       0.01273442      -0.00007398       0.36507315
H        4.30855464      -0.38112607      -1.17666538     -12.47016849       0.00059415       0.00532037       0.00760959       0.10320835
