32
Properties=species:S:1:pos:R:3:energies:R:1:forces:R:3:charge:R:1 energy=-1824.294026597875 free_energy=-1824.294026597875 dipole="-0.6720533187101545 0.2751524997220377 0.371074626080019" pbc="F F F"
C       -2.88427499       0.35542824      -1.78157562     -59.51895817       0.00100506       0.00176289      -0.00126537      -0.11684308
C       -2.18737810      -0.82793023      -1.11023217     -59.06291038      -0.00056991       0.00208383       0.00031714       0.00864514
C       -1.58207671      -1.76019726      -2.15932778     -59.50521759      -0.00018363       0.00041538       0.00095483      -0.11791128
C       -3.17986978      -1.59868430      -0.22662887     -59.39323952       0.00016442      -0.00001460       0.00011762      -0.10907348
C       -1.08456416      -0.34495949      -0.18487627     -58.65984205      -0.00491485      -0.00109352       0.00249979       0.36136394
O       -0.05957611      -0.96228895       0.02303152    -112.72845693      -0.00037042       0.00122177      -0.00166396      -0.44293013
O       -1.37602400       0.79662881       0.41686039    -111.11241255       0.00120891      -0.00100247      -0.00265880      -0.23665982
C       -0.43162798       1.32216081       1.34347777     -59.26316725      -0.00013973      -0.00089813       0.00018636       0.02130078
H       -3.64473405      -0.01151189      -2.46651157     -13.24337519      -0.00172947       0.00022813       0.00351465       0.05206709
H       -2.16697910       0.94693324      -2.34495003     -13.32559180       0.00143880      -0.00199585      -0.00454466       0.04799381
H       -3.35826203       0.99619821      -1.04342394     -13.25859567       0.00123832       0.00127082      -0.00218661       0.05281882
H       -0.89484734      -1.21415660      -2.79987755     -13.28435502       0.00159045      -0.00227309      -0.00125359       0.05321055
H       -1.02858267      -2.56253206      -1.68010946     -13.20348888      -0.00212223      -0.00328433       0.00258469       0.06056740
H       -2.36869676      -2.19095926      -2.77259468     -13.27259208      -0.00156935       0.00142690      -0.00062489       0.04960628
H       -3.98728467      -1.98848481      -0.84144312     -13.19538584      -0.00226889      -0.00003282       0.00238734       0.05626690
H       -2.68348904      -2.43293206       0.26395349     -13.31486961      -0.00217773      -0.00203099       0.00166795       0.04868254
H       -3.60409714      -0.94568747       0.53283509     -13.34074726      -0.00070844      -0.00108123       0.00096781       0.04502424
H       -0.08389794       0.54238784       2.02379678     -12.98753090      -0.00237452       0.00027925       0.00216109       0.06983571
H       -0.95145965       2.10370176       1.89183253     -12.91015449      -0.00106512      -0.00014245       0.00166221       0.07762747
H        0.42490802       1.74409501       0.81506625     -12.98382796       0.00077376      -0.00086199      -0.00097946       0.07026382
O        2.45176584      -0.23045853       0.40254353    -112.90728959       0.00073317      -0.00040386       0.00027091      -0.42820775
C        3.04371170      -0.29852290      -0.83462911     -58.89962839       0.00265428      -0.00153310       0.00024354       0.09013623
C        2.51472739       0.79998110      -1.78668951     -58.14427867       0.00174352      -0.00064972      -0.00016525       0.47564282
F        2.88817122       2.01037600      -1.35856915    -129.20562997       0.00120456       0.00286573       0.00229867      -0.18859739
F        1.18007432       0.82043893      -1.85938134    -129.21838213       0.00062258       0.00123113      -0.00177950      -0.18927043
F        2.97906537       0.66337345      -3.03109911    -129.26757941       0.00241898       0.00114147      -0.00189045      -0.19235661
C        2.89085338      -1.68293153      -1.51115909     -58.25188472       0.00364416       0.00428423       0.00026534       0.47478491
F        1.76003371      -1.80565463      -2.20824289    -129.14753989      -0.00416909      -0.00110921      -0.00082888      -0.18531865
F        2.90917166      -2.65826606      -0.60613435    -129.01463956       0.00114062      -0.00012288      -0.00040807      -0.17529293
F        3.89866920      -1.91534508      -2.36303607    -129.29103630       0.00290937       0.00069780      -0.00309296      -0.19539073
H        1.50470374      -0.53456242       0.36380587     -10.86544562      -0.00049181       0.00024838      -0.00033320       0.36312107
H        4.12050626      -0.11626683      -0.70436424     -12.51597324       0.00036424      -0.00062746       0.00157570       0.09889276
