18
Properties=species:S:1:pos:R:3:energies:R:1:forces:R:3:charge:R:1 energy=-1310.133479165349 free_energy=-1310.133479165349 dipole="-0.6000493728390217 0.11617243253078331 -0.143448287781571" pbc="F F F"
C       -1.32741224       0.14060897      -0.13989606     -59.39879991       0.00483912      -0.01023584       0.00666157       0.03224477
O       -0.20934643      -0.47836963       0.46403675    -113.30420828       0.01882067      -0.00224436       0.00293077      -0.45014234
H       -1.92728200       0.67961415       0.59783689     -13.23931808       0.00875028       0.01016418      -0.00207412       0.03989867
H       -0.93734681       0.84661722      -0.87066699     -13.04764665       0.00545081      -0.01217016       0.01661876       0.06462890
H       -1.95602447      -0.59353759      -0.65054405     -13.23524141       0.00070368      -0.00340969      -0.00384224       0.03998414
H       -0.50553815      -1.10119650       1.13700412     -11.42149491      -0.00388327       0.00534452      -0.00814848       0.30841171
O        2.43412482      -0.03117826       0.02140688    -112.78063438       0.00570782       0.00562111       0.00472490      -0.41343385
C        3.16149750      -0.75524541       0.93698068     -58.91511266      -0.00060135       0.00805062      -0.00344370       0.08617006
C        2.93001152      -2.27793256       0.79387410     -58.16706017      -0.01023582       0.00614972       0.00515288       0.47392378
F        3.17949173      -2.67459021      -0.45375259    -129.07539458      -0.01785639       0.00209746       0.00985363      -0.17873650
F        1.66734621      -2.62498746       1.07237266    -129.26264227       0.00597904      -0.01151033      -0.01052444      -0.19126880
F        3.72195592      -2.99124510       1.59948407    -129.23422673      -0.00627815       0.00187290      -0.01965695      -0.18988528
C        2.87341367      -0.31257764       2.39022864     -58.17086649      -0.01140156      -0.00887836       0.00980637       0.47398225
F        1.59592622      -0.51397813       2.73392675    -129.24241318      -0.00105678       0.00701384       0.01115285      -0.19003034
F        3.11925495       0.98844745       2.54436009    -129.08456340      -0.01112132      -0.00801561      -0.01216836      -0.17939872
F        3.62841796      -0.96329737       3.27984300    -129.23828006      -0.00082441       0.01486318       0.00243780      -0.19032264
H        1.46184057      -0.15163503       0.14433679     -10.85460050       0.00059029      -0.00403205      -0.00870397       0.35914537
H        4.22676543      -0.56747214       0.74274738     -12.46097551       0.01241733      -0.00068114      -0.00077728       0.10482882
