24
Properties=species:S:1:pos:R:3:energies:R:1:forces:R:3:charge:R:1 energy=-1548.4919451219282 free_energy=-1548.4919451219282 dipole="-1.2024139507970841 0.6522243768854851 -0.3601124073499573" pbc="F F F"
C       -1.36969514       2.38513760      -0.42150696     -59.53323826      -0.00008234      -0.00259992       0.00093996      -0.05611313
N       -1.93100742       1.07581189      -0.18290302     -79.42107246       0.00216354      -0.00904855       0.00138068      -0.05935243
C       -3.36664403       0.98923740      -0.14972880     -59.64975870      -0.00133295      -0.00126615       0.00281307      -0.05785971
C       -1.13710884       0.01927033      -0.01612455     -59.05122806       0.00847575      -0.01408421      -0.00455504       0.24552895
O        0.07882888       0.04487874      -0.05675350    -112.75460242       0.00914505       0.00774868      -0.00632248      -0.45378352
H       -1.69369916       2.76541451      -1.39216492     -13.12220393      -0.00602207       0.00733003       0.00259674       0.05785723
H       -0.28508900       2.29931732      -0.41063090     -12.88066594       0.00327425       0.00277667      -0.00187568       0.08983594
H       -1.68645132       3.07931226       0.35879277     -13.11411378      -0.00560519       0.00595881      -0.00326312       0.05903220
H       -3.76668208       1.62971848       0.63970979     -13.04439665       0.00173409       0.00838028       0.00539044       0.06375480
H       -3.67433775      -0.03681129       0.03945422     -13.09720209       0.00218983      -0.00710821       0.00431713       0.06489939
H       -3.78645825       1.31373373      -1.10516078     -13.05038617      -0.00093602       0.00706134      -0.00177567       0.06276214
H       -1.68809084      -0.91675731       0.16474674     -13.23129318      -0.00148345      -0.01190874       0.00450449       0.01782182
O        2.75745123       0.01732457      -0.03109974    -112.75252857      -0.00231387      -0.00510753      -0.01251133      -0.41539400
C        3.16829954      -0.80490702       0.98921739     -58.92369088       0.00115288       0.00093606       0.00014736       0.08931444
C        2.73033922      -2.27539779       0.78999536     -58.25961821      -0.00033049       0.00251291       0.00193272       0.47375864
F        3.05360944      -2.69555236      -0.43495252    -129.09186866      -0.00091754       0.00620396      -0.00229545      -0.18206058
F        1.41982958      -2.46751930       0.93773671    -129.09109989      -0.00917036       0.00419045      -0.01424568      -0.18209514
F        3.34614135      -3.09281212       1.65502067    -129.28778526       0.00247002      -0.00120343       0.00480941      -0.19613707
C        2.71088526      -0.29989232       2.37792129     -58.23881172      -0.00398127      -0.00102421       0.00111047       0.47388861
F        1.39330074      -0.38008790       2.56701284    -129.11700640      -0.00959666       0.00551266      -0.00320364      -0.18380495
F        3.04807142       0.98220137       2.54193751    -129.12046738       0.01004448      -0.00024163      -0.00986481      -0.18385123
F        3.29377701      -0.98414757       3.37050034    -129.28228844      -0.00433865      -0.00106168       0.00638956      -0.19532337
H        1.77504245       0.04416934      -0.10091350     -10.87412258       0.00875983      -0.00406208       0.01219241       0.36714303
H        4.26867533      -0.80088932       0.99528686     -12.50249548      -0.00329886       0.00010448       0.01138846       0.10017795
