24
Properties=species:S:1:pos:R:3:energies:R:1:forces:R:3:charge:R:1 energy=-1676.8428640495695 free_energy=-1676.8428640495695 dipole="-0.4016869008283013 0.12477678235943696 0.33792298238250673" pbc="F F F"
C       -1.03616058       0.42660928       2.21335411     -59.25625409       0.00026099       0.00124483      -0.00417404       0.02386300
O       -1.86203116       0.16223141       1.08294221    -111.13330377       0.01189393       0.00531029      -0.00197796      -0.25148298
C       -1.23756973      -0.02866798      -0.07113470     -59.26345653      -0.00388072      -0.01089120       0.00016223       0.49000741
O       -0.04007008       0.00435200      -0.22448689    -113.06810980      -0.00265531       0.01231308       0.00678376      -0.48326852
O       -2.12074732      -0.25881889      -1.02436269    -111.06718393      -0.01436902       0.00820957       0.00542246      -0.24444002
C       -1.59407138      -0.48225314      -2.33165314     -59.29194099       0.00046202      -0.00413745       0.00721519       0.01688946
H       -0.42229224       1.31322347       2.04288287     -12.94622192       0.00441815      -0.01136920      -0.00994683       0.07171283
H       -1.71989733       0.59344428       3.04152075     -12.79544253       0.00480750      -0.00941300      -0.00658363       0.08743897
H       -0.38545461      -0.42512824       2.42152288     -12.94298731      -0.00122550       0.00897953      -0.00934168       0.07192995
H       -1.05270140       0.39809049      -2.68036306     -12.89406062      -0.00008778      -0.00326712      -0.00334793       0.07862644
H       -2.45532330      -0.68034310      -2.96320774     -12.79889184      -0.00132830       0.00616490       0.00295934       0.08759800
H       -0.91377486      -1.33421335      -2.32746032     -12.87933783       0.00720054      -0.00640223      -0.00749628       0.08132734
O        2.64665647       0.01814223       0.08672422    -112.78120849       0.00019028       0.01665410      -0.00558072      -0.41303792
C        3.21236742      -0.43848896      -1.08004035     -58.90812736      -0.00086483      -0.00809330       0.00514065       0.08838414
C        2.92551514       0.48842509      -2.28469068     -58.19613406      -0.00394867      -0.00105962       0.00604202       0.47430640
F        3.23949348       1.74982269      -1.98451860    -129.09041491       0.00752931      -0.00657816      -0.00507615      -0.18060279
F        1.64485163       0.48622477      -2.66279643    -129.18259421       0.00589882       0.00485843       0.00468980      -0.18643086
F        3.65150881       0.14634914      -3.35575322    -129.27437208      -0.01361129       0.00395632       0.00949344      -0.19314805
C        2.79369945      -1.89077922      -1.40937354     -58.19261875      -0.00849903      -0.01220481      -0.00458491       0.47437030
F        1.51527905      -2.00230101      -1.78125352    -129.19944903       0.00003506      -0.00009933       0.01187195      -0.18808040
F        2.95623966      -2.67365868      -0.34130818    -129.09330861       0.00297090       0.00762502      -0.00625229      -0.18078908
F        3.53245409      -2.41246899      -2.39506601    -129.26512227       0.00298585       0.01380263       0.00606642      -0.19245838
H        1.66658512       0.05261569       0.02284227     -10.86185721      -0.00524296      -0.01035433      -0.00162177       0.36354827
H        4.30306347      -0.44555514      -0.93809602     -12.46046592       0.00706006      -0.00524897       0.00013692       0.10373648
