23
Properties=species:S:1:pos:R:3:energies:R:1:forces:R:3:charge:R:1 energy=-1565.8518429238927 free_energy=-1565.8518429238927 dipole="-0.6828010717629615 0.04435093844142127 0.26911013911082493" pbc="F F F"
C       -1.33198671       1.14892963      -0.11303003     -59.81376018       0.00028599      -0.00172152      -0.00068200      -0.15695002
C       -0.90174983      -0.26869584       0.11351857     -58.85850171       0.00018611      -0.00223411       0.00109798       0.36815674
O        0.23590568      -0.61345477       0.35806676    -112.70717678       0.00141928       0.00173624      -0.00154082      -0.44195075
O       -1.90335226      -1.12370586       0.00471580    -111.11120619      -0.00132711      -0.00200125       0.00197043      -0.23516246
C       -1.58987019      -2.50588258       0.15290418     -59.22644553      -0.00088815       0.00103324       0.00018095       0.02278743
H       -1.09922660       1.41376495      -1.14306836     -12.75349665       0.00070435       0.00120848       0.00257146       0.09936933
H       -2.40083220       1.24731911       0.04494352     -12.97165547      -0.00325780      -0.00079908       0.00331534       0.08121881
H       -0.77862114       1.81454617       0.54366532     -12.91114029      -0.00017672       0.00053725      -0.00001171       0.08588302
H       -1.28725429      -2.71423663       1.18081223     -12.97898462       0.00360945       0.00324411      -0.00378712       0.06920171
H       -0.77594446      -2.78061180      -0.51969661     -12.93177943      -0.00064634      -0.00358133      -0.00574815       0.07738964
H       -2.49683188      -3.05032379      -0.09509949     -12.91917187       0.00084209       0.00416989      -0.00087011       0.07728878
O        2.66903036       0.38737553      -0.08023523    -112.79909077       0.00261286       0.00101796       0.00183543      -0.41977488
C        3.05426399      -0.17155150      -1.27367880     -58.91926818       0.00068336       0.00284470      -0.00080593       0.08925374
C        2.32648649       0.47799895      -2.47513239     -58.14594619       0.00067991      -0.00154136       0.00232744       0.47515072
F        2.69374703       1.75302780      -2.61796968    -129.14347222       0.00083103       0.00062936       0.00033213      -0.18399147
F        0.99691718       0.47689018      -2.32698696    -129.25592691       0.00020732       0.00120834      -0.00156538      -0.19135593
F        2.59617970      -0.13897301      -3.62944925    -129.27171658      -0.00285268      -0.00544143      -0.00214714      -0.19300495
C        2.85897323      -1.70581188      -1.32584205     -58.22465053       0.00141278       0.00569462      -0.00013578       0.47495600
F        1.61227586      -2.06878317      -1.64557475    -129.22568811      -0.00470979      -0.00213758       0.00248398      -0.19083068
F        3.14195525      -2.26351045      -0.15156191    -129.01857433      -0.00065976       0.00108629       0.00148331      -0.17514703
F        3.66725732      -2.26674408      -2.23420908    -129.27896252       0.00396255      -0.00225733       0.00212222      -0.19421977
H        1.75731341       0.09339778       0.17844432     -10.89014294      -0.00081120      -0.00140622      -0.00202481       0.36109453
H        4.12865784       0.02330223      -1.40710605     -12.49508492      -0.00210752      -0.00128925      -0.00040171       0.10063748
