25
Properties=species:S:1:pos:R:3:energies:R:1:forces:R:3:charge:R:1 energy=-1540.937425159695 free_energy=-1540.937425159695 dipole="-0.6468328480516489 0.2507390026093778 -0.2219331035759183" pbc="F F F"
C       -2.15296947       0.82071955      -0.21070308     -59.18397105       0.00146774      -0.00220143      -0.00154418      -0.06218435
C       -2.34542719      -0.64048196       0.19222157     -59.21030416       0.00198499      -0.00189431       0.00344541      -0.06417010
C       -0.98711076      -1.25908637      -0.14944385     -59.03777080       0.00141286       0.00090500      -0.00008752       0.07375416
O       -0.03680826      -0.19292064      -0.17281797    -112.05981515       0.00177351       0.00340964      -0.00152300      -0.34341130
C       -0.68542441       1.03248005       0.14372784     -59.07001230      -0.00046305       0.00137061      -0.00120758       0.07530673
H       -2.30084705       0.94246656      -1.28414230     -13.23967961      -0.00017622       0.00235747      -0.00117683       0.04772583
H       -2.81131870       1.50175028       0.32225609     -13.32877461       0.00085802      -0.00179667      -0.00432929       0.04457600
H       -3.15863659      -1.12626390      -0.34123087     -13.30851731      -0.00090662       0.00416646       0.00134192       0.04551991
H       -2.53277311      -0.71164739       1.26350751     -13.24443700       0.00267572      -0.00163511       0.00547024       0.04747634
H       -0.67252844      -2.00300546       0.58695859     -13.16263111       0.00439425       0.00130159      -0.00297781       0.04791959
H       -0.98983974      -1.72005225      -1.14330343     -13.17026795       0.00194820      -0.00194657       0.00217391       0.04179301
H       -0.57046404       1.24106821       1.21570001     -13.20153927      -0.00370035      -0.00154140      -0.00233415       0.03756907
H       -0.20132370       1.82281548      -0.43250574     -13.17296928       0.00095022       0.00177523       0.00373357       0.04816554
O        2.66378806      -0.02320382      -0.05895831    -112.77826219      -0.00142519      -0.00111750       0.00056002      -0.41543719
C        3.20466726      -0.73891664       0.98187728     -58.90734732      -0.00022280      -0.00496738      -0.00139310       0.08778280
C        2.96820646      -2.26253118       0.84529209     -58.18813961      -0.00362077      -0.00063340      -0.00078789       0.47388821
F        3.14700238      -2.65554427      -0.41504484    -129.06505748       0.00111616       0.00177537      -0.00032942      -0.17834070
F        1.73141841      -2.62954898       1.19689634    -129.23809928       0.00082682      -0.00749441       0.00156325      -0.19078046
F        3.81660871      -2.96546328       1.60261905    -129.24125058      -0.00110959       0.00205501      -0.00265432      -0.19068116
C        2.68848441      -0.25380822       2.35601561     -58.17922141       0.00031390       0.00014620      -0.00258748       0.47455488
F        1.35573661      -0.27586147       2.43510312    -129.15578003       0.00180861       0.00393702       0.00614566      -0.18442517
F        3.06907174       1.00533469       2.58351339    -129.14469110      -0.00265102       0.00077625      -0.00098993      -0.18395969
F        3.15866785      -0.99408968       3.36465839    -129.25979622      -0.00472034       0.00050557      -0.00115252      -0.19207303
H        1.68076991      -0.12438848      -0.11346128     -10.92050873      -0.00215255       0.00039777       0.00003318       0.35593113
H        4.29258232      -0.57901928       0.96725476     -12.46858160      -0.00038249       0.00034899       0.00060785       0.10349996
