24
Properties=species:S:1:pos:R:3:energies:R:1:forces:R:3:charge:R:1 energy=-1676.8840887250215 free_energy=-1676.8840887250215 dipole="-0.35166883816875205 0.0788165340908599 0.3075422116622994" pbc="F F F"
C       -0.66715061      -0.15019165       2.10365234     -59.27885637       0.00063928       0.00097357      -0.00229919       0.02080730
O       -1.49869094      -0.53104260       1.01031312    -111.10572139      -0.00244152       0.00114925       0.00282574      -0.24952089
C       -1.07998394      -0.18052761      -0.19590244     -59.28714305       0.00414232      -0.00442202      -0.00044027       0.49081388
O       -0.06786986       0.44131409      -0.42136449    -113.12949001       0.00103127       0.00096438      -0.00159691      -0.48938452
O       -1.93966515      -0.59799883      -1.10488839    -111.04589156      -0.00136250       0.00047288      -0.00079634      -0.24333881
C       -1.61680013      -0.34096444      -2.47057589     -59.29607025      -0.00137647       0.00294820       0.00177472       0.01638810
H       -0.48660989       0.92620771       2.09159182     -12.95048924       0.00080967       0.00117463      -0.00188924       0.07153500
H       -1.21389571      -0.43509613       2.99799829     -12.79534261      -0.00360274      -0.00040035       0.00480478       0.08770119
H        0.28813722      -0.67605258       2.05873064     -12.90338054       0.00285970      -0.00146974      -0.00294630       0.07766103
H       -1.07035699       0.59792204      -2.56643946     -12.88206784      -0.00119012       0.00236726      -0.00191136       0.08238127
H       -2.56439976      -0.29515416      -3.00112527     -12.81533618      -0.00163764      -0.00241848      -0.00293226       0.08525122
H       -1.00231967      -1.15403858      -2.85935480     -12.86843056       0.00162150       0.00435008      -0.00021803       0.08043470
O        2.58096955       0.73998832      -0.09685971    -112.78279673      -0.00000773       0.00138566      -0.00015508      -0.41252640
C        3.07169354      -0.17905484      -0.99234620     -58.91127141      -0.00042881      -0.00109396       0.00197755       0.08775371
C        2.97184931       0.31055095      -2.45704650     -58.17830579      -0.00316290      -0.00098326       0.00285632       0.47557069
F        3.78485174       1.34722330      -2.66458440    -129.11529856       0.00220224       0.00151845      -0.00142034      -0.18195264
F        1.74145113       0.70429201      -2.78601737    -129.11323178      -0.00510624       0.00042248       0.00110148      -0.18116672
F        3.32913750      -0.64658933      -3.32272670    -129.30430481      -0.00100337      -0.00229292      -0.00187112      -0.19554351
C        2.39388052      -1.56731773      -0.86775559     -58.16433619       0.00337497       0.00071959       0.00307739       0.47585828
F        1.32237365      -1.71539561      -1.65201964    -129.23861975      -0.00081070      -0.00216028      -0.00384383      -0.19112460
F        1.98693290      -1.78135617       0.38548935    -129.16060463       0.00047021       0.00000546       0.00362826      -0.18427054
F        3.23968300      -2.55360560      -1.18078083    -129.24748743       0.00494049      -0.00171652      -0.00072835      -0.19059690
H        1.60415964       0.82319400      -0.17850146     -10.85071610       0.00100722      -0.00179714       0.00020592       0.36360113
H        4.14024275      -0.31945271      -0.77326219     -12.45889593      -0.00096816       0.00030280       0.00079645       0.10366804
