25
Properties=species:S:1:pos:R:3:energies:R:1:forces:R:3:charge:R:1 energy=-1540.9318209917726 free_energy=-1540.9318209917726 dipole="-0.684746219628277 0.2762283141078557 -0.2900890645776779" pbc="F F F"
C       -2.19296098       0.80480806      -0.25354321     -59.19682861      -0.00518299       0.01055944      -0.00227155      -0.06258952
C       -2.34167989      -0.64171000       0.21300899     -59.20732596       0.00447903       0.00228567       0.00582660      -0.06347174
C       -0.96400391      -1.20931607      -0.11676875     -59.04789719      -0.00395843      -0.01077096      -0.00214613       0.07499987
O       -0.04186616      -0.13218374       0.03053028    -112.05404240       0.00484770      -0.00253564      -0.00716682      -0.34422926
C       -0.74407869       1.10445467       0.12188677     -59.04515345      -0.00109052       0.00354846       0.00285037       0.07585882
H       -2.32126050       0.86526767      -1.33464834     -13.24945113      -0.00921925       0.00720829      -0.00794304       0.04628170
H       -2.88872369       1.48696095       0.22681327     -13.31709380      -0.02249308       0.00104841       0.00595069       0.04544823
H       -3.13998960      -1.17601614      -0.29576011     -13.31604780       0.00641559       0.00001062      -0.00330831       0.04536839
H       -2.51594603      -0.67890377       1.28806256     -13.22706187       0.00464651       0.01398281       0.01362095       0.04967006
H       -0.65599129      -2.01425802       0.55268942     -13.12794959      -0.01178992      -0.00815372      -0.00901746       0.05363400
H       -0.92421028      -1.56468211      -1.15442435     -13.20460107       0.01128962      -0.01296185      -0.00137942       0.03631651
H       -0.66821508       1.47163293       1.15279467     -13.18039896      -0.00815212      -0.00673413       0.00569946       0.04006712
H       -0.26846750       1.82532368      -0.54789270     -13.19183974       0.01717610      -0.01001531       0.00429929       0.04423410
O        2.64703502      -0.04814713      -0.04105607    -112.78353657       0.00967286       0.00992720      -0.00873451      -0.41655345
C        3.20801849      -0.77038829       0.98402234     -58.91058051       0.00502708      -0.00803261      -0.01529583       0.08804605
C        2.98484623      -2.29515422       0.83384559     -58.19085948      -0.00528575      -0.00777446       0.00244978       0.47352387
F        3.20501281      -2.68081477      -0.42296622    -129.07638234      -0.00102076       0.00963785      -0.00274606      -0.17935874
F        1.74295921      -2.67901270       1.14628887    -129.22924089       0.00167231       0.00958956      -0.00708115      -0.19005471
F        3.81800987      -2.99394783       1.61169831    -129.24329179       0.00719973      -0.00996330      -0.00077491      -0.19119293
C        2.72081346      -0.30633051       2.37455585     -58.20697468      -0.00544545      -0.00225647       0.00578604       0.47425392
F        1.40125367      -0.42690329       2.52907530    -129.12758881      -0.01653278       0.01000150      -0.00854016      -0.18291118
F        3.01788824       0.98038862       2.57077058    -129.13792149       0.00686874       0.00421190      -0.00314752      -0.18376717
F        3.29884727      -0.99823833       3.36182015    -129.25955877       0.00859628       0.00583688       0.02164245      -0.19260701
H        1.65965062      -0.10755103      -0.04394955     -10.93415698      -0.01029630      -0.00592875       0.00107867       0.35576658
H        4.29459138      -0.60447706       0.94913631     -12.46603709       0.01257580      -0.00272137       0.01034858       0.10326650
