18
Properties=species:S:1:pos:R:3:energies:R:1:forces:R:3:charge:R:1 energy=-1310.1233838662693 free_energy=-1310.1233838662693 dipole="-0.4747364996880926 -0.4350863110035565 0.2196964869743374" pbc="F F F"
C       -1.01920238       0.14087186       0.06079498     -59.40831526      -0.00159850       0.00495367      -0.00084946       0.02903225
O        0.20796671      -0.34942888       0.56810234    -113.32888798      -0.00429370      -0.00551600      -0.00011763      -0.45198932
H       -1.48449074       0.83508713       0.76400213     -13.21524973       0.00099334       0.00566006       0.00145164       0.04346975
H       -0.78585859       0.67202177      -0.85884556     -13.01627948       0.00035963      -0.00289180      -0.00411266       0.06999785
H       -1.70900952      -0.67847519      -0.15780490     -13.24193684       0.00375862       0.00053083       0.00197276       0.03923474
H        0.04939762      -0.80635319       1.40107955     -11.45177432       0.00572218       0.00286715      -0.00358281       0.30366973
O        2.76636983      -0.02410719      -0.25638815    -112.78071280       0.00260442      -0.00157071      -0.00260536      -0.41290195
C        3.11383439       1.26475506       0.07514117     -58.90325447      -0.00030310      -0.00082111      -0.00297313       0.08607653
C        2.59067890       1.69154430       1.46797025     -58.18650176      -0.00399709       0.00044854      -0.00074827       0.47427199
F        2.58651456       0.65444666       2.30832163    -129.13472050       0.00367725       0.00008054      -0.00113804      -0.18237911
F        1.34298388       2.16741005       1.43748621    -129.18052758      -0.00323549      -0.00042393       0.00351936      -0.18671386
F        3.35926166       2.63896992       2.01311589    -129.24224885      -0.00150441      -0.00088410      -0.00347953      -0.19006370
C        2.63518815       2.28212363      -0.99014699     -58.15097500      -0.00282912       0.00180077      -0.00180547       0.47567863
F        1.34870827       2.11172188      -1.30271443    -129.15280434       0.00063392       0.00140612       0.00321858      -0.18358942
F        3.33242256       2.14820736      -2.11947079    -129.13086698      -0.00180595      -0.00054061       0.00601657      -0.18286497
F        2.78594869       3.54702463      -0.58402842    -129.27466155      -0.00354621      -0.00214124      -0.00244318      -0.19298566
H        1.80482946      -0.18655733      -0.11506777     -10.85799340       0.00527549       0.00298949       0.00343025       0.35835341
H        4.21155295       1.32035522       0.10380725     -12.46567303       0.00008874      -0.00594766       0.00424640       0.10370311
