24
Properties=species:S:1:pos:R:3:energies:R:1:forces:R:3:charge:R:1 energy=-2171.998425357545 free_energy=-2171.998425357545 dipole="0.23498141372724046 -0.2393917587842215 0.04472938480915314" pbc="F F F"
O        0.08824855      -0.09063038       0.97762007    -113.06529256       0.00025669      -0.00009750       0.00089825      -0.40976338
C       -1.09483098       0.15303083       0.28902025     -58.77110852       0.00129842      -0.00147112      -0.00071149       0.07686496
C       -1.77672101       1.44254467       0.80264417     -58.15531126       0.00051869      -0.00153215      -0.00148156       0.47859695
F       -1.12732255       2.52588287       0.38866987    -129.00910875       0.00169352       0.00229198       0.00030861      -0.17282559
F       -1.77660391       1.46241919       2.14072268    -129.18059154       0.00268880       0.00222077      -0.00125393      -0.18478484
F       -3.03940908       1.55059099       0.39639090    -129.11501803       0.00231687       0.00025373      -0.00021258      -0.17973737
C       -2.05252836      -1.05589546       0.40965616     -58.09913384       0.00143700      -0.00094967       0.00050394       0.47823224
F       -2.54441386      -1.17218585       1.64691895    -129.19887465       0.00183898      -0.00112207       0.00165672      -0.18590833
F       -1.39539743      -2.18502761       0.14205420    -129.07121523      -0.00465151       0.00370829      -0.00225387      -0.17708337
F       -3.07636378      -0.97753248      -0.43521908    -129.11660729      -0.00132186      -0.00147667       0.00119562      -0.17865095
H       -0.06715462      -0.11388919       1.93594237     -10.75229806       0.00053081       0.00005225       0.00173860       0.34511389
H       -0.84120387       0.28751160      -0.76953611     -12.28622623       0.00019059      -0.00146032       0.00111405       0.12414576
O        2.86570576      -0.07307745       0.22415371    -112.74411766       0.00065882       0.00118172       0.00239728      -0.39942317
C        3.21830800       1.25580680       0.10205107     -58.88206331      -0.00041893       0.00031554      -0.00148601       0.08122648
C        2.89282141       2.05439590       1.38589937     -58.12123009      -0.00225704      -0.00080840      -0.00026292       0.47504157
F        3.35778276       1.41072349       2.45764628    -129.09676783      -0.00347290      -0.00513144       0.00442923      -0.17910665
F        1.57395526       2.19724685       1.56654400    -129.30056603      -0.00478633       0.00178854      -0.00311561      -0.19297088
F        3.43665281       3.26913159       1.38420980    -129.14015249       0.00179448       0.00195583       0.00023090      -0.18089339
C        2.54237365       1.90564781      -1.12946863     -58.08900378      -0.00106898       0.00012609      -0.00000623       0.47667399
F        1.23953836       1.59218461      -1.18215230    -129.35368759      -0.00018981       0.00000316       0.00235854      -0.19579512
F        3.08997335       1.45623343      -2.25835625    -129.09071890       0.00119974       0.00197247       0.00056266      -0.17835916
F        2.63610428       3.23265376      -1.14157417    -129.14353271      -0.00148656      -0.00168817      -0.00159442      -0.18132372
H        1.90990107      -0.17787047       0.39013846     -10.86095571       0.00247263      -0.00120446      -0.00324957       0.34628383
H        4.30571772       1.29728521      -0.04783656     -12.35484332       0.00075788       0.00107161      -0.00176620       0.11444626
