24
Properties=species:S:1:pos:R:3:energies:R:1:forces:R:3:charge:R:1 energy=-1548.5508072670134 free_energy=-1548.5508072670134 dipole="-1.1227471054748086 0.4386068191689151 -0.0718076938654964" pbc="F F F"
C       -1.45488056       2.46662263      -0.47825927     -59.54478461      -0.00396243       0.00238485      -0.00271555      -0.05765094
N       -1.63076882       1.05837429      -0.21112976     -79.36119235      -0.00228712       0.00262354      -0.00463109      -0.05101404
C       -2.92487941       0.65075828       0.26622995     -59.67435908       0.00108547       0.00050755       0.00097040      -0.06036776
C       -0.62006811       0.21031432      -0.36954483     -59.09296695      -0.00222928       0.00089531      -0.00057840       0.23971875
O        0.49569641       0.52219958      -0.75484017    -112.77610913       0.00104490       0.00384019      -0.00403281      -0.45295031
H       -2.16724469       2.79918033      -1.23523030     -13.11891572      -0.00614301       0.00062445      -0.00094951       0.05833330
H       -0.44070934       2.61933418      -0.84183334     -12.85504109      -0.00031680       0.00212466       0.00750308       0.09271675
H       -1.60630179       3.04694075       0.43376780     -13.10508058       0.00081941      -0.00070701      -0.00106747       0.06002590
H       -3.15533072       1.15723173       1.20653203     -13.02383429      -0.00478189       0.00146328      -0.00047709       0.06583975
H       -2.93845932      -0.42404207       0.43296440     -13.07895818      -0.00142182      -0.00125154       0.00119237       0.06714977
H       -3.69492562       0.90815217      -0.46508248     -13.03987976      -0.00084938       0.00065882       0.00062269       0.06397811
H       -0.87887467      -0.82929252      -0.11959376     -13.20285219       0.00268983      -0.00147371      -0.00561397       0.02251090
O        2.98882810      -0.08960144      -0.07580231    -112.72693051      -0.00045185      -0.00386467      -0.00189145      -0.41841267
C        2.99661299      -0.86461254       1.05410034     -58.94088981       0.00333083       0.00025274       0.00075300       0.09059909
C        2.37200354      -2.26407872       0.83212353     -58.20862457      -0.00132491       0.00222033       0.00555011       0.47338637
F        2.78419330      -2.78699035      -0.32100116    -129.03809950       0.00148767       0.00105516       0.00441834      -0.17735874
F        1.03451733      -2.24866314       0.79802055    -129.26194139      -0.00405319       0.00391533      -0.00072909      -0.19327843
F        2.72301774      -3.11940363       1.80027011    -129.27788120       0.00236551      -0.00610326       0.00005482      -0.19443476
C        2.32143138      -0.17371297       2.26170324     -58.19228834       0.00317383      -0.00113525      -0.00245012       0.47415307
F        1.03073761       0.10780432       2.05540731    -129.23463124      -0.00302362       0.00017843       0.00305259      -0.19094248
F        2.92835642       0.98015238       2.54240045    -129.10310812       0.00185307       0.00195506       0.00186594      -0.18175188
F        2.38084479      -0.92605232       3.36736935    -129.29071017       0.00382036      -0.00388568       0.00273693      -0.19530959
H        2.06805273       0.12323415      -0.38900897     -10.90753372       0.00253770      -0.00580849      -0.00475505       0.36491010
H        4.04713836      -1.03309617       1.33583059     -12.49419480       0.00663673      -0.00047008       0.00117131       0.10014976
