12
Properties=species:S:1:pos:R:3:energies:R:1:forces:R:3:charge:R:1 energy=-396.2431308276932 free_energy=-396.2431308276932 dipole="-0.35563679006535104 -0.0008863021114687769 0.12760162776842182" pbc="F F F"
C        1.14915217      -0.66749349       0.40056192     -59.46085932       0.00281775      -0.00279007       0.00096444      -0.11301595
C        0.10773148       0.42205178       0.17314907     -59.16211675       0.00160248      -0.00269563       0.00074020       0.12579940
O        0.60224717       1.26372722      -0.85180242    -112.96125519       0.00034406       0.00039037      -0.00363280      -0.44839874
C       -1.24795101      -0.17569862      -0.20291206     -59.45637068      -0.00243462      -0.00137618      -0.00044155      -0.11994462
H        2.10703700      -0.21433412       0.63925433     -13.25880009      -0.00025092       0.00320971      -0.00030178       0.05289158
H        0.84553337      -1.31574665       1.21747155     -13.40549049       0.00001440       0.00058134       0.00163969       0.03807726
H        1.26398606      -1.25747921      -0.50477092     -13.24875289      -0.00168256      -0.00006582      -0.00055294       0.05276403
H       -0.00682584       1.01000204       1.10084596     -13.39122815       0.00000811       0.00224252       0.00200003       0.00822654
H       -0.07684222       1.90618479      -1.08294415     -11.75066917       0.00091562       0.00068835       0.00000526       0.28276233
H       -1.15618115      -0.75210757      -1.12077513     -13.29627412       0.00103104       0.00037819      -0.00155893       0.04875687
H       -1.60161417      -0.82920525       0.58967958     -13.40056221      -0.00246448      -0.00351958      -0.00115642       0.03963159
H       -1.98627284       0.61009907      -0.35775772     -13.45075175       0.00009913       0.00295681       0.00229480       0.03244970
