12
Properties=species:S:1:pos:R:3:energies:R:1:forces:R:3:charge:R:1 energy=-396.2426580508431 free_energy=-396.2426580508431 dipole="-0.3484759414599399 0.010427411636583651 0.13813546029984713" pbc="F F F"
C        1.14968803      -0.66687581       0.39877207     -59.46082775       0.00280985      -0.00838044       0.00089638      -0.11298697
C        0.10537541       0.41856411       0.16711190     -59.16140578       0.01550401       0.01418630       0.00451560       0.12584145
O        0.59963309       1.25680402      -0.86071080    -112.95703199       0.00392325       0.00341631      -0.01382280      -0.44816299
C       -1.25234180      -0.17979707      -0.20210652     -59.45574188       0.01531872       0.00701098       0.00008346      -0.11989681
H        2.10359052      -0.20870118       0.64353871     -13.26017130       0.00325185      -0.00054999       0.00581124       0.05262789
H        0.84297085      -1.31654241       1.21285443     -13.40418984       0.00346636      -0.00798985       0.01559289       0.03816359
H        1.27489562      -1.25660104      -0.50477249     -13.24825372      -0.01249641      -0.00186977      -0.01990718       0.05295016
H       -0.00539616       1.00943662       1.09300199     -13.39292892      -0.01443740       0.00742067       0.01056316       0.00789698
H       -0.06166501       1.92568363      -1.06715335     -11.75590677      -0.01053778      -0.01238192       0.00033508       0.28240305
H       -1.16470228      -0.76348333      -1.11556708     -13.29540509       0.00672160       0.00105093      -0.00388392       0.04897067
H       -1.60452318      -0.82642908       0.59696650     -13.40255583      -0.00775714       0.00522647      -0.00701972       0.03945693
H       -1.98752508       0.60794154      -0.36193536     -13.44823916      -0.00576692      -0.00713970       0.00683581       0.03273605
