23
Properties=species:S:1:pos:R:3:energies:R:1:forces:R:3:charge:R:1 energy=-875.9824730649466 free_energy=-875.9824730649466 dipole="-0.5238309929356683 -0.008091888473257692 -0.06311893612059857" pbc="F F F"
C       -2.75768162       0.97905193      -0.20276508     -59.68634459       0.00032188       0.00052698      -0.00280992      -0.14845178
C       -1.47227025       0.25785976       0.09884988     -58.94087228       0.00213038       0.00089350      -0.00262000       0.36418810
O       -0.50458880       0.76683324       0.61105931    -112.47188198      -0.00452527       0.00078204       0.00374740      -0.42812257
O       -1.53828598      -1.02078675      -0.25694317    -111.24534125      -0.00274988      -0.00168546       0.00056887      -0.25174813
C       -0.40106383      -1.83932487       0.00650227     -59.24607663      -0.00054810       0.00014604       0.00233966       0.02083323
H       -3.37579283       0.38230848      -0.86530203     -13.05790318      -0.00157264      -0.00015046      -0.00213335       0.07378805
H       -3.28897694       1.15154578       0.73142699     -12.91596288       0.00380724       0.00155984      -0.00119629       0.08325638
H       -2.53670834       1.94522999      -0.64847126     -12.95896731       0.00087790      -0.00224329       0.00281832       0.08132720
H       -0.13285283      -1.78636423       1.06279340     -13.00462901       0.00080733      -0.00556128       0.00197402       0.06839147
H        0.45551548      -1.51566886      -0.58637568     -12.88017147       0.00354498       0.00600655       0.00125373       0.08303319
H       -0.69265769      -2.85082361      -0.26367944     -12.97832484       0.00042054       0.00297707       0.00201469       0.07207951
C        4.53950046       0.66259751       0.21646734     -59.41798325      -0.00170858      -0.00116950      -0.00243598      -0.11109601
C        3.10499633       1.17465063       0.30621588     -59.21549194       0.00218418      -0.00079057      -0.00270875       0.12815356
O        2.24581143       0.05490599       0.26357686    -113.22272559       0.00449128      -0.00028980      -0.00086041      -0.47816695
C        2.88202987       1.99407670       1.57680762     -59.44533454       0.00318727      -0.00279958      -0.00232827      -0.12073641
H        4.66574505       0.07910468      -0.69149370     -13.32533515      -0.00203003      -0.00233510      -0.00046759       0.04606529
H        5.23862919       1.49421174       0.20638645     -13.45480602      -0.00369847       0.00279354       0.00089950       0.03330158
H        4.75357897       0.02242381       1.06846504     -13.30028950      -0.00333648       0.00477019       0.00399258       0.04776280
H        2.90085184       1.81948725      -0.56821282     -13.43111646      -0.00074092      -0.00011062       0.00038152       0.00276272
H        1.35052054       0.35895747       0.48623479     -11.60592243      -0.00274611      -0.00089841      -0.00403574       0.31258222
H        3.10674989       1.39001119       2.45319970     -13.34847767       0.00113574      -0.00545454      -0.00287715       0.04367381
H        3.52352376       2.87146799       1.57821931     -13.46884686       0.00023017       0.00189291       0.00465713       0.03282680
H        1.84389061       2.31659122       1.63403235     -13.35966824       0.00051761       0.00113995      -0.00017398       0.04429593
