23
Properties=species:S:1:pos:R:3:energies:R:1:forces:R:3:charge:R:1 energy=-875.9034658731051 free_energy=-875.9034658731051 dipole="-0.8016792412197463 -0.30997675991977663 0.1614810925577169" pbc="F F F"
C       -2.16153080       1.21879361      -0.10746132     -59.70383621       0.00955289       0.00201124       0.00188129      -0.14903847
C       -1.30790479      -0.00923854       0.04395706     -58.90534689      -0.00180785       0.00186452      -0.01486692       0.36471130
O       -0.10937678      -0.02184439       0.16387442    -112.39003267      -0.00419287      -0.01889018       0.00578647      -0.42051201
O       -2.05688273      -1.11519076       0.03532376    -111.29792748      -0.00897251       0.00147634       0.00704106      -0.25803466
C       -1.37500421      -2.35292345       0.18281224     -59.18373236      -0.00198292      -0.00260848      -0.00293449       0.03246209
H       -2.79076016       1.11795195      -0.98835599     -12.96505013       0.00686298      -0.00002072       0.01781387       0.07997507
H       -2.80774596       1.30921726       0.76312892     -12.94025092       0.00088475       0.00836415      -0.01428192       0.08129102
H       -1.53338632       2.09986423      -0.19243214     -13.00204593       0.01417775      -0.01095825       0.00271752       0.07965618
H       -0.83609482      -2.38000544       1.13229992     -13.06369417      -0.00998786       0.00464114       0.00611204       0.06102474
H       -0.66433389      -2.49554969      -0.63362284     -13.02357147       0.00671375       0.00148459      -0.00454049       0.06520104
H       -2.13986811      -3.12422704       0.16123013     -12.97796620      -0.00347883      -0.00970142      -0.00686761       0.07156694
C        4.81859199      -0.90352759       0.97844342     -59.42381940       0.00541815      -0.00001084      -0.00855273      -0.11158919
C        3.29520532      -0.82450901       1.00261372     -59.22852569       0.00010998      -0.00102095       0.00080608       0.12800931
O        2.89047680      -0.00073672      -0.06831504    -113.00756428      -0.00350695       0.00474909      -0.00748731      -0.45991519
C        2.67186661      -2.21739968       0.89373154     -59.41642069      -0.00767972      -0.00880203       0.00010514      -0.11961218
H        5.24363372       0.09330402       1.05158801     -13.30730509      -0.01524962       0.01502101      -0.00520260       0.04838233
H        5.18075077      -1.50708556       1.80626696     -13.45783179      -0.00847003       0.00070316       0.00683541       0.03258443
H        5.14418629      -1.34737755       0.04174531     -13.28546538       0.00404940      -0.00395932      -0.01526874       0.04930545
H        2.97345729      -0.37011032       1.95624732     -13.42208587       0.01266086       0.00522188       0.01260015       0.00451137
H        1.92404910       0.04224540      -0.07284697     -11.64644869       0.00317303       0.00752499       0.01663759       0.30880950
H        2.94549557      -2.67060306      -0.05623441     -13.35120081       0.01298623      -0.00262754      -0.00461800       0.04343844
H        3.01704368      -2.85507596       1.70307197     -13.48175462       0.00391597      -0.00140778       0.01235973       0.03130637
H        1.58859570      -2.14251154       0.94339697     -13.42158913      -0.01517660       0.00694540      -0.00607554       0.03646613
