23
Properties=species:S:1:pos:R:3:energies:R:1:forces:R:3:charge:R:1 energy=-875.9836174974538 free_energy=-875.9836174974538 dipole="-0.43767392800198085 -0.06980394899255127 0.025758344293568367" pbc="F F F"
C       -2.49148877       1.10741124       0.03311766     -59.69027837       0.00228834      -0.00265002      -0.00029917      -0.14873977
C       -1.41372800       0.09149225      -0.22809579     -58.93836392      -0.00419667      -0.00492274      -0.00250578       0.36439693
O       -0.56780103       0.19217051      -1.08436645    -112.49044208       0.00184190       0.00384553       0.00007445      -0.43076213
O       -1.50550240      -0.94141274       0.60280334    -111.23900132      -0.00261870      -0.00030297       0.00127245      -0.25125063
C       -0.54053070      -1.98185069       0.46424379     -59.23588108      -0.00156927       0.00165001       0.00299768       0.02074413
H       -3.02749677       1.31203770      -0.89051585     -12.94590834       0.00539508      -0.00044119       0.00135243       0.08186455
H       -3.17293477       0.74350805       0.79469059     -13.06922982      -0.00587831      -0.00094387       0.00065006       0.07298064
H       -2.02699354       2.03396203       0.36366047     -12.91379574       0.00154662       0.00088328      -0.00328864       0.08415123
H        0.45372877      -1.61950034       0.73283635     -12.85137986       0.00121565      -0.00136862      -0.00358222       0.08736678
H       -0.52138427      -2.34077875      -0.56656396     -13.04921125       0.00050064      -0.00183005      -0.00084295       0.06380019
H       -0.85540210      -2.77461461       1.13748453     -12.99971782      -0.00155492       0.00071056       0.00472325       0.07033847
C        4.42839009      -0.75158164      -0.93817506     -59.42373910       0.00040582      -0.00207139       0.00124414      -0.11146233
C        3.01755141      -0.61537586      -1.50184601     -59.20915444       0.00142428       0.00154165       0.00110087       0.12787752
O        2.14315329      -0.38427480      -0.41684939    -113.20867394       0.00282144      -0.00569436      -0.00272689      -0.47662348
C        2.93382620       0.51403747      -2.52670643     -59.45128504      -0.00319378       0.00326675      -0.00159055      -0.12068126
H        4.45557533      -1.54944004      -0.20092752     -13.32285733      -0.00085697       0.00117950       0.00137665       0.04625002
H        5.13323654      -0.97594755      -1.73384836     -13.44776118       0.00173218       0.00027067      -0.00052331       0.03397971
H        4.71702339       0.17679265      -0.45180739     -13.29135721       0.00404053      -0.00604740      -0.00250753       0.04876024
H        2.73610133      -1.56336946      -1.99619905     -13.43123493      -0.00265360       0.00065880       0.00431841       0.00269209
H        1.28410433      -0.11015916      -0.77816522     -11.61689985       0.00061127       0.00269710       0.00263758       0.31166687
H        3.22899711       1.45380678      -2.06505886     -13.33825942       0.00290888       0.00271347      -0.00511273       0.04481701
H        3.58935961       0.31152742      -3.36984324     -13.45875503       0.00002079       0.00354941       0.00619872       0.03386833
H        1.91267923       0.61207494      -2.89072342     -13.36043042      -0.00423121       0.00330588      -0.00496693       0.04396488
