23
Properties=species:S:1:pos:R:3:energies:R:1:forces:R:3:charge:R:1 energy=-875.9213998529596 free_energy=-875.9213998529596 dipole="-0.8103719182836749 0.06670175412033719 0.0725438339398792" pbc="F F F"
C       -2.20109640       1.22659965      -0.10522821     -59.69227752      -0.00408232       0.00467530       0.00038877      -0.14842703
C       -1.29007217       0.03624280       0.01376869     -58.91576349      -0.00237724       0.01177302       0.00064377       0.36465455
O       -0.08668328       0.08563779       0.05170427    -112.40542403      -0.00058678      -0.00973459       0.00813437      -0.42242176
O       -1.98552863      -1.09926562       0.07857879    -111.28798326       0.01541395      -0.00431024      -0.00215989      -0.25617645
C       -1.23870188      -2.30416553       0.19456349     -59.20357125       0.01036263      -0.01149941       0.00031765       0.02935869
H       -2.83687563       1.11042218      -0.97928851     -12.96224877      -0.00004267       0.00154843       0.00544911       0.08007627
H       -2.83930912       1.27886675       0.77366246     -12.95468624      -0.00192805       0.00621359      -0.00545671       0.08033977
H       -1.61085906       2.13375548      -0.19027829     -13.02123261      -0.00367118      -0.00062325       0.00016050       0.07732705
H       -0.61091412      -2.28135509       1.08714030     -13.01456804       0.00308180       0.01838574       0.00562428       0.06644756
H       -0.60020794      -2.44308823      -0.67968600     -13.01530691       0.00645202       0.01360422      -0.00799478       0.06631693
H       -1.96935398      -3.10529737       0.26317383     -12.97233702      -0.00433002      -0.00991292       0.00001796       0.07208219
C        4.78115100       1.31143584       0.31208356     -59.41718268       0.01058119      -0.00444361       0.00059643      -0.11120462
C        3.25944848       1.27336134       0.21230255     -59.23285920       0.00019624       0.00147574      -0.00092528       0.12764884
O        2.87445272      -0.06998657       0.01626996    -113.04397497      -0.00274316      -0.00581808       0.00032744      -0.46345555
C        2.60985465       1.85750969       1.46720101     -59.42126122      -0.00796949      -0.00015348       0.00658907      -0.11983382
H        5.22164745       0.88536524      -0.58451284     -13.31506716      -0.00566288      -0.01658783      -0.01423466       0.04743502
H        5.12853045       2.33427659       0.42767281     -13.46099409      -0.00764443       0.01425391      -0.00150527       0.03231917
H        5.10581978       0.72441688       1.16672096     -13.29485409      -0.00026631      -0.01407623       0.01172950       0.04838878
H        2.94286776       1.87423182      -0.65897602     -13.42377143       0.00323560       0.00447614      -0.00918612       0.00371544
H        1.90778169      -0.10857382       0.02699145     -11.63980397       0.00740116       0.00385639      -0.00430868       0.30988041
H        2.89972743       1.27366727       2.33783298     -13.35291905       0.00432436      -0.00364486       0.00590040       0.04323209
H        2.92222257       2.88824762       1.61317619     -13.48112623      -0.00675197       0.00660831      -0.00621705       0.03129119
H        1.52656253       1.82604234       1.37212057     -13.39218663      -0.01299243      -0.00606628       0.00610919       0.04100527
