23
Properties=species:S:1:pos:R:3:energies:R:1:forces:R:3:charge:R:1 energy=-875.9169039197504 free_energy=-875.9169039197504 dipole="-0.8062304481985567 -0.19383427325000174 -0.19140185807433477" pbc="F F F"
C       -2.17253468       1.21310835      -0.10861257     -59.70158698      -0.00050193       0.00294880      -0.00383847      -0.14893290
C       -1.28374406       0.00183435      -0.06258660     -58.91107280      -0.00535325       0.01026332      -0.00450816       0.36451212
O       -0.08737599       0.01227080      -0.20670747    -112.40925497      -0.00584017      -0.01433629      -0.00134836      -0.42292141
O       -1.98933642      -1.11054705       0.14766002    -111.29154993       0.01051784      -0.00024657       0.00587384      -0.25656331
C       -1.25739745      -2.32797414       0.21189687     -59.19443040       0.00702099      -0.00776132       0.00209381       0.03055619
H       -2.82300156       1.14304962      -0.97784131     -12.94291412      -0.00168864       0.00938066       0.00912997       0.08103441
H       -2.79644822       1.24421938       0.78088475     -12.97144210       0.00550405      -0.00530021      -0.01180722       0.07962685
H       -1.56506400       2.11043750      -0.17521776     -13.00196617      -0.00367643      -0.00404129      -0.00058736       0.07929766
H       -0.60419427      -2.33100553       1.08644495     -13.01911525       0.01092171       0.00578145       0.00249851       0.06555890
H       -0.64705187      -2.45508955      -0.68419999     -13.02755449       0.00116502       0.01316039      -0.00668094       0.06516056
H       -1.99527409      -3.12191783       0.28636966     -12.97807190      -0.00748628      -0.00593839       0.00308787       0.07159903
C        4.77758216      -0.39277731      -1.29283026     -59.41785474       0.01110660       0.00057184       0.00304425      -0.11142359
C        3.25583798      -0.46634126      -1.21655309     -59.22834299       0.00302096      -0.00485477      -0.00436803       0.12836678
O        2.86541545       0.01335514       0.05116645    -113.03318433      -0.00718368      -0.00287127       0.00337977      -0.46253733
C        2.60635174       0.34082315      -2.34071532     -59.42636849      -0.00593529       0.00331908      -0.00133471      -0.12004018
H        5.21507225      -0.95781145      -0.47497415     -13.31188033      -0.00115605      -0.00599812       0.01656099       0.04769538
H        5.13021358      -0.79951403      -2.23652178     -13.46256625      -0.00296984      -0.00631274      -0.00950453       0.03215325
H        5.09865084       0.64151928      -1.20565859     -13.29271108      -0.00368765       0.01403846       0.00406555       0.04874121
H        2.94517097      -1.52266734      -1.31729365     -13.44022771      -0.00068768      -0.00769690      -0.00326315       0.00098356
H        1.90060576       0.08294604       0.06032766     -11.63931336       0.00513382      -0.00112348      -0.00360962       0.30990924
H        2.89327564       1.38650620      -2.25685010     -13.34295208       0.00665101       0.00246576      -0.00027134       0.04435799
H        2.92073679      -0.03605989      -3.31062500     -13.48307115      -0.00492180      -0.00432065      -0.00146618       0.03108786
H        1.52297374       0.27215096      -2.26841799     -13.38947231      -0.00995334       0.00887225       0.00285349       0.04177772
