23
Properties=species:S:1:pos:R:3:energies:R:1:forces:R:3:charge:R:1 energy=-875.9782957306409 free_energy=-875.9782957306409 dipole="-0.5148182370451118 -0.2149693326994983 -0.14917672655406997" pbc="F F F"
C       -0.79710384       0.73716849      -0.49363020     -59.78118613       0.00016887      -0.00398078       0.00109394      -0.15755786
C       -1.09845518      -0.60833488       0.09703933     -58.91561772       0.00146807      -0.00071681       0.00051423       0.36359783
O       -0.39833358      -1.19209509       0.89011163    -112.47017601      -0.00292275       0.00243780      -0.00205032      -0.42737564
O       -2.25773119      -1.09586076      -0.34547384    -111.25441437       0.00396440       0.00685738       0.00003589      -0.25294307
C       -2.65659243      -2.35905011       0.17013598     -59.19624517      -0.00060135      -0.00047040       0.00004889       0.03078387
H       -1.32027577       0.86014165      -1.43636417     -13.04625578      -0.00126224      -0.00068723      -0.00157059       0.07483746
H       -1.13755409       1.50230609       0.20213699     -12.88232443      -0.00061205       0.00066232       0.00009511       0.08637395
H        0.27663540       0.85105490      -0.61855426     -12.78545884       0.00229091       0.00104387      -0.00013421       0.10294565
H       -2.70964434      -2.32419023       1.25995029     -13.03135350      -0.00169748      -0.00073091       0.00271898       0.06458734
H       -1.94083971      -3.12965542      -0.12255365     -13.03145140       0.00196254      -0.00273029      -0.00083889       0.06401880
H       -3.63502815      -2.56583270      -0.25491312     -12.98557069      -0.00013160      -0.00191559       0.00009450       0.07092925
C        4.54422554      -0.05773887       0.81401013     -59.41942684       0.00183150       0.00090232      -0.00050191      -0.11106853
C        3.24258458      -0.69487981       1.29018975     -59.22070352      -0.00122867       0.00106227      -0.00081089       0.12748922
O        2.17525285       0.06656756       0.76596291    -113.20159398       0.00140720       0.00265993       0.00079730      -0.47667353
C        3.14457777      -2.15598432       0.85142551     -59.43252597       0.00134412      -0.00210215      -0.00260288      -0.11991020
H        4.57450126       0.98531014       1.11684426     -13.31128099      -0.00094284       0.00023467       0.00159295       0.04762548
H        5.39766840      -0.57874762       1.23898198     -13.45372945      -0.00026510      -0.00013397      -0.00045970       0.03341906
H        4.59909209      -0.10276863      -0.27073218     -13.30802352      -0.00007740      -0.00112333      -0.00119640       0.04680172
H        3.20792213      -0.65446792       2.39363544     -13.41597452      -0.00104443       0.00005572       0.00005571       0.00488446
H        1.34720957      -0.40124203       0.96643268     -11.63050582      -0.00135797      -0.00103247       0.00171646       0.30944839
H        3.20482803      -2.22190771      -0.23301685     -13.36370103       0.00090544       0.00076511       0.00166938       0.04197376
H        3.95321220      -2.73747811       1.28651313     -13.46649724      -0.00125802      -0.00088033      -0.00191146       0.03305095
H        2.19431274      -2.57885445       1.17233122     -13.37427882      -0.00194116      -0.00017713       0.00164391       0.04276163
