6
Properties=species:S:1:pos:R:3:energies:R:1:forces:R:3:charge:R:1 energy=-223.8440830969502 free_energy=-223.8440830969502 dipole="-0.1248202410152326 -0.2514618012762402 0.2834092577688622" pbc="F F F"
C       -0.35467948       0.07397452      -0.02197425     -59.40427245      -0.00262447      -0.00022841       0.00065122       0.04142969
O        1.01133464       0.17341898      -0.34059529    -112.90567430       0.00266295       0.00060219      -0.00105016      -0.43472273
H       -0.54874383       0.34807958       1.02065847     -13.35723805      -0.00038436       0.00203083       0.00287129       0.02547989
H       -0.87613017       0.77276614      -0.67333555     -13.12573179      -0.00114593       0.00133879      -0.00122465       0.05633491
H       -0.74060926      -0.93516874      -0.20243354     -13.35723834      -0.00111434      -0.00284802      -0.00177910       0.02547987
H        1.50882809      -0.43307048       0.21768016     -11.69392816       0.00260615      -0.00089538       0.00053140       0.28599837
