17
Properties=species:S:1:pos:R:3:energies:R:1:forces:R:3:charge:R:1 energy=-703.5053654758722 free_energy=-703.5053654758722 dipole="-0.8549116365913997 -0.3495372416526836 -0.08190312913456041" pbc="F F F"
C       -2.09049307       1.20538792      -0.10747535     -59.70988739      -0.00059400      -0.00152785      -0.00186688      -0.14927595
C       -1.22133432      -0.01834716      -0.03838592     -58.90180688      -0.00110696      -0.00160330      -0.00552153       0.36470774
O       -0.02026779      -0.02691325      -0.13470671    -112.40048824      -0.00244650       0.00343833       0.00504219      -0.42191322
O       -1.94874070      -1.12346667       0.13754983    -111.29090220      -0.00170901      -0.00001912       0.00215611      -0.25659071
C       -1.23197848      -2.34914685       0.21269533     -59.19284193       0.00090386       0.00210881       0.00072002       0.03106465
H       -2.73522492       1.13551438      -0.98050431     -12.93792085      -0.00207359       0.00537885      -0.00091224       0.08155900
H       -2.72200122       1.25544355       0.77562612     -12.96049321       0.00181546      -0.00383308       0.00092542       0.08030904
H       -1.46993297       2.09325842      -0.17714671     -12.99895447       0.00323608      -0.00384063       0.00016012       0.07973012
H       -0.58104270      -2.35319465       1.08926640     -13.03104841       0.00286891      -0.00042728       0.00012336       0.06410739
H       -0.62091085      -2.48708418      -0.68156256     -13.02840756       0.00052042       0.00058521      -0.00046285       0.06471042
H       -1.97940461      -3.13417101       0.28993838     -12.97667466       0.00138899       0.00204405       0.00163457       0.07176840
C        3.17156779      -1.19834213      -0.54326015     -59.41815387      -0.00157425      -0.00085464      -0.00006631       0.04847895
O        2.89349515       0.03801427       0.05550853    -112.98369206      -0.00128063      -0.00230526       0.00137699      -0.45065760
H        2.79413835      -1.24628174      -1.57121157     -13.41611010       0.00210222      -0.00112640      -0.00108232       0.01854915
H        4.25548028      -1.30945429      -0.56161989     -13.23555432      -0.00251235       0.00343486       0.00414068       0.04408507
H        2.74135987      -2.03109841       0.02680986     -13.43184498      -0.00017585      -0.00316047      -0.00352088       0.01575212
H        1.93454855       0.16628098       0.04634190     -11.59058434       0.00063720       0.00170792      -0.00284643       0.31361542
