17
Properties=species:S:1:pos:R:3:energies:R:1:forces:R:3:charge:R:1 energy=-703.569912894464 free_energy=-703.569912894464 dipole="-0.5494390350133767 0.07130340268837843 0.09865877360188997" pbc="F F F"
C       -2.66696605       1.14964162      -0.06701195     -59.68784697      -0.00163519       0.00035088       0.00167298      -0.14838518
C       -1.42933308       0.29932346      -0.15817819     -58.93328051      -0.00443529       0.00197902      -0.00117802       0.36434731
O       -0.37085797       0.67266292      -0.60192894    -112.44759818       0.00202709      -0.00041965      -0.00755995      -0.42533664
O       -1.65262245      -0.92928907       0.29820538    -111.25579257       0.00218582      -0.00254170       0.00246393      -0.25299331
C       -0.57629491      -1.86159175       0.23426407     -59.24552325       0.00285107      -0.00169156       0.00014287       0.02152298
H       -3.27144329       0.97686947      -0.95580659     -12.91427849       0.00145052       0.00226882       0.00132116       0.08298182
H       -3.24878925       0.87200054       0.80641770     -13.02041734       0.00157331      -0.00256425      -0.00138338       0.07627451
H       -2.39040200       2.19898620      -0.03122474     -12.99329816       0.00211107      -0.00137386       0.00043984       0.07936019
H        0.27626152      -1.51100807       0.81758274     -12.90525839      -0.00214129      -0.00004536      -0.00178061       0.07974483
H       -0.25388986      -2.00219309      -0.79863234     -12.99413521      -0.00260079      -0.00084196       0.00266461       0.06931348
H       -0.96288025      -2.79142433       0.64284340     -12.96927560      -0.00020439       0.00199890      -0.00252456       0.07280749
C        3.29218272       0.53993797      -0.56427999     -59.40906715      -0.00224107       0.00149395      -0.00263410       0.04762038
O        2.26998304      -0.41312032      -0.43970246    -113.16710206      -0.00426806      -0.00415255       0.00341241      -0.46522063
H        3.18224860       1.34896910       0.16698563     -13.41330084       0.00384197      -0.00167067       0.00044866       0.01925065
H        4.23397818       0.02343706      -0.38060720     -13.25020317       0.00123700       0.00200135       0.00423000       0.04270002
H        3.31832258       0.97652007      -1.56870123     -13.40031873       0.00051680       0.00180980      -0.00603901       0.02073623
H        1.41976084       0.02830333      -0.60238502     -11.56321629      -0.00026858       0.00339882       0.00630315       0.31527588
