17
Properties=species:S:1:pos:R:3:energies:R:1:forces:R:3:charge:R:1 energy=-703.508150296468 free_energy=-703.508150296468 dipole="-0.8438565803207351 -0.11872249057091602 0.23703503908650486" pbc="F F F"
C       -2.12652395       1.21839810      -0.10294156     -59.70563815       0.00146046      -0.00018732       0.00261951      -0.14900378
C       -1.24553611       0.00826608       0.03069856     -58.90278929       0.00168477       0.00471120      -0.02432036       0.36483295
O       -0.04240933       0.02684994       0.09714244    -112.40926900       0.00064838       0.01276695       0.01505558      -0.42290474
O       -1.96325708      -1.11525581       0.06952597    -111.29157675      -0.00474349       0.00671719       0.00604547      -0.25653511
C       -1.23194687      -2.32842192       0.19357317     -59.19563411      -0.00088747       0.00610476      -0.00220859       0.03023937
H       -2.75758998       1.11274782      -0.98193079     -12.95806778       0.00708257       0.00256732       0.00929070       0.08046738
H       -2.77111282       1.29043889       0.76990778     -12.94636601      -0.00209205       0.00662925      -0.00280398       0.08091715
H       -1.51283400       2.11007117      -0.18573252     -13.00407059      -0.00803353      -0.00222058      -0.00075930       0.07907788
H       -0.60994366      -2.30529486       1.09055683     -13.02623899      -0.00489884      -0.01086653       0.00175397       0.06490602
H       -0.58856622      -2.47101411      -0.67678722     -13.01416431       0.00264262      -0.01496773       0.00004508       0.06616256
H       -1.97183230      -3.12156929       0.25894102     -12.97498217       0.01422974      -0.00637376      -0.00166681       0.07205123
C        3.21713825       0.12164732       1.32472549     -59.41845897       0.00122586      -0.00148924       0.00000389       0.04791554
O        2.88153172      -0.02594961      -0.02848489    -112.99454541      -0.00191356      -0.00622364      -0.00434763      -0.45164834
H        2.83380860      -0.70819784       1.93060232     -13.42665378      -0.00419128       0.00147018       0.00471658       0.01664637
H        4.30501995       0.12621064       1.38575100     -13.23686145       0.00440501      -0.00234332      -0.00350405       0.04389842
H        2.83609158       1.06200131       1.73884864     -13.40859357      -0.00280290       0.00088192      -0.00241047       0.01955727
H        1.91722061      -0.00302944      -0.10349801     -11.59423996      -0.00381630       0.00282335       0.00249041       0.31341984
