6
Properties=species:S:1:pos:R:3:energies:R:1:forces:R:3:charge:R:1 energy=-223.84404210549047 free_energy=-223.84404210549047 dipole="-0.12520467124007773 -0.2516095300349356 0.28362445773167677" pbc="F F F"
C       -0.35547689       0.07389076      -0.02176125     -59.40399337       0.02012041       0.00200737      -0.00526273       0.04122360
O        1.01090929       0.17389059      -0.34102327    -112.90825135      -0.00265060      -0.01267786       0.01371644      -0.43497106
H       -0.54819608       0.34781497       1.02145731     -13.35672703      -0.00549872       0.00161521      -0.01047932       0.02562508
H       -0.87490394       0.77335155      -0.67414214     -13.12382318      -0.01357094      -0.00661562       0.00907010       0.05658250
H       -0.74015106      -0.93603279      -0.20220599     -13.35672737      -0.00407511       0.01114003      -0.00140147       0.02562506
H        1.50781867      -0.43291507       0.21767534     -11.69451981       0.00567497       0.00453087      -0.00564302       0.28591482
