17
Properties=species:S:1:pos:R:3:energies:R:1:forces:R:3:charge:R:1 energy=-703.5126436442509 free_energy=-703.5126436442509 dipole="-0.8426532574518917 0.0478501759020376 -0.11787686262904942" pbc="F F F"
C       -2.13236688       1.22142297      -0.10679906     -59.70166649      -0.00918838       0.01579386       0.00252820      -0.14873524
C       -1.24984565       0.00885496      -0.01373568     -58.90420385       0.00487587       0.01269166      -0.01432545       0.36485534
O       -0.04509040       0.02499584      -0.04523185    -112.41046972      -0.00192635       0.00626883      -0.00222875      -0.42309934
O       -1.96579114      -1.10961737       0.10699736    -111.29021406       0.02319244       0.00325610       0.00443626      -0.25585523
C       -1.22634462      -2.32091351       0.20304852     -59.19858931       0.01234821      -0.00663060      -0.00009736       0.02941328
H       -2.77263757       1.13823277      -0.98126897     -12.95206791      -0.01369132      -0.01335321       0.00249664       0.08064443
H       -2.76470089       1.27575895       0.77517272     -12.95538424      -0.02372897      -0.00290669       0.00385607       0.08051609
H       -1.52166662       2.11527254      -0.18099722     -13.01131412       0.01867122       0.00883153      -0.00032948       0.07802980
H       -0.58825361      -2.30503056       1.08860675     -13.01309674       0.00053725      -0.00698523       0.00720147       0.06639223
H       -0.59640891      -2.44967204      -0.67903301     -13.01355617       0.00187724      -0.01123426      -0.00705830       0.06627495
H       -1.95746580      -3.12157049       0.27204622     -12.97564993      -0.00717126       0.00687868       0.00040626       0.07215110
C        3.21792544       1.08162756      -0.77106853     -59.42052004       0.00340418       0.00051028      -0.00015818       0.04747231
O        2.87796390      -0.03142379       0.01151950    -113.00488224      -0.00753096       0.00422184      -0.00578946      -0.45255935
H        2.83941305       2.01518467      -0.33861151     -13.41186074      -0.00120862      -0.00856774       0.00833015       0.01887915
H        4.30612049       1.12626513      -0.80504197     -13.23826538       0.00327534       0.00108261      -0.00298978       0.04376724
H        2.83552177       0.99188889      -1.79475414     -13.41615966      -0.00095658      -0.00771956       0.00521610       0.01837773
H        1.91288581      -0.08325142       0.05699115     -11.59474303      -0.00277932      -0.00213809      -0.00149439       0.31347550
