17
Properties=species:S:1:pos:R:3:energies:R:1:forces:R:3:charge:R:1 energy=-703.5039068207308 free_energy=-703.5039068207308 dipole="-0.8467870919659768 -0.3628366085100436 -0.08753449545563978" pbc="F F F"
C       -2.11751321       1.21165690      -0.10660596     -59.71141692       0.00037222       0.00740036       0.00356777      -0.14927195
C       -1.24377998      -0.00688780      -0.01720838     -58.89637252       0.00164906       0.00692002      -0.01136942       0.36486148
O       -0.03936416      -0.00814259      -0.05471393    -112.40290144      -0.00336640      -0.00001169      -0.00499429      -0.42195219
O       -1.97164032      -1.11882126       0.10947628    -111.29581574       0.01384619       0.00097729       0.00363350      -0.25691958
C       -1.24382574      -2.33614242       0.20481981     -59.19198307       0.00838505      -0.00078792      -0.00103090       0.03113871
H       -2.75952920       1.13209659      -0.98071204     -12.94542192      -0.00415989      -0.00430063       0.01250801       0.08116641
H       -2.74903106       1.26461033       0.77656039     -12.95041375      -0.01539347       0.00811483      -0.00841115       0.08089281
H       -1.50216774       2.10259967      -0.17943823     -12.99860797       0.01524749      -0.00089946       0.00115585       0.07980171
H       -0.60626771      -2.32529561       1.09126256     -13.02891546      -0.00396340      -0.01350379       0.00242172       0.06434811
H       -0.61566191      -2.46953640      -0.67830161     -13.03086537      -0.00211489      -0.01776596      -0.00159997       0.06413413
H       -1.98284045      -3.12975472       0.27382946     -12.97927323       0.00479207       0.00450586       0.00067720       0.07173807
C        3.21424034      -1.21215572      -0.55148910     -59.42019475      -0.00012667      -0.00870250      -0.00371382       0.04839340
O        2.89844343       0.02431282       0.02737907    -112.97995504      -0.00955587      -0.01099011      -0.00254646      -0.45014569
H        2.82561774      -1.29642868      -1.57318834     -13.42326969      -0.00379558       0.00669428      -0.00094896       0.01761148
H        4.30120038      -1.28176014      -0.58432871     -13.23029820       0.00163027       0.00282995       0.00391021       0.04453397
H        2.82611064      -2.05048614       0.04021762     -13.43271466      -0.00480873       0.00067821       0.00231652       0.01572281
H        1.93526731       0.11653435       0.04030428     -11.58548707       0.00136252       0.01884126       0.00442418       0.31394629
