17
Properties=species:S:1:pos:R:3:energies:R:1:forces:R:3:charge:R:1 energy=-703.5755730124263 free_energy=-703.5755730124263 dipole="-0.4702853948578869 0.07771008096938677 -0.051087691186823485" pbc="F F F"
C       -2.39088252       1.21750706      -0.16456583     -59.68803066      -0.00006475       0.00070626      -0.00017047      -0.14861382
C       -1.37217853       0.18592767       0.23684004     -58.93603720      -0.00690580       0.00033458      -0.00203762       0.36424281
O       -0.43175868       0.39802666       0.96414226    -112.47800476       0.00634364       0.00099486      -0.00266525      -0.42901373
O       -1.64390262      -0.99969889      -0.29808175    -111.23532730       0.00332298       0.00193941      -0.00234774      -0.25091535
C       -0.77354402      -2.08211994       0.02331143     -59.25333849      -0.00074498      -0.00061818       0.00197036       0.02014150
H       -3.00962885       0.84044820      -0.97213811     -13.05951981       0.00073210      -0.00249885       0.00250370       0.07371909
H       -3.01489667       1.44787404       0.69675580     -12.91637775      -0.00050675      -0.00012246       0.00065866       0.08327763
H       -1.88257198       2.12993634      -0.46467853     -12.95056681       0.00237050       0.00087744       0.00021384       0.08189195
H       -0.67124761      -2.17484094       1.10588414     -13.02012989      -0.00216886      -0.00559178      -0.00082726       0.06664431
H        0.21526313      -1.92365963      -0.41008266     -12.86839437       0.00062161       0.00544287       0.00548463       0.08500283
H       -1.23704538      -2.97193020      -0.39442332     -12.97802618       0.00141557      -0.00037965       0.00038748       0.07200621
C        3.24555600      -0.13010347       1.16369699     -59.40638426      -0.00035116      -0.00001473      -0.00182571       0.04729177
O        2.14283671      -0.73011234       0.53614137    -113.16183991      -0.00100304       0.00100851       0.00044654      -0.46486062
H        3.17655302      -0.19810934       2.25511180     -13.39900014      -0.00278495      -0.00147065      -0.00278949       0.02089145
H        4.13248193      -0.66942593       0.83240995     -13.24394475       0.00270739      -0.00356540       0.00119611       0.04336671
H        3.34722034       0.92388273       0.88230531     -13.40351035      -0.00305835       0.00363011       0.00080995       0.02058557
H        1.33700409      -0.26570362       0.81826934     -11.57714038       0.00007486      -0.00067234      -0.00100773       0.31434170
