11
Properties=species:S:1:pos:R:3:energies:R:1:forces:R:3:charge:R:1 energy=-479.45815775307125 free_energy=-479.45815775307125 dipole="0.01976335585153918 -0.4651291271848847 0.026537443791519184" pbc="F F F"
C       -1.82748842      -0.11287244      -0.06693147     -59.67007610       0.00105916       0.00128944      -0.00002892      -0.14781764
C       -0.41988796       0.41989475      -0.04005604     -58.96281029       0.00065300      -0.00290967       0.00018729       0.36098247
O       -0.10763095       1.57871825      -0.09169538    -112.15755509      -0.00248638       0.00010673      -0.00010548      -0.40502073
O        0.46724572      -0.58104389       0.05087192    -111.33329325       0.00294392      -0.00078641       0.00016139      -0.26413341
C        1.83652152      -0.20411570       0.08483908     -59.20162798       0.00274274       0.00126687       0.00003966       0.03238428
H       -1.94503051      -0.78008406      -0.91713550     -12.99169985      -0.00104315       0.00237200       0.00105841       0.07723405
H       -2.01537502      -0.68284380       0.83952632     -12.99169904      -0.00094517       0.00223624      -0.00139309       0.07723410
H       -2.52804497       0.71276090      -0.14068771     -13.03881513      -0.00316641      -0.00232105       0.00000165       0.07600503
H        2.03191092       0.43750888       0.94642120     -13.05095752       0.00063088      -0.00045446       0.00057569       0.06231631
H        2.10279858       0.33952386      -0.82386078     -13.05095705       0.00067284      -0.00051236      -0.00047000       0.06231637
H        2.40498109      -1.12744675       0.15870836     -13.00866644      -0.00106144      -0.00028731      -0.00002660       0.06849918
