20
Properties=species:S:1:pos:R:3:energies:R:1:forces:R:3:charge:R:1 energy=-737.8943428628534 free_energy=-737.8943428628534 dipole="0.033517002398272815 0.14064864895126047 0.43299092410596024" pbc="F F F"
C       -1.28226784       1.06429308       0.59725559     -59.41113738       0.00324939      -0.00300138      -0.00022765      -0.10890642
C       -0.68985262      -0.25234712       0.08347338     -59.07273020      -0.00656156      -0.00724027      -0.01568266       0.00484202
C       -1.65456961      -0.92579096      -0.89096384     -59.43348667      -0.01232345      -0.00870933      -0.01281056      -0.11044396
C       -0.37912757      -1.18598077       1.25831269     -59.41113806       0.00052147       0.00379479      -0.00222448      -0.10890647
C        0.61165559       0.05539518      -0.64708488     -58.80874589       0.00157042       0.00094883       0.00108504       0.35263575
O        0.83871329      -0.19266045      -1.80170187    -112.18363444       0.00234036       0.00071845      -0.00075181      -0.40781277
O        1.50241155       0.64961096       0.15871915    -111.30923599      -0.00979185      -0.00163993       0.00779585      -0.26130825
C        2.74958864       0.97602067      -0.43406091     -59.19478489       0.00279428       0.00316982       0.00697195       0.03402057
H       -2.23285917       0.87104345       1.08934426     -13.28085987       0.00497411       0.00883858       0.00742693       0.04821004
H       -1.45320839       1.75449279      -0.22649910     -13.39541158      -0.01062845      -0.01530193      -0.00200204       0.04036045
H       -0.60706619       1.53381252       1.30800007     -13.30505403      -0.00056630      -0.00318492      -0.00142736       0.04906319
H       -1.85555344      -0.27404900      -1.73705167     -13.29906031       0.00160403       0.01294268      -0.00110548       0.04995283
H       -1.22430289      -1.84688333      -1.27500300     -13.29906173       0.00972737      -0.00729775       0.00484017       0.04995267
H       -2.59313205      -1.15645565      -0.39389332     -13.34549262      -0.00486251       0.00250207       0.01516061       0.04251716
H       -1.30159280      -1.44930923       1.77098855     -13.28086036       0.00797314       0.00136593       0.00962200       0.04821000
H        0.09394990      -2.10042379       0.90594957     -13.39541197      -0.01735223       0.00144987      -0.00692264       0.04036040
H        0.28946941      -0.70000426       1.96422232     -13.30505313      -0.00220048       0.00088451      -0.00262265       0.04906327
H        3.23986386       0.07388537      -0.80435647     -13.06251099       0.01468756      -0.01027330      -0.00320117       0.06122956
H        3.34516332       1.44392649       0.34506301     -13.03816138       0.00995683       0.00589081       0.00644967       0.06573044
H        2.60271702       1.66142403      -1.27071354     -13.06251139       0.00488787       0.01414248      -0.01037372       0.06122950
