20
Properties=species:S:1:pos:R:3:energies:R:1:forces:R:3:charge:R:1 energy=-737.8954333916618 free_energy=-737.8954333916618 dipole="0.03398403116831691 0.14128578150620819 0.4345206170377461" pbc="F F F"
C       -1.28225505       1.06217015       0.59312593     -59.41194784      -0.00047433       0.00184059       0.00015940      -0.10910008
C       -0.68967410      -0.25375444       0.07844037     -59.07132353      -0.00410179      -0.00120783       0.00149255       0.00484895
C       -1.65774325      -0.92746585      -0.89232944     -59.43541112      -0.00061289      -0.00064765      -0.00136753      -0.11045776
C       -0.37970475      -1.18663756       1.25375259     -59.41194882       0.00080252      -0.00134069       0.00109396      -0.10910014
C        0.61324575       0.05502053      -0.65053015     -58.80902638      -0.00387641      -0.00132915       0.00077250       0.35267312
O        0.84275123      -0.19194269      -1.80477420    -112.18048982       0.00247689       0.00128097       0.00097687      -0.40727464
O        1.50145902       0.64922775       0.15871932    -111.31080880      -0.00165775      -0.00103150      -0.00124723      -0.26162678
C        2.75209974       0.97956823      -0.42541752     -59.19492957       0.00241083       0.00095610      -0.00003913       0.03408475
H       -2.21514569       0.86538618       1.11666701     -13.28291917       0.00072486       0.00212490       0.00193467       0.04793565
H       -1.48730064       1.73729871      -0.23498447     -13.39161533      -0.00024178       0.00223280      -0.00068132       0.04064602
H       -0.59214347       1.54877746       1.27733742     -13.30599008       0.00087208       0.00015717       0.00061444       0.04912430
H       -1.86119769      -0.27556721      -1.73787230     -13.30118895      -0.00022418      -0.00073272      -0.00124440       0.04982288
H       -1.22931138      -1.84998565      -1.27535899     -13.30119029      -0.00040263      -0.00028826      -0.00137485       0.04982273
H       -2.59371723      -1.15505310      -0.38831879     -13.34151926      -0.00060276      -0.00160134      -0.00462775       0.04286421
H       -1.29726167      -1.42162827       1.78851685     -13.28291967       0.00153937       0.00009568       0.00253078       0.04793560
H        0.05920109      -2.11598574       0.89698557     -13.39161573       0.00138616      -0.00182369       0.00051025       0.04064597
H        0.31596255      -0.71387433       1.94203156     -13.30598916       0.00063198       0.00075573       0.00043852       0.04912439
H        3.24843773       0.07973786      -0.79443110     -13.06377974      -0.00050342      -0.00278108      -0.00033818       0.06114474
H        3.34133393       1.44662185       0.35946598     -13.03703995       0.00395241       0.00214521       0.00190260       0.06574140
H        2.61096388       1.66808608      -1.26102565     -13.06378017      -0.00209917       0.00119476      -0.00150615       0.06114468
