11
Properties=species:S:1:pos:R:3:energies:R:1:forces:R:3:charge:R:1 energy=-479.45776489901965 free_energy=-479.45776489901965 dipole="0.01699197760443536 -0.4615682798813778 0.026229419317161128" pbc="F F F"
C       -1.82822356      -0.11276106      -0.06696704     -59.67143449      -0.00672190      -0.00673359       0.00010353      -0.14772075
C       -0.41734419       0.41110916      -0.03946791     -58.96314897      -0.01426491       0.01280384      -0.00127988       0.36086781
O       -0.10278735       1.56958856      -0.09099619    -112.15814649      -0.00432605       0.00284675      -0.00033068      -0.40549917
O        0.47002907      -0.58952079       0.05145254    -111.33438462       0.00279521       0.01279254      -0.00059606      -0.26360905
C        1.83689446      -0.20307913       0.08479664     -59.19702186       0.01207635       0.00573832       0.00016595       0.03247183
H       -1.95408756      -0.77818530      -0.91724110     -12.99370392       0.01348299      -0.00096395      -0.00447592       0.07709156
H       -2.02440317      -0.68098498       0.83869975     -12.99370315       0.01307908      -0.00040538       0.00561536       0.07709161
H       -2.52107697       0.71945063      -0.14077891     -13.03592854      -0.00454276      -0.00049932      -0.00015444       0.07609069
H        2.02776065       0.44121218       0.94544076     -13.04915748      -0.00227187      -0.00339267       0.00476949       0.06243273
H        2.09859979       0.34329436      -0.82362828     -13.04915696      -0.00189940      -0.00390766      -0.00453245       0.06243280
H        2.41463883      -1.12012364       0.15868974     -13.01197843      -0.00740674      -0.01827888       0.00071511       0.06834994
