9
Properties=species:S:1:pos:R:3:energies:R:1:forces:R:3:charge:R:1 energy=-655.0404163566319 free_energy=-655.0404163566319 dipole="0.3670471636368855 -0.16955340071543196 0.22121653507127262" pbc="F F F"
O        1.39843897       0.03055442      -0.80804223    -112.73463315       0.01456488       0.00122391      -0.00542426      -0.40551845
C        0.41940071      -0.60092394      -0.04727272     -59.23792682       0.00070591       0.00172035      -0.00443860       0.05763275
C       -0.80258565       0.29863061       0.16010055     -58.18957636       0.00591739      -0.00138653       0.00246015       0.47323486
F       -1.42414505       0.61558637      -0.97695420    -129.21183086       0.00874230      -0.00386261       0.00054695      -0.18913753
F       -1.71101365      -0.27262458       0.96158463    -129.41279496       0.01128529      -0.00457173       0.00897568      -0.20251938
F       -0.44073284       1.45774399       0.74110473    -129.44761609      -0.02095073       0.00576229      -0.00087612      -0.20671237
H        1.66931036       0.85482805      -0.38297348     -11.25727673       0.00891090       0.00288355      -0.00172170       0.31365422
H        0.10988832      -1.49231493      -0.59760627     -12.65059339      -0.01610822       0.00137609       0.00086483       0.09559213
H        0.78143881      -0.89148000       0.95005899     -12.89816799      -0.01306772      -0.00314532      -0.00038693       0.06377378
