9
Properties=species:S:1:pos:R:3:energies:R:1:forces:R:3:charge:R:1 energy=-655.040788127668 free_energy=-655.040788127668 dipole="0.3741386110667527 -0.16886809521647353 0.22215364907327204" pbc="F F F"
O        1.40302054       0.03120422      -0.80740859    -112.73374552       0.00361866      -0.00026503      -0.00144983      -0.40517940
C        0.41954261      -0.59690077      -0.04980159     -59.23858075      -0.00230112       0.00187657       0.00063894       0.05766403
C       -0.80378554       0.30040634       0.15993332     -58.19229988      -0.00056937       0.00150052      -0.00128002       0.47308509
F       -1.43364800       0.60707669      -0.97528177    -129.21315132      -0.00151903      -0.00269947      -0.00208764      -0.18928784
F       -1.70253412      -0.27636229       0.96916889    -129.41796715       0.00025346       0.00284519       0.00166347      -0.20306857
F       -0.45104679       1.46496119       0.73433525    -129.44043437       0.00136440      -0.00190225       0.00017954      -0.20608658
H        1.68721301       0.84742657      -0.37556812     -11.25820434      -0.00290218       0.00116403       0.00200365       0.31352651
H        0.10465790      -1.48504757      -0.60294367     -12.64701701       0.00009360       0.00169618       0.00036085       0.09569791
H        0.77658037      -0.89276439       0.94756629     -12.89938779       0.00196158      -0.00421575      -0.00002896       0.06364885
