20
Properties=species:S:1:pos:R:3:energies:R:1:forces:R:3:charge:R:1 energy=-1134.9112209698908 free_energy=-1134.9112209698908 dipole="-0.46735661620475555 0.026613982529653822 -0.25952878998602086" pbc="F F F"
C       -2.19832921       1.26854099      -0.00607773     -59.72665763       0.00148984       0.00153845       0.00021424      -0.15008631
C       -1.10749742       0.24087488      -0.09169795     -58.88475714       0.00070163       0.00344754      -0.00094338       0.36872612
O       -0.05335371       0.40919478      -0.66219560    -112.62373466       0.00118721       0.00351290      -0.00414418      -0.43727469
O       -1.44861871      -0.88829308       0.51324785    -111.17285103       0.00182961       0.00117953       0.00299315      -0.24449047
C       -0.51992864      -1.96878069       0.48932181     -59.24903024      -0.00102706       0.00004711       0.00167707       0.02161399
H       -2.80654977       1.20783260      -0.90704053     -12.87451435       0.00078481      -0.00024216       0.00096174       0.08617342
H       -2.82487369       1.07746412       0.85887456     -12.99223318      -0.00070033      -0.00378547      -0.00371519       0.07972238
H       -1.75842862       2.25998199       0.04630511     -12.92282451       0.00108412      -0.00104332       0.00556658       0.08560388
H        0.27303425      -1.80532312       1.22047540     -12.94009344      -0.00118919       0.00577884      -0.00032905       0.07586686
H       -0.07644910      -2.07213035      -0.50259199     -12.99500109      -0.00119767      -0.00106309       0.00025556       0.06991427
H       -1.08710552      -2.85832354       0.75082324     -12.93920469       0.00149445      -0.00679590      -0.00237045       0.07533986
O        2.49889303      -0.39151975      -0.06819349    -112.93827158       0.00000992      -0.00227475      -0.00338896      -0.43460210
C        2.99427287       0.58632946       0.77847652     -59.28915818      -0.00074330      -0.00322412       0.00195126       0.06405165
C        2.22057198       0.66367682       2.09983350     -58.21136357      -0.00041430      -0.00248198       0.00171138       0.47157535
F        2.07612819      -0.53279390       2.68434056    -129.32527370      -0.00175362       0.00112155       0.00138270      -0.19860394
F        2.83961030       1.45939528       2.98573830    -129.47268112      -0.00150237       0.00290864      -0.00075017      -0.20870023
F        0.98002935       1.15843737       1.94841514    -129.45080737      -0.00185517       0.00090312       0.00171721      -0.20856737
H        1.61354477      -0.13001268      -0.39898332     -11.17207810      -0.00175641       0.00236607       0.00268576       0.34194359
H        4.02569876       0.31693394       1.02588552     -12.76458950       0.00268626       0.00227065       0.00034567       0.08275623
H        2.97474573       1.59260044       0.33706509     -12.96609589       0.00087157      -0.00416361      -0.00582095       0.05903751
