20
Properties=species:S:1:pos:R:3:energies:R:1:forces:R:3:charge:R:1 energy=-1134.852467893395 free_energy=-1134.852467893395 dipole="-0.7501089945293025 -0.6652014913081167 0.09371076933084117" pbc="F F F"
C       -1.68849464       1.14939572      -0.23809858     -59.78348614       0.00431783      -0.00814682       0.00024655      -0.15533053
C       -1.04154641      -0.19225345      -0.06389694     -58.86331467      -0.00315401      -0.00191959      -0.00310152       0.36674099
O        0.14777636      -0.39320771       0.01532608    -112.59754077      -0.01544409      -0.00244771       0.01864950      -0.43523699
O       -1.94279308      -1.16936468       0.00480203    -111.23591653      -0.01115252       0.00342599      -0.00062728      -0.24986111
C       -1.44343563      -2.48763088       0.19066605     -59.20270961       0.00517729      -0.00692625       0.00228772       0.02918519
H       -2.48017254       1.07705785      -0.97818490     -12.94598597      -0.00962819       0.01023304       0.00807483       0.08226361
H       -2.13305308       1.45458339       0.70754711     -12.88400866       0.01426042      -0.01005467      -0.00769693       0.08591784
H       -0.94746904       1.88113479      -0.54311449     -12.88688169      -0.00630456      -0.01056542       0.00358120       0.09284032
H       -0.80896142      -2.53282402       1.07732715     -13.00605273       0.00683641       0.00599885       0.01896281       0.06673302
H       -0.85674497      -2.79635610      -0.67613923     -13.02446671       0.00447127      -0.00004285      -0.02015652       0.06407897
H       -2.31165665      -3.12928615       0.30900038     -12.95281420      -0.02032423      -0.00173778      -0.00174189       0.07388983
O        2.80892111       0.37967321       0.17336047    -112.83252674       0.01052468      -0.00432835       0.00771506      -0.42556063
C        3.04765326       0.39307434      -1.19150748     -59.29096818       0.00848080       0.01140576       0.00100842       0.06329514
C        2.54916710       1.68360694      -1.85379636     -58.24444108       0.01694533       0.00371902      -0.00751709       0.47164738
F        3.13936912       2.78010006      -1.36876555    -129.24674985      -0.00650093      -0.00152503      -0.00354637      -0.19401195
F        2.78335063       1.67261957      -3.17856739    -129.51458864       0.00299694      -0.01211627      -0.01014126      -0.21296912
F        1.22675043       1.86577454      -1.70804146    -129.41543693       0.00683402      -0.00111820       0.00352123      -0.20550551
H        1.86608028       0.18572936       0.32381568     -11.17596770      -0.01585028       0.00633863       0.00082515       0.34100114
H        4.12994723       0.35249293      -1.34677976     -12.77758734       0.01180263       0.00246653       0.00472615       0.08177832
H        2.57070676      -0.44611520      -1.71514008     -12.97102375      -0.00428881       0.01734112      -0.01506975       0.05910407
