20
Properties=species:S:1:pos:R:3:energies:R:1:forces:R:3:charge:R:1 energy=-1134.9125407143024 free_energy=-1134.9125407143024 dipole="-0.4528502170440117 -0.4371926329923979 0.1661788990006831" pbc="F F F"
C       -1.07101323       1.13703138      -0.00407270     -59.78056864       0.00562188       0.00030337      -0.00045479      -0.15540517
C       -0.81895024      -0.34073657       0.01197964     -58.88491561      -0.00230935       0.00142247       0.00144967       0.36597866
O        0.27221420      -0.85877150       0.10388566    -112.57401778       0.00539337      -0.00153956       0.00412712      -0.43083007
O       -1.94304339      -1.03791144      -0.09527402    -111.18056704       0.00071855      -0.00133921      -0.00502797      -0.24376350
C       -1.81888972      -2.45479234      -0.12908124     -59.20838188       0.00151620       0.00088115       0.00252840       0.02751671
H       -2.03147172       1.35889457       0.45025935     -12.99184540      -0.00314037      -0.00026043      -0.00413976       0.07917907
H       -0.26799137       1.66079337       0.50702343     -12.89354383       0.00231624       0.00178215       0.00661327       0.09092757
H       -1.09493262       1.46946626      -1.04095282     -12.80000269       0.00498744      -0.00144188       0.00064020       0.09544781
H       -1.23692260      -2.80348815       0.72615172     -12.99035862      -0.00086216      -0.00297216      -0.00121619       0.06868187
H       -1.31881822      -2.76657319      -1.04798422     -13.00040129      -0.00123796       0.00088653       0.00298013       0.06726306
H       -2.83062071      -2.84955183      -0.09212768     -12.95002195       0.00126305       0.00140335      -0.00538367       0.07422437
O        2.40681059       0.84631969       0.33295920    -112.95185040       0.00030582       0.00217311       0.00259976      -0.43804421
C        3.10235737       0.85831406      -0.86439351     -59.29048337       0.00298291      -0.00075600       0.00175640       0.06437078
C        2.24646331       1.35772550      -2.03329439     -58.22509485       0.00287920       0.00343399      -0.00222298       0.47063906
F        1.66393522       2.53726852      -1.78453194    -129.31439925      -0.00439931      -0.00367347      -0.00248541      -0.19756315
F        2.98049573       1.51287717      -3.14724994    -129.47973102      -0.00208351      -0.00217086      -0.00105904      -0.20958057
F        1.25343348       0.50867132      -2.34914731    -129.44390913      -0.00426682       0.00439764       0.00064479      -0.20795053
H        1.69547867       0.16751093       0.30076135     -11.20543995      -0.00133615       0.00125999      -0.00009262       0.33906495
H        3.93874886       1.55590506      -0.75507087     -12.77458211      -0.00450891      -0.00243904      -0.00259533       0.08194434
H        3.48811122      -0.13074833      -1.15002698     -12.97242590      -0.00384013      -0.00135113       0.00133803       0.05789895
