20
Properties=species:S:1:pos:R:3:energies:R:1:forces:R:3:charge:R:1 energy=-1134.8530549018105 free_energy=-1134.8530549018105 dipole="-0.8103004869349947 0.2025768298461007 0.3955496144462356" pbc="F F F"
C       -1.86805868       1.22047726      -0.08905289     -59.72935887       0.00727410      -0.00306479       0.00428527      -0.15089020
C       -1.20462963      -0.10614335       0.15299419     -58.89015936       0.00490797       0.00445934      -0.00285042       0.36576811
O       -0.04255625      -0.25139251       0.45459585    -112.61727645      -0.00768877      -0.01048050      -0.01873279      -0.43749475
O       -2.05800337      -1.11278765       0.01557380    -111.20708322      -0.00194278       0.01159769       0.02026159      -0.24656610
C       -1.55518688      -2.42548365       0.24435986     -59.23516857       0.00136063       0.00655549      -0.00258835       0.02318835
H       -2.47552175       1.17238430      -0.98878974     -12.95798613       0.01514160       0.00213277       0.01490936       0.08130917
H       -2.52300532       1.44269021       0.75178153     -12.89900629       0.00863836       0.00166459      -0.01650769       0.08435225
H       -1.11497863       1.99824024      -0.17434777     -12.98628944      -0.01380880      -0.00258612      -0.01076823       0.08027001
H       -1.00920485      -2.46059096       1.18870616     -13.01057641      -0.01130000      -0.01195464      -0.00121432       0.06724592
H       -0.88137533      -2.71671349      -0.56199037     -12.91714585       0.00168940      -0.00215984       0.00046487       0.07787403
H       -2.42146968      -3.08053141       0.27440107     -12.95262408      -0.00089730      -0.00155524       0.00378683       0.07416178
O        2.64385954       0.06461823      -0.21764296    -112.82479640      -0.01254793      -0.00423738       0.02100091      -0.42428539
C        3.13891073      -1.08759959       0.37412966     -59.28629012       0.00267956      -0.00599549      -0.00293915       0.06296899
C        2.90585196      -2.33597727      -0.48650573     -58.23900944       0.00849449       0.00298248       0.00414059       0.47174806
F        3.49238924      -2.26524361      -1.68480252    -129.24611370      -0.00109338      -0.00520288       0.00760492      -0.19375661
F        3.39311654      -3.43479171       0.11997125    -129.52693225      -0.00179368       0.00417069      -0.00712920      -0.21367772
F        1.60471607      -2.57920216      -0.71104075    -129.40829353       0.00413270       0.01076725      -0.00995365      -0.20506052
H        1.67780673       0.09235616      -0.09537171     -11.20194989      -0.00888770      -0.01196365       0.00693258       0.33894467
H        4.22247482      -0.97447303       0.48186054     -12.77299851      -0.00886078       0.00761724      -0.00252154       0.08213290
H        2.69025957      -1.28980341       1.35593746     -12.94399639       0.01450230       0.00725298      -0.00818160       0.06176705
