20
Properties=species:S:1:pos:R:3:energies:R:1:forces:R:3:charge:R:1 energy=-1134.9195113224037 free_energy=-1134.9195113224037 dipole="-0.4518088580551854 -0.05996637207899005 0.12996920470659862" pbc="F F F"
C       -0.90679329       0.75151504      -0.62834972     -59.78143166       0.00214368       0.00023366       0.00023188      -0.15580678
C       -0.96304474      -0.49245842       0.20770394     -58.90725974       0.00310739      -0.00168079       0.00142080       0.36569562
O       -0.21892067      -0.73048721       1.13482178    -112.62094551      -0.00013672       0.00313576      -0.00102426      -0.43810462
O       -1.91418537      -1.32408436      -0.18989773    -111.14816544      -0.00399347      -0.00150570       0.00186343      -0.24067395
C       -2.00682616      -2.56831586       0.49604407     -59.22234967      -0.00308345      -0.00037314       0.00111041       0.02514575
H       -1.82032443       0.86093678      -1.20322874     -13.02695292       0.00022951      -0.00081411      -0.00173535       0.07709939
H       -0.74204442       1.61642675       0.00896473     -12.91801188      -0.00163408      -0.00479844      -0.00294262       0.08550476
H       -0.05993054       0.67271700      -1.30900713     -12.76525015      -0.00628267      -0.00167288       0.00230603       0.09995326
H       -2.26853265      -2.40381876       1.54292562     -13.01257697       0.00124272       0.00412511       0.00042780       0.06605479
H       -1.05194389      -3.09449614       0.44707626     -12.94246389      -0.00084243       0.00124296      -0.00249220       0.07587009
H       -2.78521937      -3.13423709      -0.00834709     -12.95386318       0.00105817       0.00188575       0.00167328       0.07426981
O        2.30567913       0.23726546       0.80269833    -112.90391923       0.00526400      -0.00546325       0.00077731      -0.43350499
C        3.06224776      -0.87646491       0.47961826     -59.29780241       0.00105731      -0.00043144       0.00051027       0.06382774
C        2.48019796      -1.67300995      -0.69534670     -58.23221153       0.00147371       0.00241713      -0.00100317       0.47076239
F        2.00338866      -0.88496366      -1.66772358    -129.34160450       0.00208511       0.00197008      -0.00114589      -0.19917652
F        3.40381376      -2.47019871      -1.25516684    -129.46422044       0.00322002       0.00050047      -0.00095187      -0.20836929
F        1.46563026      -2.47715599      -0.33439654    -129.44462008       0.00144361       0.00133740      -0.00247983      -0.20832104
H        1.40725894      -0.03843206       1.08832214     -11.22266969      -0.00314846      -0.00015705       0.00225208       0.33786613
H        4.05009639      -0.52108061       0.17006898     -12.75621689      -0.00010309      -0.00072248       0.00257403       0.08317995
H        3.17484750      -1.57962469       1.31798689     -12.95697554      -0.00310084       0.00077096      -0.00137213       0.05872751
