20
Properties=species:S:1:pos:R:3:energies:R:1:forces:R:3:charge:R:1 energy=-1134.892470307477 free_energy=-1134.892470307477 dipole="-0.6125161485027932 0.04409912815858825 -0.37233608770311294" pbc="F F F"
C       -2.05005679       1.35285852       0.00960299     -59.72992798       0.00514489      -0.01438760      -0.00132947      -0.14968242
C       -1.05670767       0.23154682      -0.08978150     -58.88262235      -0.00343092      -0.00841449      -0.00504559       0.36825789
O        0.05480067       0.33840186      -0.55542023    -112.62565736      -0.00139125       0.00906672      -0.01622347      -0.43713136
O       -1.55006240      -0.90793327       0.37667036    -111.17656922       0.00832241      -0.00056318       0.02084855      -0.24452710
C       -0.69852838      -2.04936348       0.35404600     -59.24897497      -0.00218086       0.00613633      -0.00114656       0.02291606
H       -2.74372437       1.28697341      -0.82686228     -12.88184606       0.01061020       0.00029987       0.00196120       0.08566847
H       -2.61413962       1.26367222       0.93310585     -12.95075547       0.00724912       0.00565313      -0.00685812       0.08280583
H       -1.52901114       2.30462343      -0.03499585     -12.96565841      -0.02043830      -0.00700798       0.00064565       0.08187057
H        0.06815891      -1.95918551       1.12582507     -12.95107885      -0.00463599      -0.00446963      -0.00798550       0.07378124
H       -0.21725908      -2.14892348      -0.62111479     -13.01101860      -0.00818858      -0.00894020       0.00373006       0.06732760
H       -1.33546171      -2.90683633       0.55548004     -12.92893890       0.00444041       0.00949447       0.00192281       0.07652577
O        2.59287156      -0.48709965       0.07485204    -112.92589297      -0.01920293       0.00436087       0.00686938      -0.43234736
C        2.90449293       0.66991220       0.77406480     -59.28092507      -0.00028370       0.00105611       0.00252158       0.06291156
C        2.29685990       0.67126382       2.18211343     -58.22340290      -0.00737162      -0.00796168      -0.00071902       0.47219958
F        2.78178996      -0.30056123       2.96248575    -129.28430059       0.01914377      -0.00208730       0.01094708      -0.19650537
F        2.53138527       1.83281692       2.81518209    -129.49901691       0.00544303      -0.00351508       0.00230647      -0.21097343
F        0.96277385       0.50875201       2.16918291    -129.44245145      -0.01603656       0.00527618      -0.00387486      -0.20823552
H        1.68052027      -0.40054030      -0.26465271     -11.16009805      -0.00116679       0.01384821      -0.01411008       0.34045395
H        3.99115590       0.71715837       0.89176200     -12.78710211       0.00156727      -0.00378995       0.00143233       0.08132085
H        2.54553677       1.57654922       0.27047602     -12.93623208       0.02240640       0.00594522       0.00410755       0.06336320
