13
Properties=species:S:1:pos:R:3:energies:R:1:forces:R:3:charge:R:1 energy=-454.6174277826811 free_energy=-454.6174277826811 dipole="-0.06309238381381595 0.40018123417746376 0.11281359730068101" pbc="F F F"
C        0.50233011       0.93134527      -0.19511642     -59.16084954      -0.00128638      -0.00000130      -0.00633976      -0.06185413
C       -0.72993901       0.51232764       0.60209566     -59.16084963       0.00173935      -0.00287031       0.00553016      -0.06185413
C       -1.02699749      -0.85495227      -0.01239852     -59.08775318       0.00182425      -0.00924045       0.00308493       0.08081699
O        0.22198942      -1.40802995      -0.39693218    -111.67218944       0.00125321      -0.00794864      -0.00224073      -0.32627951
C        1.22587853      -0.40650601      -0.34321354     -59.08775325       0.00064806      -0.00644047      -0.00750544       0.08081701
H        0.20479480       1.30687516      -1.17452771     -13.30385855      -0.00107240       0.01896396      -0.01171550       0.04139807
H        1.11034701       1.68138973       0.30458762     -13.39892903       0.00251921      -0.00689053       0.01386719       0.03752030
H       -1.56496823       1.20217164       0.50830412     -13.39892894      -0.00155466       0.00077187      -0.01559209       0.03752030
H       -0.47418758       0.40182390       1.65621926     -13.30385867      -0.00344771       0.00970572       0.01979771       0.04139806
H       -1.51186882      -1.54413208       0.68369850     -13.24925646      -0.00606340      -0.00632515       0.00964170       0.03748306
H       -1.66229668      -0.75314091      -0.90360667     -13.27197226      -0.00059525       0.00519028      -0.00160293       0.02777546
H        1.87524328      -0.59753784       0.52284355     -13.27197254      -0.00078454       0.00356116       0.00406998       0.02777541
H        1.82967465      -0.47163429      -1.25195366     -13.24925630       0.00682029       0.00152385      -0.01099522       0.03748310
