3
Properties=species:S:1:pos:R:3:energies:R:1:forces:R:3:charge:R:1 energy=-137.9765422607538 free_energy=-137.9765422607538 dipole="-0.004441867648139278 -0.4615877009939358 -1.6628412891083553e-16" pbc="F F F"
O        0.00365089       0.37939186       0.00000000    -114.23354451      -0.00003038      -0.00320679       0.00000000      -0.56469801
H       -0.77399365      -0.18226533      -0.00000000     -11.87149889       0.00178784       0.00158616      -0.00000000       0.28234901
H        0.77034276      -0.19712653      -0.00000000     -11.87149886      -0.00175746       0.00162063      -0.00000000       0.28234901
