14
Properties=species:S:1:pos:R:3:energies:R:1:forces:R:3:charge:R:1 energy=-617.6240345684806 free_energy=-617.6240345684806 dipole="-0.8873087895354602 -0.44419780061295777 0.007639508829455586" pbc="F F F"
C       -2.10531785       1.21275005      -0.10474382     -59.71746269       0.00927340      -0.00565278       0.00198824      -0.14960287
C       -1.23564280      -0.00704210      -0.00284037     -58.89674800      -0.00070537      -0.02203242      -0.00379897       0.36477638
O       -0.03082793      -0.01141042      -0.01107749    -112.40553538       0.01049589      -0.00062804      -0.00164835      -0.42261991
O       -1.96743014      -1.11934258       0.09966101    -111.29451353      -0.00541665      -0.00806149       0.00306090      -0.25720128
C       -1.24691713      -2.34068038       0.20249535     -59.20107834      -0.00253169       0.00593436      -0.00077435       0.03056492
H       -2.74329349       1.12683515      -0.98059917     -12.94364273      -0.01116040       0.00485115       0.00004310       0.08141538
H       -2.74104727       1.27385782       0.77463687     -12.94452909      -0.01519891       0.00919909       0.00100608       0.08137555
H       -1.48600638       2.10036107      -0.18036281     -12.99214490       0.01192657       0.01047319      -0.00051161       0.08050027
H       -0.61393209      -2.33090301       1.09243609     -13.02818259      -0.00262950      -0.01115119      -0.00681950       0.06414865
H       -0.61753418      -2.48177802      -0.67880397     -13.03171092      -0.00217580      -0.01152002       0.00785126       0.06372824
H       -1.99077741      -3.13022682       0.27121857     -12.97566811       0.00646340       0.01618830      -0.00082349       0.07201400
O        2.89565492      -0.00909306       0.00710573    -114.27990771       0.00342945      -0.00216012       0.00167898      -0.58412660
H        1.94657745       0.16062898      -0.00275306     -11.81358359       0.00327656      -0.00028795       0.00018935       0.30591281
H        2.99522966      -0.96278412      -0.00417236     -12.09932698      -0.00504696       0.01484792      -0.00144164       0.26911445
