14
Properties=species:S:1:pos:R:3:energies:R:1:forces:R:3:charge:R:1 energy=-617.7111860119718 free_energy=-617.7111860119718 dipole="-0.4514010434306064 0.14528401101726868 0.051111124847927326" pbc="F F F"
C       -2.30832372       1.25352864      -0.12623933     -59.68771841      -0.00266480       0.00099777       0.00106260      -0.14866978
C       -1.26058420       0.22187890       0.19078369     -58.93427147      -0.00027718       0.00288150      -0.00194095       0.36487945
O       -0.18800134       0.46483386       0.69025297    -112.47510367      -0.00277327       0.00192458      -0.00303600      -0.42934229
O       -1.67057052      -0.99981240      -0.13111533    -111.23848854       0.00116572       0.00098993      -0.00131640      -0.25145412
C       -0.79199845      -2.08599978       0.15542206     -59.24875225       0.00016552      -0.00340448       0.00074293       0.01980830
H       -2.92068402       0.92102132      -0.95837570     -13.03206520      -0.00106978       0.00113337       0.00273655       0.07562284
H       -2.94363396       1.38146149       0.74848619     -12.91847711      -0.00276485       0.00238324      -0.00075263       0.08263352
H       -1.83233659       2.20381261      -0.34929874     -12.98802805       0.00113473      -0.00447981      -0.00056938       0.07961450
H       -0.55463098      -2.10712353       1.22049373     -13.03514336       0.00472688       0.00049299       0.00020280       0.06502435
H        0.13545725      -1.99377713      -0.41147899     -12.81945033      -0.00015216       0.00039066       0.00071099       0.09017558
H       -1.32738468      -2.98661445      -0.13254732     -12.99386286      -0.00303985      -0.00104088      -0.00130437       0.07086124
O        2.22584347      -0.80739255      -0.06528648    -114.46376235       0.00430841       0.00461620      -0.00343952      -0.59805000
H        1.48064423      -0.30003453       0.28945918     -11.79597294      -0.00037829      -0.00243936       0.00613793       0.30730465
H        3.01493886      -0.31020740       0.15515630     -12.08008946       0.00161893      -0.00444571       0.00076543       0.27159175
