14
Properties=species:S:1:pos:R:3:energies:R:1:forces:R:3:charge:R:1 energy=-617.7112851604303 free_energy=-617.7112851604303 dipole="-0.4538440874502475 0.11326508356883347 -0.10172167153726634" pbc="F F F"
C       -2.34636639       1.24811327      -0.08972700     -59.68759149      -0.00033568       0.00112480       0.00009089      -0.14862544
C       -1.27046950       0.20331166      -0.20633054     -58.93589529      -0.00080216       0.00133778      -0.00050726       0.36483313
O       -0.18353410       0.39025477      -0.69850670    -112.47044367       0.00205892      -0.00087066      -0.00149523      -0.42886414
O       -1.67268592      -0.96353841       0.28499475    -111.24258735      -0.00045829      -0.00046413      -0.00022988      -0.25187092
C       -0.76562710      -2.06077352       0.20104962     -59.24679187       0.00005246      -0.00059020       0.00001846       0.02011999
H       -2.97656187       1.19834341      -0.97601299     -12.92097254       0.00155942      -0.00038721      -0.00064301       0.08242596
H       -2.95998773       1.05698585       0.78495328     -13.02778099       0.00035424      -0.00051759      -0.00088561       0.07589188
H       -1.89489089       2.23438543      -0.03972702     -12.99172234      -0.00149607       0.00000675       0.00230110       0.07938749
H        0.13429730      -1.86415052       0.78543334     -12.82477410       0.00075716      -0.00231063      -0.00032302       0.08941725
H       -0.47984524      -2.23532699      -0.83772464     -13.03073359       0.00022342       0.00097086      -0.00013432       0.06543349
H       -1.29918103      -2.92014910       0.59804715     -12.99414507      -0.00063198       0.00172033       0.00195956       0.07083648
O        2.24300503      -0.76724674       0.21474519    -114.46318572      -0.00156779      -0.00416987       0.00323965      -0.59787093
H        1.49590928      -0.30707828      -0.19570597     -11.79399066      -0.00266254      -0.00024970      -0.00100795       0.30734796
H        3.03467353      -0.35755580      -0.13679956     -12.08067047       0.00294890       0.00439947      -0.00238339       0.27153782
