3
Properties=species:S:1:pos:R:3:energies:R:1:forces:R:3:charge:R:1 energy=-137.97654226068394 free_energy=-137.97654226068394 dipole="-0.004441883517052435 -0.4615893869722834 3.519329974542461e-16" pbc="F F F"
O        0.00365089       0.37939186       0.00000000    -114.23358797      -0.00003007      -0.00321984       0.00000000      -0.56470169
H       -0.77399365      -0.18226533      -0.00000000     -11.87147717       0.00178960       0.00159250      -0.00000000       0.28235085
H        0.77034276      -0.19712653      -0.00000000     -11.87147712      -0.00175953       0.00162733      -0.00000000       0.28235085
