14
Properties=species:S:1:pos:R:3:energies:R:1:forces:R:3:charge:R:1 energy=-617.6973455463794 free_energy=-617.6973455463794 dipole="-0.5033736374375305 0.20462854938798325 -0.1260957129523302" pbc="F F F"
C       -2.28312163       1.25380723      -0.13201520     -59.69237470      -0.00264790       0.00145416       0.01067604      -0.14889462
C       -1.24903891       0.20968396       0.18170998     -58.92365230       0.03221202      -0.00839418       0.04350122       0.36447360
O       -0.20534215       0.43697241       0.74771696    -112.47832195      -0.07288213      -0.03724373      -0.04236992      -0.42951738
O       -1.64014355      -0.99985053      -0.20748108    -111.24685518       0.02762299       0.07970410       0.01628196      -0.25130071
C       -0.79154954      -2.09746606       0.11795342     -59.23983308      -0.00739656      -0.00079288      -0.02104668       0.02091980
H       -2.89390223       0.94636206      -0.97357715     -13.04000425       0.00143275      -0.00366088      -0.02324130       0.07540591
H       -2.91911331       1.37208131       0.74221858     -12.90281726      -0.05078612      -0.00481911       0.03012281       0.08360748
H       -1.79588911       2.20394091      -0.32331278     -12.97968102       0.01563740       0.03308536      -0.04954405       0.08002260
H       -0.46192212      -2.01145981       1.15399821     -12.98981228       0.00797257      -0.08508178       0.01320701       0.07062977
H        0.08502533      -2.11946248      -0.52904117     -12.86462406       0.05775246       0.07703555      -0.01542168       0.08391331
H       -1.38506883      -2.99371143      -0.03826361     -12.99617164      -0.03066764      -0.01755719       0.05928667       0.07031021
O        2.22868728      -0.82888731       0.12371894    -114.44614623       0.11734563      -0.02418424      -0.06340227      -0.59743506
H        1.47663716      -0.34792199       0.49476604     -11.80183960      -0.06431930       0.02059781       0.00896568       0.30751190
H        2.89347696      -0.16851323      -0.08267892     -12.09521198      -0.03127617      -0.03014299       0.03298450       0.27035319
