14
Properties=species:S:1:pos:R:3:energies:R:1:forces:R:3:charge:R:1 energy=-617.6424125773782 free_energy=-617.6424125773782 dipole="-0.8703025158999211 0.020070110381224363 -0.2232113041039708" pbc="F F F"
C       -2.12729975       1.22087452      -0.10491302     -59.70493035       0.00208166       0.00450624      -0.00348884      -0.14929251
C       -1.23893454       0.01121899      -0.02669338     -58.91022162      -0.00588156       0.00404007       0.02167708       0.36471902
O       -0.03543774       0.02808926      -0.09006817    -112.42334479      -0.00072147       0.00784926      -0.01564427      -0.42463392
O       -1.95182452      -1.10493303       0.12081443    -111.28376151      -0.01521141       0.00255986      -0.00515975      -0.25587691
C       -1.22075296      -2.32179468       0.20688380     -59.20506589       0.00036545       0.01026089       0.00149564       0.02896535
H       -2.76977208       1.13637991      -0.97801703     -12.94795231      -0.00581791       0.01111659       0.00026246       0.08077665
H       -2.75966504       1.26519660       0.77819810     -12.95707806       0.00533706       0.00065971      -0.00776102       0.08060103
H       -1.51829703       2.11641831      -0.17645576     -13.00752991      -0.01037744       0.01030360       0.00011474       0.07847854
H       -0.57986746      -2.31360449       1.09044205     -13.00705483       0.00620818      -0.01977329       0.00157926       0.06702499
H       -0.59692446      -2.45178514      -0.67950562     -13.01144057      -0.00076762      -0.01359923       0.00292497       0.06659605
H       -1.96233541      -3.11329590       0.27612982     -12.97193746       0.02414734      -0.00513313       0.00232938       0.07235463
O        2.87661782      -0.03353211      -0.01636635    -114.29973287      -0.00314353      -0.00932218      -0.00216769      -0.58567139
H        1.91991691      -0.07083764       0.09623739     -11.82105879      -0.00996191      -0.00427981      -0.00350018       0.30530120
H        3.02331161       0.48718044      -0.80799736     -12.09130363       0.01374316       0.00081142       0.00733821       0.27065726
