14
Properties=species:S:1:pos:R:3:energies:R:1:forces:R:3:charge:R:1 energy=-617.7049888300686 free_energy=-617.7049888300686 dipole="-0.42040744986707557 -0.39982529677998985 -0.010209155838314912" pbc="F F F"
C       -1.27668015       1.00874940      -0.03590734     -59.77728087      -0.00142088      -0.00021102       0.00275456      -0.15733856
C       -0.95119048      -0.45506442       0.00701850     -58.90316253      -0.00336208       0.00032079       0.00062230       0.36445352
O        0.15164280      -0.92905143      -0.13164652    -112.45991215       0.00297629       0.00093519      -0.00409104      -0.42661865
O       -2.04020218      -1.19746684       0.20728878    -111.25754895      -0.00027469       0.00105642       0.00171745      -0.25348509
C       -1.85452006      -2.60649509       0.24042905     -59.19955126       0.00098130       0.00012221       0.00235705       0.03044789
H       -1.65831144       1.24905717      -1.02679517     -12.89957101       0.00503123       0.00182960       0.00209446       0.08480040
H       -2.04705806       1.24122442       0.69304625     -13.01699017      -0.00268458      -0.00393576      -0.00202145       0.07675462
H       -0.37900604       1.59286987       0.14567602     -12.78930390       0.00033203       0.00155536      -0.00260310       0.10362922
H       -1.10840478      -2.87270065       0.99149126     -13.01854460       0.00334504       0.00076926       0.00268567       0.06586728
H       -1.51703308      -2.96677016      -0.73349720     -13.04000655      -0.00332005      -0.00044260       0.00253291       0.06307077
H       -2.82093906      -3.03479930       0.49231809     -12.98353651      -0.00084682      -0.00033017      -0.00580157       0.07106529
O        2.06280153       1.17886998      -0.07033524    -114.44684602       0.00268079      -0.00546713       0.00001150      -0.59787046
H        1.52386170       0.37474630      -0.12751418     -11.81608801       0.00327789       0.00218692      -0.00058666       0.30472119
H        2.97377465       0.89800332      -0.16937171     -12.09664631      -0.00671547       0.00161092       0.00032793       0.27050256
