192
Lattice="16.4661685148741 0.0 0.0 0.0 16.4661685148741 0.0 0.0 0.0 16.4661685148741" Properties=species:S:1:pos:R:3 Built=T with=T Packmol=T charge=0 spin=1 external_field="_JSON [0.0, 0.0, 0.0]" pbc="T T T"
O       14.31031400       5.42789100       7.86315800
C       13.71514800       6.45507600       7.13295100
C       12.97874500       5.88724300       5.91424100
F       12.03908300       5.02860000       6.32123100
F       13.82100000       5.21596600       5.11115000
F       12.38187700       6.83745900       5.19066100
C       14.75072800       7.52829900       6.77829200
F       15.75614200       7.00817600       6.05475900
F       15.27744000       8.02766900       7.90033200
F       14.22027600       8.54008000       6.08717300
H       14.97827500       4.99450000       7.31646200
H       12.96657900       6.92854000       7.76889000
O       13.27358100      11.45259400       3.69960600
C       12.75899400      10.62619900       2.70220800
C       11.28270700      10.95135800       2.44759300
F       11.16584400      12.22833700       2.07137900
F       10.55338400      10.78921500       3.56417700
F       10.75080400      10.18978800       1.48852000
C       13.01215600       9.15358700       3.04475200
F       12.44208900       8.82587000       4.21629400
F       14.32648300       8.94287200       3.16271300
F       12.54516100       8.32461900       2.10802600
H       12.80782200      11.27964600       4.52787800
H       13.29873700      10.83874100       1.77892800
O       11.88927600       3.60240700       4.00750000
C       10.79274600       2.84418100       3.60099500
C       10.68091800       1.57025000       4.44631900
F       10.54082300       1.90024200       5.73370000
F       11.79053600       0.82055500       4.33830700
F        9.63435500       0.81762100       4.09849000
C       10.85799900       2.57561500       2.09313900
F       11.98388800       1.91849100       1.76841600
F       10.86445500       3.73760000       1.43320000
F        9.81803200       1.86074400       1.65707300
H       12.69901100       3.09897800       3.85334100
H        9.89244600       3.43143200       3.78413600
O        6.55070700      14.08272700      13.33789000
C        6.71132200      14.34260300      11.97803700
C        7.92629800      13.58594900      11.42914300
F        7.75506900      12.27355200      11.61398200
F        9.04916000      13.94324800      12.07449700
F        8.11126000      13.79668500      10.12372700
C        6.76464300      15.85364900      11.72522900
F        7.78052400      16.41978100      12.39781000
F        5.63209400      16.41783600      12.15510700
F        6.90597400      16.14940500      10.43090200
H        7.32025500      14.41422300      13.81828600
H        5.83271800      13.96050400      11.45746200
O        1.82846900      14.04844900      14.14514900
C        2.54819900      15.11839700      13.61625200
C        2.89839100      14.85306700      12.14759800
F        1.77449500      14.68240300      11.44502900
F        3.62991900      13.73337100      12.02067600
F        3.57940900      15.86021900      11.59570100
C        3.76848700      15.42649400      14.49145900
F        4.58015300      14.35964000      14.58036900
F        3.36460300      15.73035000      15.72852000
F        4.48208300      16.45519700      14.02747800
H        2.38120100      13.25646900      14.13373000
H        1.90560300      15.99900900      13.63936200
O        9.92002700      11.84412100      14.08016600
C       10.62693900      10.79725700      13.49119700
C        9.96953500      10.38567400      12.16892700
F        9.94815900      11.43138400      11.33711800
F        8.69859300       9.99570300      12.36280500
F       10.62238200       9.39122800      11.56262800
C       10.79001400       9.63852900      14.48153600
F        9.59465600       9.17973000      14.88836300
F       11.44760800      10.06597500      15.56349200
F       11.47369100       8.61610200      13.96196300
H        9.02883800      11.54286300      14.29902900
H       11.62736000      11.15999600      13.25346000
O        4.20725500      14.67870300       7.09403700
C        4.79874400      13.48083500       7.49125800
C        6.12330400      13.75252600       8.21354900
F        5.89724600      14.51463900       9.28777200
F        6.97919300      14.41604800       7.41846700
F        6.72011800      12.63069300       8.62346900
C        4.93577900      12.53030700       6.29638100
F        5.68231700      13.08124000       5.32476500
F        3.72698700      12.28101000       5.78408700
F        5.48800000      11.36261900       6.63444100
H        4.78183200      15.12112500       6.45607200
H        4.13373100      13.00036000       8.20948100
O        8.66119100       4.98155300      14.66128500
C        9.80320600       5.65588400      14.23278500
C        9.47415900       6.55896900      13.03857200
F        8.54079500       7.44662000      13.39463300
F        8.98287900       5.84318000      12.01326700
F       10.53937300       7.23517000      12.60176400
C       10.93806200       4.66308200      13.95627100
F       10.58162400       3.77272500      13.01547300
F       11.21610600       3.98182100      15.07177300
F       12.05818500       5.26821200      13.55394300
H        8.35108400       4.40023700      13.95504000
H       10.13421100       6.30436200      15.04448300
O        0.73681700       7.45647900      14.14055800
C        1.67753900       7.96039600      15.03701800
C        1.68192500       9.49295100      15.00189600
F        0.46879500       9.94987300      15.32656300
F        1.96991500       9.94654500      13.77052400
F        2.56214100      10.02014400      15.85630700
C        3.05334600       7.33722900      14.77465900
F        3.46764900       7.59231200      13.52239300
F        2.97508800       6.01020900      14.91127400
F        3.98496200       7.78354300      15.62060300
H        0.98578100       7.70953800      13.24230800
H        1.37632700       7.66284600      16.04184600
O       11.24717100      13.13637500      11.82416800
C       11.95305200      14.15361400      11.18425500
C       13.30781000      14.37505400      11.86658600
F       14.01912900      13.24457200      11.82291400
F       13.14884900      14.70444400      13.15933300
F       14.02474400      15.33502800      11.27736300
C       11.09766000      15.42250400      11.09350400
F       10.73518700      15.84837600      12.31503200
F        9.97999900      15.15879900      10.41008300
F       11.73170600      16.42172600      10.47522600
H       11.05636500      13.40408700      12.73235300
H       12.15663700      13.82960800      10.16321800
O        7.26221300       2.14134300       2.14719400
C        6.07214700       2.46199900       2.79792900
C        5.79258900       3.96542900       2.69058000
F        5.70261800       4.31140600       1.40291700
F        6.79071200       4.68182800       3.23416400
F        4.65298900       4.31642900       3.29128100
C        6.09548500       1.94425500       4.24063900
F        7.12146400       2.47452900       4.92697800
F        6.25618200       0.61763500       4.23568000
F        4.96720700       2.21941100       4.89943000
H        7.99620900       2.58893300       2.58740700
H        5.25980300       1.94663100       2.28467000
O        7.49052000       6.65141400       9.46166800
C        6.18306800       6.40505900       9.87689100
C        5.74968000       4.99256300       9.46822300
F        6.56954700       4.09602500      10.02491800
F        5.81890900       4.83309600       8.13603000
F        4.50448100       4.70850700       9.85748100
C        5.24449300       7.50541900       9.36865800
F        5.26716700       7.57735300       8.02731700
F        5.64632600       8.68835300       9.84296500
F        3.98036500       7.31561400       9.75425100
H        7.52914100       6.62096800       8.49706600
H        6.16410100       6.44442000      10.96640200
O       12.64195200      13.74515200       5.99476000
C       13.92111700      14.21810900       6.28213200
C       14.13922400      15.59312500       5.64046200
F       13.23095100      16.45351200       6.11019000
F       13.98874900      15.53255600       4.30680100
F       15.35047200      16.09101200       5.90068900
C       14.97681200      13.18079900       5.88274800
F       14.90350300      12.89809400       4.57141700
F       14.76164600      12.04490300       6.55298200
F       16.21945900      13.58821400       6.15213200
H       12.55596000      13.61949000       5.04098400
H       13.99452000      14.35202600       7.36177100
O        3.16526900       7.02103600       5.54146600
C        3.55934100       5.68485900       5.49818200
C        2.99723900       4.92253300       6.70353600
F        1.66278800       4.99325900       6.69304300
F        3.42289300       5.46301200       7.85751300
F        3.34071700       3.63230000       6.69631500
C        5.08282800       5.58095900       5.36325100
F        5.70054900       6.18203400       6.39379200
F        5.47425500       6.19657300       4.24361900
F        5.50449000       4.31541000       5.30570100
H        3.53939300       7.43781500       6.32836000
H        3.12617900       5.23621200       4.60373800
O        8.78645900       3.53298200       8.58603600
C        9.35970000       3.54060800       9.85641800
C       10.82076700       3.99836200       9.78076100
F       10.87641600       5.22795000       9.26029200
F       11.53957100       3.18850000       8.98552200
F       11.40727600       4.03241200      10.97975100
C        9.17877400       2.17682200      10.53270800
F        9.74637800       1.19922300       9.80675200
F        7.87560600       1.89903600      10.63448100
F        9.70365600       2.14260500      11.75992200
H        9.24729600       2.88918900       8.03283200
H        8.82443700       4.27290500      10.46154400
O        7.19659300      10.30949700      13.93198200
C        6.06182700      10.18240900      13.13280300
C        4.85419400      10.83947000      13.81094300
F        5.10938000      12.13474900      14.01831600
F        4.60769200      10.27827000      15.00645700
F        3.74483700      10.75189400      13.07311800
C        5.83176400       8.71314000      12.76087200
F        5.67525900       7.95613000      13.85965600
F        6.89594300       8.24882300      12.09928100
F        4.75910000       8.54585500      11.98361100
H        7.05626800       9.83526500      14.76161300
H        6.24316000      10.72436500      12.20417800
