12

O      -0.653041686006308      1.355837935523718     -0.742430374350374
C      -0.070993494795562      0.105114038182675     -0.543830307004771
C      -1.029004372771202     -0.814749011033633      0.221706429817696
F      -2.161643783930306     -0.956540151438216     -0.473199896304616
F      -1.349285213249900     -0.290827016575928      1.416648821936831
F      -0.515823604632917     -2.030638791556767      0.424159365122245
C       1.300816620849930      0.253877661540185      0.124017706270285
F       1.195103806157076      0.876172845958488      1.309959529532526
F       2.096168866683988      0.996426482191406     -0.651743943011976
F       1.901380045198441     -0.921945960092445      0.322736583282231
H      -0.808887150639090      1.773941477245689      0.114177764921323
H       0.095209967135849     -0.346669509945172     -1.522201680211399
