         192
  Built with Packmol                                             
  O           14.310314        5.427891        7.863158
  C           13.715148        6.455076        7.132951
  C           12.978745        5.887243        5.914241
  F           12.039083        5.028600        6.321231
  F           13.821000        5.215966        5.111150
  F           12.381877        6.837459        5.190661
  C           14.750728        7.528299        6.778292
  F           15.756142        7.008176        6.054759
  F           15.277440        8.027669        7.900332
  F           14.220276        8.540080        6.087173
  H           14.978275        4.994500        7.316462
  H           12.966579        6.928540        7.768890
  O           13.273581       11.452594        3.699606
  C           12.758994       10.626199        2.702208
  C           11.282707       10.951358        2.447593
  F           11.165844       12.228337        2.071379
  F           10.553384       10.789215        3.564177
  F           10.750804       10.189788        1.488520
  C           13.012156        9.153587        3.044752
  F           12.442089        8.825870        4.216294
  F           14.326483        8.942872        3.162713
  F           12.545161        8.324619        2.108026
  H           12.807822       11.279646        4.527878
  H           13.298737       10.838741        1.778928
  O           11.889276        3.602407        4.007500
  C           10.792746        2.844181        3.600995
  C           10.680918        1.570250        4.446319
  F           10.540823        1.900242        5.733700
  F           11.790536        0.820555        4.338307
  F            9.634355        0.817621        4.098490
  C           10.857999        2.575615        2.093139
  F           11.983888        1.918491        1.768416
  F           10.864455        3.737600        1.433200
  F            9.818032        1.860744        1.657073
  H           12.699011        3.098978        3.853341
  H            9.892446        3.431432        3.784136
  O            6.550707       14.082727       13.337890
  C            6.711322       14.342603       11.978037
  C            7.926298       13.585949       11.429143
  F            7.755069       12.273552       11.613982
  F            9.049160       13.943248       12.074497
  F            8.111260       13.796685       10.123727
  C            6.764643       15.853649       11.725229
  F            7.780524       16.419781       12.397810
  F            5.632094       16.417836       12.155107
  F            6.905974       16.149405       10.430902
  H            7.320255       14.414223       13.818286
  H            5.832718       13.960504       11.457462
  O            1.828469       14.048449       14.145149
  C            2.548199       15.118397       13.616252
  C            2.898391       14.853067       12.147598
  F            1.774495       14.682403       11.445029
  F            3.629919       13.733371       12.020676
  F            3.579409       15.860219       11.595701
  C            3.768487       15.426494       14.491459
  F            4.580153       14.359640       14.580369
  F            3.364603       15.730350       15.728520
  F            4.482083       16.455197       14.027478
  H            2.381201       13.256469       14.133730
  H            1.905603       15.999009       13.639362
  O            9.920027       11.844121       14.080166
  C           10.626939       10.797257       13.491197
  C            9.969535       10.385674       12.168927
  F            9.948159       11.431384       11.337118
  F            8.698593        9.995703       12.362805
  F           10.622382        9.391228       11.562628
  C           10.790014        9.638529       14.481536
  F            9.594656        9.179730       14.888363
  F           11.447608       10.065975       15.563492
  F           11.473691        8.616102       13.961963
  H            9.028838       11.542863       14.299029
  H           11.627360       11.159996       13.253460
  O            4.207255       14.678703        7.094037
  C            4.798744       13.480835        7.491258
  C            6.123304       13.752526        8.213549
  F            5.897246       14.514639        9.287772
  F            6.979193       14.416048        7.418467
  F            6.720118       12.630693        8.623469
  C            4.935779       12.530307        6.296381
  F            5.682317       13.081240        5.324765
  F            3.726987       12.281010        5.784087
  F            5.488000       11.362619        6.634441
  H            4.781832       15.121125        6.456072
  H            4.133731       13.000360        8.209481
  O            8.661191        4.981553       14.661285
  C            9.803206        5.655884       14.232785
  C            9.474159        6.558969       13.038572
  F            8.540795        7.446620       13.394633
  F            8.982879        5.843180       12.013267
  F           10.539373        7.235170       12.601764
  C           10.938062        4.663082       13.956271
  F           10.581624        3.772725       13.015473
  F           11.216106        3.981821       15.071773
  F           12.058185        5.268212       13.553943
  H            8.351084        4.400237       13.955040
  H           10.134211        6.304362       15.044483
  O            0.736817        7.456479       14.140558
  C            1.677539        7.960396       15.037018
  C            1.681925        9.492951       15.001896
  F            0.468795        9.949873       15.326563
  F            1.969915        9.946545       13.770524
  F            2.562141       10.020144       15.856307
  C            3.053346        7.337229       14.774659
  F            3.467649        7.592312       13.522393
  F            2.975088        6.010209       14.911274
  F            3.984962        7.783543       15.620603
  H            0.985781        7.709538       13.242308
  H            1.376327        7.662846       16.041846
  O           11.247171       13.136375       11.824168
  C           11.953052       14.153614       11.184255
  C           13.307810       14.375054       11.866586
  F           14.019129       13.244572       11.822914
  F           13.148849       14.704444       13.159333
  F           14.024744       15.335028       11.277363
  C           11.097660       15.422504       11.093504
  F           10.735187       15.848376       12.315032
  F            9.979999       15.158799       10.410083
  F           11.731706       16.421726       10.475226
  H           11.056365       13.404087       12.732353
  H           12.156637       13.829608       10.163218
  O            7.262213        2.141343        2.147194
  C            6.072147        2.461999        2.797929
  C            5.792589        3.965429        2.690580
  F            5.702618        4.311406        1.402917
  F            6.790712        4.681828        3.234164
  F            4.652989        4.316429        3.291281
  C            6.095485        1.944255        4.240639
  F            7.121464        2.474529        4.926978
  F            6.256182        0.617635        4.235680
  F            4.967207        2.219411        4.899430
  H            7.996209        2.588933        2.587407
  H            5.259803        1.946631        2.284670
  O            7.490520        6.651414        9.461668
  C            6.183068        6.405059        9.876891
  C            5.749680        4.992563        9.468223
  F            6.569547        4.096025       10.024918
  F            5.818909        4.833096        8.136030
  F            4.504481        4.708507        9.857481
  C            5.244493        7.505419        9.368658
  F            5.267167        7.577353        8.027317
  F            5.646326        8.688353        9.842965
  F            3.980365        7.315614        9.754251
  H            7.529141        6.620968        8.497066
  H            6.164101        6.444420       10.966402
  O           12.641952       13.745152        5.994760
  C           13.921117       14.218109        6.282132
  C           14.139224       15.593125        5.640462
  F           13.230951       16.453512        6.110190
  F           13.988749       15.532556        4.306801
  F           15.350472       16.091012        5.900689
  C           14.976812       13.180799        5.882748
  F           14.903503       12.898094        4.571417
  F           14.761646       12.044903        6.552982
  F           16.219459       13.588214        6.152132
  H           12.555960       13.619490        5.040984
  H           13.994520       14.352026        7.361771
  O            3.165269        7.021036        5.541466
  C            3.559341        5.684859        5.498182
  C            2.997239        4.922533        6.703536
  F            1.662788        4.993259        6.693043
  F            3.422893        5.463012        7.857513
  F            3.340717        3.632300        6.696315
  C            5.082828        5.580959        5.363251
  F            5.700549        6.182034        6.393792
  F            5.474255        6.196573        4.243619
  F            5.504490        4.315410        5.305701
  H            3.539393        7.437815        6.328360
  H            3.126179        5.236212        4.603738
  O            8.786459        3.532982        8.586036
  C            9.359700        3.540608        9.856418
  C           10.820767        3.998362        9.780761
  F           10.876416        5.227950        9.260292
  F           11.539571        3.188500        8.985522
  F           11.407276        4.032412       10.979751
  C            9.178774        2.176822       10.532708
  F            9.746378        1.199223        9.806752
  F            7.875606        1.899036       10.634481
  F            9.703656        2.142605       11.759922
  H            9.247296        2.889189        8.032832
  H            8.824437        4.272905       10.461544
  O            7.196593       10.309497       13.931982
  C            6.061827       10.182409       13.132803
  C            4.854194       10.839470       13.810943
  F            5.109380       12.134749       14.018316
  F            4.607692       10.278270       15.006457
  F            3.744837       10.751894       13.073118
  C            5.831764        8.713140       12.760872
  F            5.675259        7.956130       13.859656
  F            6.895943        8.248823       12.099281
  F            4.759100        8.545855       11.983611
  H            7.056268        9.835265       14.761613
  H            6.243160       10.724365       12.204178
