10
Properties=species:S:1:pos:R:3 pbc="F F F"
C        0.00000000       0.00000000       0.00000000
F        0.75872465       0.75872465       0.75872465
F        0.75872465      -0.75872465      -0.75872465
F       -0.75872465       0.75872465      -0.75872465
F       -0.75872465      -0.75872465       0.75872465
C        8.50000000       0.00000000       0.00000000
F        9.25872465       0.75872465       0.75872465
F        9.25872465      -0.75872465      -0.75872465
F        7.74127535       0.75872465      -0.75872465
F        7.74127535      -0.75872465       0.75872465
