192
Lattice="14.05790476106759 0.0 0.0 0.0 14.05790476106759 0.0 0.0 0.0 14.05790476106759" Properties=species:S:1:pos:R:3:momenta:R:3:forces:R:3:charge:R:1:energies:R:1 Built=T with=T Packmol=T charge=0 spin=1 external_field="_JSON [0.0, 0.0, 0.0]" energy=-17.316858291625977 stress="-0.003588732797652483 -0.003478079801425338 -0.0015997933223843575 -0.003478079801425338 -0.004558646585792303 0.003207448637112975 -0.0015997933223843575 0.003207448637112975 -0.00648593669757247" dipole="-1.0414674282073975 -1.2180397510528564 -0.5637466907501221" free_energy=-17.316858291625977 pbc="T T T"
O       13.15146617       5.75007701       6.86770040      -0.10020823       0.21422986      -0.29720505      -0.27151176      -0.28527161       0.53546876      -0.02843683      -0.11220427
C       12.32278864       4.63026260       6.65530945      -0.18052616      -0.08299698       0.34811145       0.65035695       0.17355770       0.04705973       0.01311966      -0.23352720
C       10.88696751       4.94082496       7.09961260       0.33899100       0.00146007      -0.42625151       0.27449402      -0.31598642      -0.01479305       0.02171049      -0.11647771
F       10.51995310       5.97489731       6.34891405      -0.62881603       0.07891944      -1.07344897      -0.20229694       0.61495006       0.51126897      -0.01193130      -0.22204432
F       10.66606414       5.18896582       8.41901682       0.05693339      -0.17110699      -0.10141559       0.61644614       0.42988449      -1.09484398      -0.01059428      -0.24723884
F       10.11160178       3.91704849       6.79779930       0.40483561      -0.31448140      -1.15710207      -0.67584383      -0.83158964      -0.22917821      -0.00903297      -0.24803877
C       13.00879127       3.41501068       7.32969856      -0.47454198       0.17287567      -0.89641513      -0.10369365      -0.17050242      -1.96207786       0.02314960      -0.10675028
F       13.41347424       3.74813872       8.50716859       1.43677047      -1.39293916      -0.20939314       0.15539816       0.46603468       2.27541280      -0.00632449      -0.19055089
F       14.12424548       3.06250518       6.66988242      -0.44218852       0.76795564      -0.34488063      -0.39835790      -0.15930477      -0.53059745      -0.01032384      -0.25727546
F       12.21381261       2.31786324       7.41772698       0.51140869      -0.65566692       0.25841321       0.07942661       0.26898256       0.05598300      -0.00801963      -0.30676109
H       13.22161407       5.86403524       7.83714539       0.05120360       0.28552283      -0.08152198       0.09371389       0.10148442      -0.55351794       0.02318235      -0.04821887
H       12.24654253       4.46922493       5.56156025       0.06011452       0.04721336       0.06556889       0.11973479      -0.05920171       0.59353697       0.01401216      -0.04731696
O        1.94653146       9.04243464       2.12293714       0.00214533      -0.00145421       0.00227168       0.93659055       0.52026594      -0.44688570      -0.03029219      -0.15173961
C        2.99086960       9.94970087       2.46848428       0.12894791       0.06654043      -0.05037804       0.37301964      -2.04216242       0.05849121       0.01239887      -0.24082096
C        2.68407079      11.28843996       1.88209575       0.55571214      -0.36587164      -0.64938339      -0.69166791       1.12826729      -0.92737025       0.02135885      -0.13155977
F        1.45449267      11.63586947       2.26845730       0.47236341       0.14773542      -0.17200074      -0.75956559      -0.39399406      -0.47152174      -0.01189643      -0.22447543
F        2.76021259      11.34044290       0.51766248       0.31310225       0.32556047       0.08899330      -0.12142047       0.08291189       1.08457577      -0.01205166      -0.21316236
F        3.41984360      12.26875131       2.32826499      -0.64462877       0.21711855       1.48710121       1.73409939       0.69099653       0.20243068      -0.00689954      -0.17929734
C        4.38303139       9.31385588       2.10894941      -0.12269934       0.60154798      -0.19983063      -0.68393457      -0.64912641       0.49302754       0.02207367      -0.12462583
F        4.41666800       8.72532955       0.92031777      -0.83484720      -0.10421050       0.42100511      -0.35612160       0.02797809      -0.41514224      -0.00982019      -0.24008697
F        4.66059974       8.30466574       2.99681751       0.73010264       0.38055187      -0.10882713      -0.14622729       1.22174764      -0.52551502      -0.01291755      -0.24336612
F        5.33497181      10.22955665       2.11674071      -0.41656079       1.56831634      -0.33882000       0.05014799      -0.31399906       0.27874330      -0.00944879      -0.21651322
H        2.03077392       8.92107149       1.15015348      -0.15158172      -0.08281297       0.04734155      -0.19877762      -0.09032729       0.82512635       0.02102348      -0.05372564
H        3.01605861      10.07030519       3.55122813      -0.03435640       0.04855172       0.10526439      -0.20842186      -0.01131506      -0.02614680       0.01188505      -0.05222990
O        7.38219330      12.51347419      13.47732417      -0.31143303       0.71559316      -0.33009732       0.47260860       0.25324461      -0.67117304      -0.03220043      -0.09513997
C        7.85459985      12.63015714      12.17024895      -0.06164287       0.58297255      -0.10195753      -0.67622954       0.27373371      -0.05386349       0.00877239      -0.26071942
C        9.28728386      13.17111595      12.10350390      -0.16227000       0.28778929      -0.53886348       0.31561750       0.31438845       1.25152671       0.02160655      -0.12843910
F       10.05101375      12.66497611      13.11970310      -0.41987342       0.68343481       0.23441621      -0.59003502       0.11763559      -1.10616827      -0.01408584      -0.25384647
F        9.28443255      14.52620954      12.33020156       0.22233519       1.06227646      -0.87151121      -0.04450904      -0.99450731      -0.47567186      -0.01236608      -0.24456842
F        9.87925055      12.87201926      10.93945228      -0.68714622       0.17454818      -0.26891541      -0.36852348       0.23129378       0.67695218      -0.01094028      -0.20697227
C        6.80082582      13.48135601      11.39541646      -0.25439728       0.25215134      -0.20902122       0.84487027      -0.40578032       1.60776031       0.02115501      -0.13565525
F        6.54477022      14.58510426      12.10361369      -1.21910862       0.73921973      -0.04645424      -0.49374366       0.06311855       0.26313379      -0.01030011      -0.22401595
F        5.68724726      12.74223398      11.37355232      -1.18433536       0.34880122      -0.25190577      -0.45499250       0.03486356      -0.50770587      -0.01353118      -0.28655422
F        7.15053878      13.84600051      10.19295450       0.13807544       1.68394956       1.37757559       0.10539097       0.00447586      -0.80666816      -0.00938157      -0.23106043
H        7.46509464      13.36118196      13.94123662      -0.15318929       0.06177604      -0.08692991      -0.07050146      -0.24025421      -0.31255919       0.02443935      -0.01106036
H        7.79719301      11.63507552      11.74282386      -0.02287676      -0.11398365      -0.05187780       0.39310515      -0.04080994      -0.16743286       0.00999094      -0.04249740
O       13.19031081       8.60683858       1.62204099       1.23028824       0.36858630      -1.93919219       0.96477985       0.05225052      -0.13633728      -0.03174387      -0.12480760
C       12.26181084       8.89011232       2.60397898       0.27914887      -0.00656829      -0.01024003      -1.21311104      -2.47624159      -1.21215940       0.01061654      -0.15786430
C       12.58074215      10.07229579       3.47741584       0.47274026      -0.29579900      -1.00091849       0.58855945      -1.68885481       1.61497843       0.02147920      -0.09635298
F       13.05782437      11.04803817       2.77940429       0.95127631      -0.23493172      -1.93292306       0.26789767       1.15151811      -0.46310276      -0.00716304      -0.22345182
F       13.49879462       9.80209316       4.49827405       1.16051551       0.41170404      -1.41395270      -0.73072076       0.26828429      -1.18088770      -0.01750388      -0.27496246
F       11.44776507      10.38523026       4.07873186       1.57784549       1.86591784      -0.43412652      -0.46140867       0.65279186       0.58415449      -0.00952934      -0.20182164
C       11.88507796       7.54530500       3.34504491      -0.57737667       0.24606680      -0.69208258      -0.13473080       1.87898898      -0.16116415       0.02325686      -0.09384537
F       12.74116248       7.32282962       4.30270539      -0.28059083       0.88974245      -0.41071975       0.75368381      -0.98355484       0.94317240      -0.00892094      -0.24378288
F       11.93067499       6.51558283       2.46927696       0.57890406       1.66390927      -1.48549687      -0.33023587       0.32930335       0.46265006      -0.00686940      -0.26541319
F       10.65272780       7.62852372       3.90359320       0.39994088      -0.08598881       0.48498027       0.39725801      -0.34023297      -0.56497264      -0.01341720      -0.27789962
H       14.07462693       8.42172865       1.99921332       0.39643876       0.12148786       0.07387867      -0.41522482       0.29980895       0.02417472       0.02153692      -0.07069193
H       11.30416460       9.05623017       2.07510240      -0.21049964       0.02283365       0.20378450       0.48118153       0.71731186       0.09382307       0.01252805      -0.02062487
O       10.69335034       4.55264109       0.70739117       1.10566180      -1.00251265      -0.73894293      -0.19281417       0.64596742      -0.90454143      -0.02590866      -0.06196515
C       10.46674963       3.37244360       1.33912507      -0.22670644      -0.94915820       1.00509409      -0.53147107      -0.98883790       1.48696768       0.01335267      -0.19076030
C        9.29885999       3.57898020       2.36279048       0.34381990      -0.26439840       0.19853686       0.94827116      -0.37880239       0.88058931       0.02340586      -0.11252443
F        8.30391393       4.10685470       1.68409879       0.78720956      -0.97551191      -0.61169195      -0.70808673      -0.09107456       0.00955686      -0.00700692      -0.24425074
F        9.65567460       4.48339056       3.32661178      -0.04012817      -2.06558789       0.06593041      -0.13610686      -0.74371272      -0.47335884      -0.01254419      -0.28124666
F        8.87399983       2.43771799       2.99955987       0.22705181      -2.16727014      -0.24920466       0.43184963       1.22051513      -0.79243678      -0.01025650      -0.26648203
C       11.73939078       2.77400069       1.88330584      -0.22517553       0.26013138       0.16005132       1.65251362      -0.44947106       1.00707424       0.02154632      -0.15103915
F       12.53982123       3.61958321       2.57644017      -0.77165740      -1.25580804       0.82882088      -0.66222453       0.40085956       0.04408550      -0.01123933      -0.28460857
F       12.52407342       2.30145116       0.91254662       0.17798156      -0.86313099       1.08003002      -0.24871027       0.12605183      -0.59666824      -0.01111076      -0.23585135
F       11.49608727       1.73645353       2.68108938       0.30379789       0.51738588       0.20843544      -0.41704711      -0.18010536       0.45808622      -0.01015744      -0.24472603
H       11.12913944       5.19276192       1.29174406      -0.24494527       0.21895947      -0.01823034      -0.10450450      -0.25594461      -0.02815984       0.02299041      -0.07844926
H       10.14749765       2.52247355       0.71979914      -0.03819979      -0.08559160       0.00185717      -0.36284375       0.68737072      -0.68329626       0.01410410      -0.01452022
O        8.71506448       7.00970667      11.70243392       1.05111839       0.09163763       0.97092225      -0.16716209       1.47644854      -0.10412911      -0.02877340      -0.08851784
C        8.48055478       8.32987961      12.11121622       0.31617471       0.46247292       0.63369845      -0.38369909       0.47387454      -0.51881009       0.01107115      -0.26952302
C        9.14012092       8.61858207      13.43832922       0.11393503      -0.41312396       0.44969930       1.83982372      -1.33701456       0.81916773       0.02145261      -0.12497403
F       10.44898889       8.15758035      13.33150823       0.10333618      -1.99605991       1.03023544      -1.35813689      -0.26548681       0.49410036      -0.01684934      -0.22034860
F        8.54765920       7.96167382      14.46297227      -0.21355830      -0.09986980       0.70894816       0.39962420       0.12388264      -0.42466462      -0.01070112      -0.29086202
F        9.26099636       9.87686063      13.78694478       1.13565624      -1.02840180      -0.29743021      -0.56266958       0.75901961      -0.13405804      -0.01002142      -0.22145531
C        6.97975792       8.72432689      12.12104665       0.37095143       0.15312512       0.40618511      -0.58638078      -1.17131555      -0.14542626       0.02279684      -0.12402587
F        6.33451572       7.85136168      12.92756847       0.45065133      -0.96997690      -0.46577093       0.27407956       0.27724874      -0.17981344      -0.01122124      -0.22889000
F        6.44648949       8.58256219      10.88432113       0.31171449      -0.80068820       0.59454321       0.41021869       0.30965096       0.52301520      -0.01407014      -0.26885629
F        6.69575853       9.96308518      12.54898933       0.01395184       0.31429335       0.80407253       0.44019371      -0.49265322      -0.10747508      -0.00887039      -0.23938283
H        8.25861076       6.43115274      12.29729664      -0.20772210      -0.19702093      -0.06854409      -0.44783568      -0.89062178       0.61531776       0.02492032      -0.04050574
H        8.98695123       8.95841761      11.39258236       0.03271122       0.07285153       0.05526380       0.03719521       0.29620767      -0.22348376       0.01124299      -0.04109354
O        3.73860549       1.25027623      11.90593887      -0.21636961      -0.49873561      -0.34232850      -0.28847483      -0.80130345       0.87810344      -0.02064535      -0.01558756
C        2.55762780       1.67210300      11.28971959      -0.33707432      -0.46140363       0.37735966       0.49214989       0.43057621       0.36530057       0.01343156      -0.23252109
C        2.81261423       1.55569213       9.79618372       0.09950363      -0.60051537      -0.48626300       0.45492476       0.71234328      -0.85565460       0.02302688      -0.13257885
F        3.36952879       0.35326229       9.50880661       0.02598557      -0.72177325      -0.63014606      -0.28647283       1.47407651       0.16860346      -0.01112019      -0.19773869
F        3.64858120       2.55095157       9.32599237      -0.01611385      -0.13386603      -0.30628335      -0.47680536      -1.50958955       0.37370086      -0.01162636      -0.21865402
F        1.66698311       1.72605892       9.12398827      -0.31306861       0.85248037      -1.77152366       0.07349923      -0.33051738      -0.17182007      -0.01253640      -0.24964339
C        2.17687058       3.10062157      11.78004823      -0.63994452      -0.32930859       0.03194979       1.62638652      -0.02993626       0.21541445       0.02249443      -0.13560724
F        2.83600497       4.05450436      11.11043216      -0.84516341      -0.22367976       0.81746837      -0.04709898       0.27809015      -0.18500371      -0.01086229      -0.23730789
F        2.60139870       3.20693661      13.05705468       0.43117997       0.41235120       0.20523996      -0.79186416      -0.19908781      -0.21389067      -0.01013744      -0.24062917
F        0.88705912       3.36941505      11.68412829      -0.60892362       0.44002660       0.25514232      -0.02049399      -0.32968757       0.18896213      -0.00992817      -0.21799213
H        3.53043634       0.47113860      12.47428832       0.29201173      -0.09842705      -0.30177979       0.44809258       0.92286789      -0.58974510       0.02663599      -0.01707936
H        1.71008066       1.08329694      11.57611026       0.06956475      -0.19414009       0.05934106      -0.57525545      -0.68379766      -0.16101445       0.01372476      -0.04000434
O        2.33490473       7.00231231      10.85716669       0.39660164       0.27111460       0.16918511       0.15104078      -0.34591389       0.44681981      -0.02968330      -0.10323191
C        1.94099085       7.46760347      12.12071597      -0.73531294      -0.21365541       1.04786237       0.50891078      -1.72048795       0.23531653       0.00952351      -0.26887575
C        2.67095136       8.72969957      12.39837121      -0.32915745      -0.54900964       0.28529245       1.28755283       0.24334534       0.52422249       0.02045031      -0.11252297
F        2.51021866       9.55826850      11.44055883      -0.11431548      -0.20270863       0.54232163      -0.65804267       1.83479965      -2.42664361      -0.01176888      -0.11772346
F        4.00415937       8.56156024      12.46737424       0.30212525      -0.21496610       0.80346263      -0.01567918      -0.58507794       0.53554821      -0.01239701      -0.23099934
F        2.25161993       9.38773206      13.47787535      -1.03331638      -0.51356011      -0.18469061      -0.37128663      -0.47394836       0.73245639      -0.00463391      -0.15306664
C        2.11798873       6.42533063      13.28131554      -0.21738195       0.42707455       0.49464498       1.33370352       0.89927018      -0.38316905       0.02350359      -0.12257790
F        3.35513105       5.86053815      13.26969515       0.09848050       0.33485979       1.07926579      -0.90680242       0.29366100      -0.22141051      -0.01031026      -0.25899142
F        1.20019282       5.49629655      13.25926136      -1.85149133      -0.00179719       1.08813941      -0.48190314      -0.53802252      -0.23241223      -0.00785673      -0.23144262
F        2.01848345       7.05254556      14.46877810      -0.15223380      -0.03756575       0.37067889      -0.20718126      -0.09649628       0.16470385      -0.00693547      -0.23530427
H        3.28786556       6.79281411      10.85945476      -0.03039808      -0.05212488      -0.15619335      -0.40242109      -0.00635989       0.11399046       0.02185684      -0.06698255
H        0.90040423       7.72117521      12.05668843       0.28372655      -0.14445981       0.06942993      -0.41539973      -0.06431551       0.07393672       0.00984515      -0.02354818
O        4.11000736      14.33696625       6.87673792      -0.46278765       1.54605152       0.34448148      -0.08367109      -0.58831620      -0.39237702      -0.02544558      -0.11784671
C        4.58071122      13.06993357       6.49022509       0.25531194       0.89853748       0.60610086      -0.76300985      -0.50324839      -0.19660553       0.00950588      -0.24651000
C        6.07500316      13.00996703       6.72214569       0.47742776       1.38417178      -0.03455358       0.03872069       1.65573430       0.08847602       0.02155201      -0.15777160
F        6.25582910      12.82760905       8.03708708      -0.51599677       0.87772822       1.44835237       0.07458670       0.06809576      -0.06936705      -0.01258359      -0.22583973
F        6.60986657      14.19930417       6.37058594       0.98773563       1.93774955       1.08474492       0.38214144      -0.44760582       0.20382443      -0.01096817      -0.27109846
F        6.71767371      12.05909900       6.07075432      -0.98827252       1.35770908       0.73053123      -0.15263121      -0.30005625      -0.25230435      -0.00991734      -0.25122005
C        4.20058084      12.80710541       5.02448303      -0.28784769       1.23820693       0.32258934      -1.14704907       0.06375853      -0.99540514       0.02319895      -0.09891491
F        4.84455201      13.63780144       4.17547344       0.17023968       1.85708257       0.30614247      -0.18695045      -0.86075521       0.77254534      -0.00811339      -0.22889575
F        2.84898943      13.07428860       4.78522475      -0.08452490       1.89231851      -0.36766859       1.57445991      -0.36158642       0.58605033      -0.01289985      -0.20888045
F        4.39905120      11.49582302       4.68195464      -1.76426728       2.03663494      -0.77195854      -0.01622850       1.33867180       0.38404271      -0.01220279      -0.23088017
H        3.18115667      14.38563042       6.58605980       0.06933544       0.15864644      -0.46050611       0.30325291      -0.02848250       0.28776142       0.02424923      -0.04299577
H        4.21668511      12.24047890       7.12871844       0.02123173       0.22009632      -0.23875220      -0.17120400       0.41202864      -0.66307098       0.00947894      -0.01813459
O       11.63466178      12.84869623       8.78670072       0.27375539      -0.20075277      -0.64067014      -0.10992444      -0.07802381       0.90357518      -0.02623511       0.05705742
C       10.83518944      11.83606959       8.33541655       0.63579810      -0.60074768      -0.70292662      -1.82233882       0.68547416      -1.26106668       0.00967280      -0.24083436
C       11.41157489      11.10861107       7.11780714       0.11433689       0.40135963      -0.62120188       0.76921326      -0.89968103       0.84158236       0.01957492      -0.15005435
F       12.46444117      10.34770516       7.46784023       0.06975209       0.15096535      -0.43699324      -0.27980947       0.08416495      -0.34502056      -0.01434581      -0.13247733
F       11.90245130      11.93433084       6.20938129       0.07627948       2.50350426       0.31845926      -0.26049367       0.71898860      -0.46044222      -0.00990008      -0.26439482
F       10.47571764      10.31413890       6.58861905      -0.74518080       1.38546378      -1.31250864       0.18533035      -0.17986916      -0.09236395      -0.01255427      -0.24805416
C        9.41963950      12.34064637       7.86054626      -0.29641277       0.16410334      -0.24932786       0.28062049       1.75022304       0.00510850       0.02150580      -0.10282350
F        9.40971485      12.61982185       6.53266289      -0.76749400       0.37533676       0.29342361      -0.12740023       0.01048547       0.58539820      -0.01045538      -0.22233707
F        9.10360056      13.49808110       8.48911963      -0.25863518      -0.59495154      -0.12111013       0.45394123      -0.21244664      -0.36656281      -0.01245029      -0.23682384
F        8.43240741      11.51352160       8.13503966       0.01721639       1.21065503       1.30822546       0.06821615      -1.04328179       0.01852429      -0.01143259      -0.23502600
H       11.69348583      13.59292123       8.19649359      -0.06564070       0.07892623      -0.23199686      -0.13655449       0.38306239      -0.64635938       0.02577484      -0.04150259
H       10.57250788      11.17554555       9.15370169       0.01868192      -0.02687297       0.09001982       0.55520248      -0.39534277       0.05772633       0.01053064      -0.05161941
O       14.07743186       8.69335447      10.40330180      -0.29446936      -0.40720999       0.58162260      -0.00936620      -0.06240815       0.42620844      -0.02797539      -0.06218908
C       12.81038548       8.70459326      10.98656440       0.31557284      -0.74381661       1.16749061       0.01774593      -0.03993375      -0.09628274       0.01142384      -0.15626030
C       11.91385461       8.02118284       9.93553736      -0.56382464       0.08962517      -0.10918625      -1.19978666       1.01108313       0.83766240       0.02309369      -0.07570255
F       12.25273402       6.75642041       9.89662031      -0.24189516      -0.57221595      -0.02391562       0.06169267      -0.48607007      -0.28010944      -0.00741079      -0.19108830
F       12.15858377       8.54035893       8.74902562       0.39497445       0.72698318       0.31283964       0.17869338      -0.03026650      -0.84820461      -0.00776563      -0.17015247
F       10.57621561       8.12271644      10.09627955      -0.50136443       0.71706645      -0.93171188       0.56137526      -0.01058861       0.40627965      -0.01211721      -0.25027549
C       12.56839892      10.10559200      11.58914086      -0.36733603      -0.22463215       0.39222783      -0.58979255       0.41098744       0.60923451       0.02197385      -0.14467435
F       12.43872450      11.09223027      10.68779122       0.56004105      -0.58789430      -0.11529285      -0.31517830      -0.57146919       0.18196130      -0.01044955      -0.24026307
F       13.64717985      10.39013620      12.33054573       0.11391302      -1.01528004       0.29146641      -0.20152594      -0.14224376       0.05229954      -0.01162567      -0.23954232
F       11.49376066      10.16059356      12.43316682      -0.49760908      -1.06724770       0.42377798       0.91003561       0.04579182      -1.22507453      -0.01229143      -0.23267443
H       13.95205964       8.79199570       9.46238857      -0.17938956       0.08411610      -0.16700670       0.36155486       0.22670119      -0.66077447       0.02370074      -0.01337778
H       12.84617762       8.03882184      11.83225563      -0.00715863      -0.05349077       0.09071413      -0.25108123      -0.30441332       0.57666504       0.01373117      -0.02628122
O        1.96897966      12.15934094       7.03244779       0.00195440       0.83007010      -1.50427592       0.60883528       0.62371367       0.17716934      -0.02077240      -0.07750823
C        2.06475629      11.47085421       8.23857978      -0.14191589       0.42002159      -0.72706571       0.59952587      -1.16447437      -1.25455225       0.01386545      -0.21384151
C        2.07207220       9.97349175       7.88649540       0.70771955       0.11871196      -0.79547894      -0.26754674      -0.41642708      -0.05628439       0.02290454      -0.13328134
F        3.06658946       9.75169443       6.99312989      -0.01803564      -0.48263574      -1.02734382      -0.84588009       0.07406160       0.45672727      -0.01093460      -0.27049804
F        0.89961069       9.52435614       7.35224609      -0.45434838      -0.42812991       0.13650821       0.68934220       0.47354597       0.03204300      -0.01070209      -0.28650329
F        2.29588863       9.22961201       8.96025874       0.63476402       0.61786635      -0.08336575       0.27823821      -0.19168490      -0.05829788      -0.01012995      -0.21545070
C        1.00018648      11.96369802       9.17184988      -0.10030989      -0.14001918      -0.23074143       0.02476089       0.80246317       0.31768069       0.02114100      -0.13688271
F       -0.19204682      12.06361170       8.56995332      -0.50429073       1.05705728       1.41654825       0.86828202      -0.49549705       0.14638217      -0.00993167      -0.18683413
F        1.32079364      13.20010108       9.56155413       0.26465985      -0.49988004       0.60635746      -0.26376781       0.33673415       0.03347947      -0.01214074      -0.20775783
F        0.92480689      11.24637897      10.26876766      -0.82012755       0.53822518       1.53343113      -0.21940385      -0.56360120       0.31818521      -0.00999656      -0.20037572
H        1.12440886      11.99453118       6.61217280      -0.04348920       0.04824098      -0.18743967      -0.46347585      -0.12616079      -0.13736641       0.02660597      -0.04398560
H        3.07713091      11.58773581       8.67560861      -0.07716985       0.04929666       0.02309742      -0.62551731       0.50157350      -0.01841937       0.01442144      -0.02699564
O        8.83709626      11.31614836       4.13935438       0.67587051       0.79760910       0.64999214       0.22723539      -0.24258427       0.14206451      -0.02908348      -0.07977661
C        8.74715431      12.43050041       3.32633319       0.33994355       0.44508835      -0.06192186      -0.18512754       1.49487102       0.70795429       0.01093311      -0.24776573
C        7.57314516      12.25308333       2.39420676       0.37641079       0.15264698      -0.66838330      -0.81209946      -0.11185462      -0.22054102       0.02411634      -0.12346824
F        6.44667604      12.00220655       3.09726314       0.25784799      -0.05884663      -0.18701667       1.32223153       0.10644127      -0.48506254      -0.01144650      -0.15674357
F        7.83371745      11.21618793       1.55138591       0.81663238       0.13691654       0.53726366      -0.53802603       0.65147114       0.80878305      -0.01217100      -0.22271493
F        7.29839527      13.37430709       1.68065334       0.21941434      -0.25740792       0.27321251       0.14525080      -0.23757622       0.60730487      -0.00639414      -0.16085450
C       10.06411102      12.74789067       2.58787510       0.09657885       0.33787009      -0.32715756      -0.70412946       0.40083531       0.77592820       0.02087273      -0.17214042
F       10.53842158      11.67893419       1.98131043      -0.31896673      -0.39182004      -0.04616296       0.41533208      -0.51344973      -0.52944064      -0.00840339      -0.25018197
F       10.96491325      13.17458507       3.49450543       0.21903828       0.34175891      -1.23870632      -0.13133675      -0.08236332      -0.51529109      -0.01195413      -0.26723301
F        9.87740898      13.70309233       1.66149041      -0.61972357      -0.29755588      -1.32855227       0.27189371       0.04917653       0.21815921      -0.01013041      -0.26114762
H        8.87530236      10.51372536       3.59659607       0.13319229       0.05840193       0.10970724       0.02889537       0.13541666       0.06163170       0.02514241      -0.03853095
H        8.53560424      13.34757343       3.96230275       0.06833912      -0.08470564      -0.11929360       0.17545298      -1.13534617      -0.54947621       0.01436676      -0.04249728
O        6.79642375       3.60310719       8.90741151      -0.38240427      -1.32271188      -0.29771619      -0.37832290      -0.15309069       0.37128910      -0.02724350      -0.13612269
C        6.25365911       3.90157736      10.15363090      -0.68890136      -0.09835116       0.89113976      -0.08470561      -1.74847066       1.18523467       0.01132455      -0.25786844
C        5.76064935       5.30552404      10.26477820      -0.53446935      -0.98181428      -0.17270500      -1.12238598       0.25685275      -0.80429989       0.02277299      -0.10158861
F        4.76012823       5.53247983       9.38616763      -1.33895991      -0.84507743       0.70911623      -0.62536949      -0.24750236      -0.10224323      -0.01194603      -0.25658384
F        6.73658778       6.08204738       9.89559491      -0.70019548      -1.42737797       0.78485739       1.30623817       1.28675735       0.17987807      -0.00915923      -0.14603280
F        5.29287123       5.70178520      11.45011748      -1.07513781      -0.89151388       0.37346817       0.19932766      -0.30127272       0.18642029      -0.00912143      -0.26856339
C        7.28192688       3.63800942      11.26933035       0.03952587      -0.68165265       0.32700927       2.15809488       0.15193816       0.07619189       0.02328503      -0.12703437
F        8.41367367       4.40711680      11.11749418      -0.91638051      -0.47438555       0.93406885      -1.11459243       0.09738099       0.16549709      -0.01471376      -0.20692325
F        7.75667922       2.39339463      11.16589350       1.01246896      -1.02325303       0.08610476      -0.57151592       0.27460599       0.18488029      -0.01179603      -0.19378167
F        6.85719936       3.86801379      12.53846035      -0.46542784      -1.59561889      -1.47572913      -0.10247399      -0.40146419      -0.95406550      -0.01039875      -0.27932888
H        7.13729815       4.40244088       8.51759681       0.08211237      -0.12499108      -0.14275202       0.49792954       0.60338575      -0.40788531       0.02302478      -0.05030037
H        5.46174626       3.16576270      10.32394649       0.00491044      -0.04154348      -0.08741681      -0.07965048       0.35374781       0.15633599       0.01203150      -0.04353876
O       10.54526060       3.19196613      10.18526384      -0.30213615      -0.22371056       0.21817124      -0.71076459       0.22615017      -1.28612053      -0.02817915      -0.01495387
C       11.25411884       3.10527808      11.35143964       1.77398178      -0.31939850      -0.12545279      -0.26774365      -1.00337672       0.04056238       0.00879714      -0.26451665
C       11.97244233       4.40026071      11.67811375      -0.24211364      -0.63243154      -0.49574540      -0.22814146       0.73180431       2.16286826       0.01947367      -0.17062873
F       11.07782255       5.42521526      11.69699898       2.11140927      -1.06973835       0.38643110       0.24746220      -0.84666950       0.10341330      -0.01561521      -0.24873917
F       12.95106900       4.76599124      10.89732526       0.15881916      -1.11153919      -0.05554978       0.72615600      -0.31455451      -0.77088588      -0.01028343      -0.16634189
F       12.49452138       4.31766631      12.94685570       0.72189499      -1.05563449       0.50653632      -0.12055957      -0.06152523      -1.06414998      -0.01495425      -0.22447509
C       12.08783781       1.81316575      11.28380326       1.26115449      -0.51003875       0.06407145       1.06867635       1.80642164       1.59318542       0.02169742      -0.09156417
F       13.10447950       2.05564128      10.40607717       1.19218287       0.20000511      -0.46671583      -0.64271885      -1.19822872       0.02298796      -0.01200447      -0.25694627
F       11.34625991       0.79136497      10.95708232       2.40888174      -0.36866681       0.08979394       0.25528583      -0.28881100      -1.13250434      -0.00820754      -0.19956547
F       12.64392527       1.50397343      12.47185468       0.85652482      -0.69138660       0.65851007       0.20724131       0.12498627      -0.27525961      -0.01231245      -0.26632553
H       11.01907473       2.87084439       9.40716313      -0.19066170       0.04082420       0.19147223       0.17244151       0.07430629       0.24730872       0.02297685      -0.05312468
H       10.51457448       2.98195447      12.13693230       0.23949563      -0.24788240       0.24006750      -0.04706893      -0.02374105       0.37248033       0.01182744      -0.03190560
O        6.21411790       6.74813280       7.52257924      -0.43683116       0.02407160       0.16667055      -0.64853626       0.06795423       0.53645867      -0.02520022      -0.08928909
C        6.80817783       7.39599915       6.46323629      -0.12547798       0.16018728      -0.44433480       1.34465373       0.14777972       0.68041354       0.01255666      -0.19872276
C        6.00279995       8.55390182       5.96905206      -0.41289735      -0.62966549       0.21930875       0.02137268       0.94563711      -1.00456762       0.02181191      -0.13380034
F        5.75627208       9.52433445       6.89132735       0.69521084      -0.65749875       0.93698708       0.51481259      -0.99310756      -0.71702564      -0.01216700      -0.26820421
F        4.82364611       8.11704574       5.51556478      -0.24175189       1.21640494      -0.34015905      -0.18932416       0.22879837       0.15370557      -0.00877061      -0.25023448
F        6.69422125       9.10387648       4.92656889      -0.14553281      -0.53250258      -0.54983300      -0.67976862       0.08853685       0.73498660      -0.01277861      -0.25833890
C        7.10303482       6.26279941       5.43997278      -1.43051346      -0.19569796       0.14863069       1.39778721       0.48301315       0.69547319       0.02344014      -0.08607841
F        6.02405862       5.50154810       5.29581820      -1.59881484      -0.10140427       1.10857095       0.03809090      -0.17757657      -0.41367123      -0.00410217      -0.26911986
F        8.07484278       5.54552076       6.07487984      -1.28154089      -1.23975715      -0.43101346      -0.79511595      -0.32726172      -0.52626103      -0.01265615      -0.21493654
F        7.60420867       6.58677183       4.24653448       0.24215618      -0.59596321      -0.49672293      -0.52650106       0.13403347       0.26430139      -0.00959361      -0.26102036
H        5.34053031       6.42925801       7.25735837      -0.06266781      -0.07688071       0.15797353      -0.01257430      -0.02272506       0.07243751       0.02744529      -0.03127410
H        7.76488034       7.81737300       6.87432576       0.04561174      -0.08111642      -0.23097938      -0.62121832      -0.46676078      -0.74361545       0.01317549      -0.03634988
192
Lattice="14.067083157850375 0.0 0.0 0.0 14.067083157850375 0.0 0.0 0.0 14.067083157850375" Properties=species:S:1:pos:R:3:momenta:R:3:forces:R:3:charge:R:1:energies:R:1 Built=T with=T Packmol=T charge=0 spin=1 external_field="_JSON [0.0, 0.0, 0.0]" energy=-17.56988525390625 stress="-0.0018137424485757947 -0.002009129850193858 -0.0019048277754336596 -0.002009129850193858 -0.0020226789638400078 -0.0006674562464468181 -0.0019048277754336596 -0.0006674562464468181 -0.002802048809826374" dipole="-0.9951623678207397 -1.101759433746338 -0.8103594779968262" free_energy=-17.56988525390625 pbc="T T T"
O       13.15533407       5.75836729       6.86336339      -0.18760827       0.08801128      -0.38425852      -0.01678662      -0.14170592      -0.51951659      -0.02700882      -0.07169246
C       12.33108209       4.63482558       6.67677721       0.20164158       0.22113254       0.54126182       0.74784857       0.89013219       0.48574808       0.01475913      -0.26131079
C       10.90635908       4.94159597       7.08763570       0.16325235      -0.10464847      -0.36819100      -0.88245028      -0.11853129       0.18250349       0.02233222      -0.13345149
F       10.51020168       5.98342558       6.32946580      -0.62121090       0.22470410      -0.71839784       0.20560852      -0.02732881       0.89143080      -0.01292929      -0.23050605
F       10.67842765       5.19037420       8.41374034       0.35724953       0.00628444      -0.76809334       0.57568103       0.29026714      -1.53594840      -0.01062718      -0.24235691
F       10.12523832       3.90715800       6.77134468       0.17627591      -0.60572456      -1.21261280      -0.23250775      -0.33534119      -0.01574710      -0.00967896      -0.25270933
C       13.00125718       3.42048947       7.28970544      -0.20381866      -0.05707480      -0.99538412       1.12442768      -0.68117613       1.52640879       0.02394684      -0.11040688
F       13.45838941       3.71759010       8.51808572       1.28292927      -1.16115215       0.46843423      -0.72149968       0.42598355       0.46139285      -0.01091644      -0.20573145
F       14.11974992       3.08320815       6.66034180      -0.60504498       0.67158646      -0.78772716      -0.23915873      -0.23342733      -1.23716426      -0.00896754      -0.23011938
F       12.23521063       2.30488144       7.42863203       0.51567910      -0.43738838       0.17214854      -0.04328338       0.59445363      -0.39600688      -0.00798735      -0.29306099
H       13.25686408       6.00345462       7.78767459       0.03913472       0.24388299      -0.04882501      -0.15301691      -0.27097273       0.34014398       0.02318942      -0.06569983
H       12.28851564       4.48055521       5.61352132       0.06055317      -0.02300852       0.01859795      -0.09436297      -0.16078357      -0.57317168       0.01486696      -0.03231534
O        1.95371438       9.05209968       2.12695702       0.33557474       0.22966305       0.32983323       0.37739569       0.24677059       1.05017197      -0.02888037      -0.13746400
C        3.00043537       9.94070780       2.47061753       0.19559927      -0.72291182       0.03848318      -0.17933685      -0.87074035      -0.38515371       0.01250291      -0.27729315
C        2.70006108      11.29461984       1.85309806       0.13164764       0.31885799      -0.66671155      -0.80529803       1.27583241       0.99012941       0.02154122      -0.11990131
F        1.46316757      11.64411420       2.26192546       0.13826249      -0.11371130      -0.46652663      -0.60052240      -0.58743536      -0.70399857      -0.01354489      -0.21594466
F        2.76987312      11.35681118       0.52584672       0.31264672       0.37518295       0.44954020       0.10215502       0.17987163       0.27274305      -0.00846747      -0.22561625
F        3.41628081      12.28554631       2.36807931       0.17631685       0.41438747       1.41537796       1.50002956       0.13065468      -0.48038498      -0.00853821      -0.17871727
C        4.37621254       9.33653608       2.10830639      -0.28832657       0.18807671       0.11410866       0.04515136      -0.90605706       0.65210485       0.02187728      -0.13756843
F        4.39601983       8.72902927       0.92893773      -0.97264343      -0.03056139       0.19534692      -0.22107945       0.26192084      -0.46132854      -0.00941546      -0.23853266
F        4.68149163       8.32817662       2.99254516       0.65078312       1.02161609      -0.36614202      -0.12646951       1.27781022      -0.44959643      -0.01323378      -0.23364498
F        5.32703850      10.27372678       2.11072332      -0.50718769       1.28735754      -0.24818719      -0.44164702      -0.81410843       0.09594285      -0.00991246      -0.21834643
H        1.95863550       8.87674912       1.18679515      -0.10633533      -0.12009701      -0.04365838       0.31143734       0.01636662      -0.46485963       0.02109791      -0.05184107
H        2.98143036      10.09155321       3.55367664      -0.09926633       0.00292851      -0.12033280      -0.01682953      -0.10589519      -0.19848827       0.01180317      -0.05443907
O        7.38083816      12.54322543      13.47041950      -0.10001816       0.63813356      -0.68045161       0.35622239      -0.21580827      -0.45998704      -0.03103311      -0.09895407
C        7.84998726      12.65884984      12.17115937      -0.38617313       0.36931746      -0.25418842      -0.35691285      -0.25311941      -0.18991080       0.00968672      -0.26580557
C        9.28973148      13.19578829      12.10355069      -0.03549883       0.52036512       0.16214716       0.06577430       0.59001613       1.33848155       0.02178201      -0.12950620
F       10.04280152      12.69176190      13.12675330      -0.71987814       0.74692424      -0.35590672      -0.56757212       0.11155642      -1.16252029      -0.01382145      -0.25626737
F        9.29596018      14.55626977      12.31267532       0.20165910       0.52093480      -1.10017247      -0.02557197      -1.08131969      -0.41868246      -0.01254236      -0.24935827
F        9.86614694      12.88628379      10.94342360      -0.80450843       0.27275620       0.00674523      -0.13502271       0.16561222       0.47443774      -0.01053284      -0.21231893
C        6.80054355      13.49731099      11.41168687      -0.05541922       0.13460521       0.61299276      -0.09124038       0.04647253       1.28603113       0.02170199      -0.13598104
F        6.51464725      14.61314371      12.11225070      -1.42655679       0.65268387       0.11555579      -0.34642023      -0.40671998       0.41343141      -0.01063698      -0.21770452
F        5.65913388      12.76045748      11.37120747      -1.20669490       0.44323473      -0.49901559       0.36350632       0.35288036      -0.46039656      -0.01420208      -0.29639009
F        7.15963254      13.89833508      10.22853765       0.20549695       1.64327522       0.83807780       0.12143251      -0.22036205      -1.05506063      -0.00906024      -0.21565114
H        7.38973285      13.40646416      13.89290150      -0.17428313       0.13178563      -0.11711301      -0.04946964       0.13992976      -0.00762207       0.02507668      -0.01073723
H        7.83661006      11.65144624      11.73400900       0.14372395       0.18530750       0.00251482       0.16418445       0.35276788       0.03655006       0.01026214      -0.04581912
O       13.24639371       8.62351830       1.56962450       1.64226236       0.37559040      -1.45869584      -1.56920493       0.25703123       0.85610163      -0.03201479      -0.11751751
C       12.26981869       8.87355149       2.58927623      -0.18313713      -0.94707959      -0.81284000      -0.10308764      -0.82981962      -1.52746630       0.01241098      -0.17700499
C       12.61499706      10.05579433       3.45582434       0.80865968      -0.67669870      -0.18654685       0.68357247       0.14498369       1.36360025       0.02164687      -0.14259078
F       13.09184827      11.05439575       2.72910887       0.98057259       0.06496319      -2.05086419      -0.18181829      -0.06398783       0.04077176      -0.00955751      -0.23617600
F       13.53316768       9.82043973       4.45733787       0.83249421       0.49217446      -1.95781371      -0.51198995       0.03560581      -0.95265317      -0.01576394      -0.27455586
F       11.49384355      10.44323912       4.07313426       1.44482869       2.04139797      -0.23854903       0.00460462       0.03585449       0.17700236      -0.01026762      -0.21388164
C       11.87353679       7.57717513       3.32063751      -0.24857066       0.96848753      -0.53656960       1.25219631       0.68009114       0.67940784       0.02364627      -0.11363681
F       12.74618055       7.34450179       4.29954753      -0.01209295       0.43660551      -0.11253747       0.31637892      -0.74104255       0.20989344      -0.01114937      -0.24904411
F       11.95066106       6.56405836       2.43535173       0.33995496       1.72808613      -1.25969148      -0.61477923       0.01388797       0.47696847      -0.00730045      -0.26356056
F       10.67155881       7.62942550       3.91449293       0.48482464      -0.20921001       0.13935286       0.00521012      -0.10240505      -0.82306767      -0.01184963      -0.26858780
H       14.10688168       8.54006688       1.98846827      -0.22399024       0.31536563      -0.09736250       0.44522294       0.08727860       0.33945346       0.02031289      -0.07152692
H       11.30040395       9.14601321       2.16192577       0.15103546       0.28760718       0.06973678       0.36728123       0.32322270      -0.78819251       0.01333377      -0.01464329
O       10.73186084       4.52798004       0.68147159       0.89543134      -0.90196195      -0.90191913      -0.76055676      -0.57641298       0.01907956      -0.02735273      -0.03439305
C       10.46097334       3.33184838       1.38724795      -0.32214433      -0.98178027       1.08734698       0.28781319       0.90603018      -1.05837440       0.01363882      -0.24174212
C        9.32519554       3.56314836       2.37968375       0.54554774      -0.69284774       0.49007490      -0.23920384      -1.21906698       0.15275925       0.02386642      -0.13273266
F        8.32555332       4.08365098       1.67012231       0.49410464      -1.03482523      -0.52067557      -0.38769299      -0.20629144       0.39834112      -0.00794737      -0.24408315
F        9.66037572       4.42976456       3.32897463      -0.06816511      -2.23944823       0.01661811       0.04798556       0.04040723       0.34106225      -0.00903239      -0.27720538
F        8.88858689       2.39221546       2.98976010       0.45593916      -1.44492907      -0.66056957       0.47375301       1.55490971      -0.81216931      -0.01145856      -0.26005656
C       11.75420575       2.77819192       1.90064730       0.52112286      -0.22299695       0.58456010       1.01784968      -1.38962877       0.50798577       0.02186567      -0.14172208
F       12.52505760       3.59403625       2.60033999      -0.94657094      -0.82522215       0.91366524       0.00273504       1.31410193       0.34953028      -0.00958385      -0.27375594
F       12.53512545       2.28208050       0.93677430       0.04572461      -0.72990861       0.73404549      -0.22880886       0.36582541      -0.74759799      -0.01114969      -0.24031878
F       11.50821201       1.74816086       2.69224637       0.03976470       0.23240098       0.56380248      -0.58243322      -0.99380618       1.00433886      -0.01063730      -0.22243075
H       10.99648747       5.24426766       1.27074267      -0.31260381      -0.00836931      -0.04877883       0.04197315      -0.13217704       0.21064082       0.02202507      -0.08416634
H       10.10672004       2.57161655       0.67347901      -0.12812605       0.25183263      -0.12784976      -0.03969005       0.34214786       0.07434782       0.01443095      -0.03780155
O        8.74629645       7.02146853      11.74449806       0.53377298       0.27267487       1.31313982      -0.91389942       0.45212629       0.33308002      -0.02968027      -0.04543093
C        8.49590499       8.35645653      12.13886889       0.18896980       0.51409486       0.32623043      -0.11256684      -0.25186536      -0.53055304       0.01116718      -0.27823275
C        9.16841266       8.59432438      13.47261152       0.91631154      -1.00084259       0.74584010       1.11800528      -0.78824514       0.22496733       0.02073938      -0.15878361
F       10.45013003       8.10986771      13.36996487      -0.50978060      -2.10027534       1.27053823      -0.96684837      -0.23783050       0.51170683      -0.01547337      -0.23623109
F        8.55014139       7.96495881      14.48835106      -0.02964803      -0.05788185       0.54205556       0.35535207       0.00772351      -0.19528025      -0.01057740      -0.29587358
F        9.29312545       9.86236580      13.78820190       0.89812114      -0.58036352      -0.27277948      -0.34719098       0.88008547       0.20575771      -0.01073250      -0.22836101
C        6.99290906       8.72458939      12.14380089       0.05131271      -0.39284465       0.31840604      -0.56015730      -0.87164545      -0.15147652       0.02286534      -0.12846495
F        6.35209558       7.83358434      12.92342453       0.58291880      -0.79546627      -0.47867837       0.21120954       0.33332205       0.15912224      -0.01069061      -0.22578853
F        6.46167317       8.57002278      10.91007866       0.54139581      -0.58440877       0.83584634       0.47255656       0.51750737       0.39097038      -0.01392870      -0.26319069
F        6.70322357       9.97363330      12.57702546       0.22319700      -0.03943210       0.71869909       0.41844526      -0.94677824      -0.23638625      -0.00976733      -0.24731094
H        8.19920871       6.37109329      12.24164479       0.03020095       0.08908253      -0.27637246       0.41822535       0.76186758      -0.29785255       0.02486920      -0.05361551
H        9.00306807       9.01321224      11.41775530      -0.01237940       0.08059463       0.05436845      -0.18133427      -0.21828434       0.15982671       0.01126006      -0.05056626
O        3.73569358       1.23990715      11.90389679      -0.06286455      -0.05900422      -0.36760300       0.55153054       0.69036579       0.27549314      -0.02127676       0.00040002
C        2.54751754       1.65348535      11.31371951      -0.32499935      -0.64107726       0.36946276      -0.38066825      -1.06826842      -0.48644313       0.01419703      -0.23205227
C        2.81958135       1.54147301       9.77583208       0.06596207      -0.10407218      -0.75898686      -0.56527752       1.18424189      -0.12683623       0.02303109      -0.10955743
F        3.37049723       0.34423169       9.49969902      -0.12074484      -0.00294334      -0.56159652      -0.28671435       1.37554181       0.07178950      -0.01027619      -0.19400410
F        3.64777378       2.53941756       9.32664464      -0.21118951      -0.87523057      -0.11906068      -0.24914435      -1.38236833       0.31638190      -0.01106625      -0.22210610
F        1.66215624       1.74624704       9.08432773      -0.08877506       0.59167055      -1.71431646       0.73888153      -0.68041855       0.30398268      -0.01427278      -0.25108397
C        2.16799885       3.08955820      11.79327210       0.08842978      -0.29853976       0.27942265       1.06898201       0.10593456       0.69776392       0.02307682      -0.12707521
F        2.81609127       4.05289194      11.13674245      -0.81838940      -0.11464260       0.62262412       0.17396902       0.16781214      -0.57758391      -0.01078459      -0.23012932
F        2.60872261       3.21786297      13.06916361      -0.00606596       0.25210040       0.06687666      -0.91348875      -0.41930619      -0.27209741      -0.01084609      -0.23337999
F        0.87236117       3.38024225      11.69972327      -0.53256537       0.19916400       0.36721458       0.43684900      -0.66021776       0.27335370      -0.01045621      -0.21176103
H        3.67857309       0.39530184      12.35567298       0.24593423      -0.34025150      -0.15154965      -0.27045679      -0.05869704      -0.03117009       0.02554816      -0.03641919
H        1.71244857       0.95955290      11.57925961       0.02816077      -0.19023203      -0.10350503       0.35598496       0.67462796      -0.41304255       0.01351826      -0.05175940
O        2.34488909       7.01322682      10.87369803       0.04341855       0.15141409       0.47209526      -0.99536085      -0.28197744       0.75453430      -0.03001417      -0.04268402
C        1.93151298       7.44528606      12.16879837       0.16942996      -1.01623641       0.78123847       0.38888884      -0.64192218      -1.34800887       0.01111681      -0.27919668
C        2.67259158       8.71834867      12.42167265       0.28931579      -0.22031740       0.39595751       0.89331871       0.98161614      -0.19844954       0.02081912      -0.13003944
F        2.50518751       9.56894956      11.44807665      -0.37304313       0.44845273      -0.44993037      -0.32654729       0.69096982      -1.38910663      -0.01339886      -0.15672418
F        4.01287794       8.55794491      12.49948610       0.12202718      -0.48591477       1.03999222      -0.59414822      -0.45941478       0.42843643      -0.01238593      -0.23446684
F        2.22426493       9.37787853      13.48727748      -1.17829657      -0.71048998       0.24358629      -0.18235219      -0.33374974       0.88518596      -0.00541498      -0.16360924
C        2.12111942       6.44862556      13.30730856       0.21584856       0.32853214       0.38750652       0.30746371      -1.20427084       0.03724657       0.02400491      -0.14016639
F        3.35314558       5.87504103      13.30461432      -0.43769084       0.48646129       0.94412072      -1.11167932       0.24435514      -0.28921643      -0.00958607      -0.24936375
F        1.15308875       5.49897286      13.29448193      -1.73438999       0.02628689       0.96233035       0.88868296       0.58623338      -0.25942054      -0.01076492      -0.23983815
F        2.01446003       7.05615918      14.48962969      -0.26179353      -0.01887205       0.53110980      -0.22490205       0.14152530       0.41314277      -0.00546785      -0.21665326
H        3.27410000       6.76548677      10.82438505       0.02965417      -0.08732046       0.01231285       0.18972982      -0.06674533       0.47649190       0.02136608      -0.07726851
H        0.85814489       7.68257942      12.09431552      -0.34084159      -0.05112935       0.05635995       0.62730986      -0.16673942       0.09649672       0.01053711      -0.03014253
O        4.09704606      14.38867485       6.88820651      -0.51453666       1.19076481       0.11850440       0.32034510      -0.81345814      -0.29770103      -0.02595370      -0.11368697
C        4.58980932      13.12040962       6.50742161       0.06595545       1.26961380      -0.09997682      -0.66190100       0.62024844      -1.52603054       0.00909265      -0.23679543
C        6.09588089      13.08863233       6.73036115       0.27276364       1.92716801       0.31020602      -0.86437154       0.26540366       1.14977765       0.02201299      -0.14042324
F        6.24714561      12.85982191       8.07719238      -0.46702217       0.99643364       1.17114941       0.11795992       0.45404938      -0.96834010      -0.01488115      -0.22413746
F        6.64218909      14.25569814       6.40400081       1.18217160       1.71400410       1.17228809       0.45035288      -0.33197221       0.16203174      -0.00821942      -0.27707407
F        6.69643423      12.10026700       6.09162151      -0.96964259       1.23853563       0.57216019       0.11712801      -0.02190694      -0.29558825      -0.00992169      -0.25194076
C        4.18257281      12.86677345       5.03012641      -0.64821583       1.26748313      -0.20086698      -0.22073098       0.04062681      -0.91654104       0.02314099      -0.09930262
F        4.85083899      13.68929641       4.19097721       0.07445299       1.44938095       0.66351167      -0.14571369      -0.68081057       0.55983269      -0.00875483      -0.24551108
F        2.85778392      13.13017409       4.78288361       0.56558289       1.80107129      -0.05055683       0.91490364       0.05465688       0.63881946      -0.01066765      -0.20882429
F        4.35683624      11.56393597       4.66800915      -1.69773771       2.61557596      -0.52913630       0.25724435       0.96291691       0.54097879      -0.01291785      -0.23171619
H        3.26140849      14.47731448       6.41444450       0.19831723       0.20148511      -0.26411667      -0.23850276       0.23939028       0.25625283       0.02437973      -0.03099726
H        4.16749250      12.29580236       7.04459049      -0.24416922      -0.11515294      -0.01260109      -0.12801431      -0.35500470       0.49223232       0.00909764      -0.03079210
O       11.64942371      12.85738263       8.77229830       0.15174995       0.27178936      -0.78908691      -0.57320762       0.46785784      -0.40545294      -0.02730255       0.02716280
C       10.84771898      11.82643188       8.30637796      -0.35719902      -0.22130584      -0.84890299      -1.68745816       1.02889538       0.26295367       0.00883423      -0.23990984
C       11.43067491      11.12367287       7.10459128       0.41655969       0.02243239      -0.29740736       0.30959067      -0.39336345       0.30836776       0.01988563      -0.15583068
F       12.47235340      10.35923565       7.45816906      -0.08906984       0.22715511      -0.72091940      -0.30574653       0.19548279      -0.75515580      -0.01294995      -0.14496022
F       11.91051852      12.00976510       6.21923713      -0.05452619       2.65351396       0.15711926      -0.27231967      -0.12359905      -0.13988142      -0.01030198      -0.27672595
F       10.46573339      10.35577997       6.55842893      -0.50508104       1.31972857      -1.35116043       0.78612322      -0.09031051      -0.07271092      -0.01299605      -0.23729429
C        9.41916178      12.36948261       7.85755759       0.00627281       0.73070550      -0.10059614       0.68985808       0.32456431       0.55939746       0.02132042      -0.09306239
F        9.39502513      12.63801788       6.54686453      -0.84810491       0.40405170       0.42183097      -0.19440451       0.12530781      -0.03952560      -0.00935919      -0.22488305
F        9.10595004      13.49225260       8.49002089      -0.01471974      -0.44623983      -0.20079965       0.51025981       0.87202305       0.07666671      -0.01107548      -0.22332260
F        8.43790031      11.54454208       8.17385473      -0.03248774       0.58147990       1.26259023      -0.10852918      -1.34530449      -0.20270091      -0.01271881      -0.23217928
H       11.65461136      13.57468066       8.11540159      -0.10336034      -0.24464944      -0.03864147       0.10167433      -0.18670377       0.24459895       0.02582140      -0.03565885
H       10.65769623      11.15324917       9.15702907       0.27614721      -0.06004134      -0.15762420       0.24125440      -0.02141694      -0.56424069       0.01002617      -0.06012582
O       14.07648088       8.68690402      10.42171532      -0.37318514      -0.38470630       0.14048203      -0.07801282      -0.14686140       0.09300064      -0.02856937      -0.06542335
C       12.82836501       8.67958587      11.03865229       0.07761097      -0.76433517       1.01418820      -0.90854001      -0.03868572      -0.39099997       0.01119254      -0.17139424
C       11.89151045       8.03737414       9.94793796      -0.77064166       0.36360306       0.40446044       0.43189549       0.05211952       0.91587102       0.02301963      -0.05479946
F       12.25379973       6.74514992       9.90031157      -0.33763418      -0.54658467      -0.19850105      -0.45900115       0.61575454      -0.37988108      -0.00950842      -0.20981465
F       12.17758675       8.56415077       8.75816067       0.44567668       0.66315327       0.00193671       0.00988273      -0.24192037      -0.24429084      -0.00810939      -0.17868535
F       10.57311262       8.14626030      10.08134976      -0.30548414       0.68735565      -0.72899065       0.16736138      -0.07549176       0.43957400      -0.01005314      -0.24065214
C       12.55885875      10.10452598      11.61785490      -0.41150789      -0.21832011       0.60227086       0.45938051      -0.40026888       0.14383915       0.02161098      -0.12781796
F       12.45878478      11.08034270      10.69362657       0.34306093      -0.89956076       0.05086608      -0.55106598      -0.68993008       0.47317734      -0.01035523      -0.24043810
F       13.65718800      10.37038101      12.34679100      -0.04876877      -1.01275810       0.35600226      -0.43783221       0.13131209       0.22425115      -0.01219600      -0.23231658
F       11.49379352      10.14063604      12.44476789      -0.10845341      -0.96322471      -0.12980594       0.57132769       0.34059259      -0.93269002      -0.01074445      -0.24366668
H       13.93923443       8.84553228       9.47421762       0.08885294       0.09587628       0.26949536       0.34161076       0.08590001       0.20477694       0.02358157      -0.01983795
H       12.82645829       8.00114995      11.92040228      -0.09071877      -0.05916861       0.13685033      -0.04057885       0.34122518      -0.50100774       0.01354216      -0.04345720
O        1.97052373      12.19564372       6.99161395      -0.06106716       0.96354964      -1.43720281      -0.16878110       0.01856886       0.44686422      -0.02047760      -0.08081879
C        2.06271265      11.48391859       8.20143562      -0.12859194      -0.10913865      -1.32438034      -0.50024998      -0.69363862      -0.89247912       0.01458262      -0.24381877
C        2.09646450       9.98050491       7.86147848       0.35920555      -0.08972571      -0.61382666      -0.97892231      -0.36360809       0.70924008       0.02348031      -0.12373485
F        3.06338834       9.74592535       6.97346966      -0.35577858      -0.46459624      -0.87129518      -0.51357061      -0.03539063       0.14558852      -0.00896129      -0.26887655
F        0.89392767       9.52283188       7.36083727       0.00066715      -0.16253798       0.15730323       1.06733155       0.56806254       0.04416412      -0.01204942      -0.28467050
F        2.31562423       9.25112850       8.96246820       0.77458825       0.60414402      -0.23554286       0.28014764       0.10807341      -0.50778627      -0.01094573      -0.22226906
C        0.99598447      11.97295595       9.17512280      -0.14996626       0.17159893       0.15441982      -0.13395168       0.34767389       0.99968207       0.02129018      -0.13754974
F       -0.20002265      12.09528596       8.61235982      -0.12451585       0.77272186       1.40213749       0.60350758      -0.61103016      -0.16795066      -0.00972727      -0.17964898
F        1.32735226      13.19811689       9.58329569       0.19766815      -0.31257185       0.57952081       0.00120413       0.42312938      -0.10811239      -0.01172388      -0.19558983
F        0.90375076      11.26475364      10.31421614      -0.81960980       0.34160377       1.35915588       0.19237927      -0.24142493      -0.90301239      -0.01224406      -0.20403166
H        1.12060384      12.02165061       6.55052015       0.09280102       0.04234613      -0.04379333       0.20576820      -0.01703590       0.25129098       0.02661628      -0.04853459
H        3.00828092      11.67842104       8.69058480      -0.11754600       0.27458655       0.01753618       0.37852600       0.28022763      -0.04968972       0.01471432      -0.03351333
O        8.86507473      11.34844356       4.16356223       0.76445558       0.85689965       0.73365645       0.17605293       0.12661712      -0.07323749      -0.03001053      -0.07699934
C        8.76587705      12.46116243       3.32618467       0.31354414       0.39002684      -0.20801827      -0.09307364      -1.14148939      -0.77199519       0.01045319      -0.26088372
C        7.58644053      12.26551898       2.37182851       0.07679105       0.05621203      -0.36828139      -0.28996068      -0.20148045       1.36646867       0.02342391      -0.11843400
F        6.46598315      12.00928481       3.09134871       0.89370268      -0.00030416      -0.41757832       1.14627838       0.09946397      -0.38054222      -0.01276897      -0.16036049
F        7.85658538      11.23030236       1.56990659       0.56017359       0.34783710       0.75318179      -0.48199287       0.16928728       0.05676902      -0.01103666      -0.23716134
F        7.30941512      13.37607333       1.69112464       0.24887817      -0.23141750       0.38825090      -0.03112604       0.35035294      -0.13911606      -0.00583029      -0.16819283
C       10.06783822      12.77168743       2.58211192      -0.21366769       0.35835418      -0.09610622      -0.45000032      -0.29732084       0.08330567       0.02104503      -0.17442214
F       10.53928915      11.67412460       1.97838156      -0.17015202      -0.52294745      -0.25947710       0.13263813       0.02758220      -0.29268277      -0.00996397      -0.25523722
F       10.97744511      13.19205479       3.46193882       0.21553788       0.36443315      -1.43647903       0.09922825       0.16536765      -0.30652472      -0.01075875      -0.26139465
F        9.86984880      13.70456200       1.63000026      -0.45481985      -0.28679939      -1.17265623       0.37037355      -0.03145209       0.41393405      -0.01006181      -0.25880963
H        8.95041458      10.54103753       3.64011855       0.15097690       0.01673674       0.04693311       0.01998922       0.05883271      -0.06274614       0.02438780      -0.04380485
H        8.56570168      13.29893685       3.92378312      -0.02640211       0.09372516       0.11249616      -0.39809960       1.24488115       1.00087237       0.01433294      -0.03734682
O        6.78728531       3.56854665       8.90674508      -0.48489511      -0.98307021      -0.11853474      -0.32918411       0.76093417       0.60749191      -0.02941682      -0.06338933
C        6.23472627       3.88114900      10.20064925      -0.32490285      -1.01054556       0.90481786       1.16921902      -1.66518915      -0.93697524       0.01194511      -0.25973898
C        5.73170734       5.27489778      10.26036481      -1.01021803      -0.62839084      -0.27332066      -0.49612638       0.90522200       0.35676655       0.02291262      -0.12551317
F        4.72511958       5.51254456       9.40945840      -1.58953390      -0.97708022       0.59749344      -0.41809386      -0.27720279      -0.33782259      -0.00996874      -0.26325744
F        6.73045715       6.05700997       9.92307510      -0.16471000      -0.84096876       0.82793797       0.70404196       0.98232955       0.03673712      -0.01013835      -0.16749054
F        5.27010850       5.68018491      11.46749731      -0.94551679      -1.07475719       0.35752799       0.26674536      -0.41493815      -0.22419994      -0.01063540      -0.26842871
C        7.30692672       3.61335029      11.28670440       0.83559510      -0.66134002       0.06468759       0.79826134      -0.11374586      -1.07126760       0.02296800      -0.16061838
F        8.38990387       4.39900030      11.14948139      -1.26811247      -0.34203406       0.95749864      -0.18871914       0.50066161      -0.07148623      -0.01237667      -0.21844253
F        7.78422690       2.37061105      11.17630278       0.73709834      -0.85603371       0.14465365      -0.43102643       0.30484280       0.05805871      -0.01230349      -0.20097519
F        6.84822466       3.82706750      12.50609130      -0.60193465      -1.75201984      -1.51594838      -0.43740037      -0.26413283       0.73980248      -0.00890064      -0.27578104
H        7.19707940       4.34306365       8.46480319       0.06927559      -0.23262326       0.00480657      -0.25388110      -0.36983797       0.64715701       0.02266374      -0.06920046
H        5.43660384       3.16628347      10.32232737      -0.14245802      -0.00975437       0.07362777      -0.24890660      -0.11661042       0.39295262       0.01232393      -0.05092075
O       10.53551629       3.19108423      10.20000823      -0.65867553      -0.03053249       0.35553388       0.58113515      -0.40281385      -0.44942534      -0.02814750      -0.04507543
C       11.32157641       3.08155713      11.35786523       1.00688859      -0.94302492       0.12567213      -2.10461473      -1.02680671       0.56419343       0.00927637      -0.21080582
C       11.97520128       4.38469591      11.68890216       0.16269528      -0.30825850       0.63288838       1.76375461       0.24502733       1.97394276       0.01943399      -0.17519209
F       11.13851275       5.39737139      11.71517395       1.91250764      -1.27743374       0.43028886      -1.03824151       0.09005681       0.12987581      -0.01289282      -0.23620020
F       12.96827362       4.73843108      10.89805672       0.50533354      -1.25902062      -0.42355180       0.59924543      -0.31380349      -0.61234659      -0.01187924      -0.16786569
F       12.52019902       4.29261404      12.96066505       0.62899104      -1.10189950      -0.10286934      -0.15704186      -0.10695089      -1.19813776      -0.01661003      -0.21303628
C       12.15785324       1.81211028      11.30681127       1.73708609       0.35519978       0.59592728       0.63574272       1.28128159       0.35469952       0.02207878      -0.11333194
F       13.14071427       2.05402864      10.40140794       0.98773501      -0.43738472      -0.39904233      -0.14882366      -1.31105995       0.26484698      -0.01159799      -0.24855334
F       11.41696254       0.78023247      10.95942426       2.48121209      -0.51469594      -0.44409866       0.22905554      -0.10411496      -0.93035978      -0.00986962      -0.20922455
F       12.67622494       1.48813183      12.49514876       1.03009385      -0.59785026       0.51952823       0.55064940       0.25802088      -0.19615801      -0.01070460      -0.26161218
H       11.02049925       2.85244014       9.41649671       0.11616941      -0.09656109      -0.11520169      -0.27383435       0.29866526       0.72501135       0.02292416      -0.05665725
H       10.66203693       2.88381945      12.23359396       0.33728858      -0.13156315       0.03612875      -0.07626169       0.32344291      -0.60890710       0.01169438      -0.02155510
O        6.20196544       6.75477321       7.53668751      -0.52352359       0.16393491       0.43392822       0.46397948       0.57576334       0.54781002      -0.02528327      -0.03334534
C        6.81268407       7.40243502       6.45473154      -0.11028459      -0.22361274      -0.23422411      -1.17669141      -1.41787803       0.13272280       0.01384898      -0.23552930
C        5.99207738       8.54689108       5.97068481      -0.24935772       0.05729478      -0.33032835       0.66014457       1.46611381      -1.01741219       0.02196014      -0.12971593
F        5.78110823       9.50709522       6.91509628       0.92517732      -1.14956374       0.54288494       0.41508564      -0.92643249      -0.83173925      -0.01227492      -0.27105129
F        4.81850458       8.15449021       5.51146720      -0.42994300       1.24302205      -0.25375268      -0.56419176      -0.06612441       0.16707796      -0.00779483      -0.24423601
F        6.69030779       9.09648361       4.92098725      -0.49393265      -0.49360811      -0.11985654      -0.67464799       0.14336060       0.86453182      -0.01372221      -0.25139502
C        7.06697430       6.26220997       5.45314892      -0.51890331      -0.08582756       0.24151712       1.88744628      -0.14888354      -0.25952783       0.02341514      -0.07974158
F        5.98673986       5.50160403       5.32464410      -1.58199308      -0.15358873       0.83175045       0.11864846       0.03568428      -0.66397119      -0.00372814      -0.26219383
F        8.04130054       5.51582417       6.06458198      -1.72752291      -1.31213895      -0.65815965      -0.91549939      -0.05380740      -0.37208956      -0.01326441      -0.21287392
F        7.61040497       6.57598911       4.24007179      -0.19978928      -0.58419895      -0.15530468      -1.16930807      -0.04286410       1.01072812      -0.01162320      -0.25200474
H        5.32606988       6.40615424       7.33248305      -0.00900593      -0.02103854       0.09451834       0.01792500       0.14401096      -0.34875789       0.02732297      -0.04314644
H        7.77370427       7.76098364       6.72867537       0.11654051      -0.08877297      -0.26576526       0.81114298       0.38989395       0.55353165       0.01373928      -0.04645257
192
Lattice="14.090506366084483 0.0 0.0 0.0 14.090506366084483 0.0 0.0 0.0 14.090506366084483" Properties=species:S:1:pos:R:3:momenta:R:3:forces:R:3:charge:R:1:energies:R:1 Built=T with=T Packmol=T charge=0 spin=1 external_field="_JSON [0.0, 0.0, 0.0]" energy=-17.275283813476562 stress="-0.0013995030894875526 -0.0013437592424452305 3.555463990778662e-05 -0.0013437592424452305 -0.0009624814847484231 -0.0011577088152989745 3.555463990778662e-05 -0.0011577088152989745 -0.001663740142248571" dipole="-0.6929765343666077 -0.9864097833633423 -0.5526816248893738" free_energy=-17.275283813476562 pbc="T T T"
O       13.17271352       5.77141317       6.86196940      -0.07312773       0.18161473      -0.39814956       0.37531468       0.35163575       0.00147176      -0.02588009      -0.07797101
C       12.36519977       4.65864920       6.70834918       0.39782646       0.48925412       0.30147609      -0.00700974       0.01116074      -1.22681057       0.01423051      -0.23712632
C       10.92145530       4.94476021       7.08559247      -0.29860920      -0.13645621      -0.33638439      -0.72459954      -0.04003666      -0.15275152       0.02244367      -0.15549561
F       10.51346370       5.99790335       6.32755862      -0.47012982       0.08968713      -0.23589087       0.31335524      -0.44612291       0.98659152      -0.01361724      -0.24404176
F       10.70849789       5.20076886       8.39856211       0.56369780       0.12034921      -1.45497249       0.23813054       0.18682593      -1.17014694      -0.00969683      -0.25151014
F       10.14597968       3.89702524       6.75175260       0.14946286      -0.64163611      -1.15605894       0.07843265       0.12058069       0.17517702      -0.01015528      -0.26359904
C       13.02694266       3.41737423       7.28390108       0.39239094      -0.33866342       0.23040777       1.05549645      -0.26460826       2.89886093       0.02427087      -0.08546383
F       13.50838682       3.69638571       8.54458733       0.83308465      -0.96452750       0.40647144      -0.92014086       0.31312087      -0.47802234      -0.01406523      -0.20926836
F       14.12693544       3.10383630       6.64259432      -0.62298437       0.51197147      -1.45284970       0.14922144      -0.39552850      -1.40273011      -0.00768476      -0.22486253
F       12.26849610       2.30163158       7.44229609       0.48119584      -0.10123413      -0.08782651      -0.05522703       0.70363337      -0.58761895      -0.00818590      -0.28692961
H       13.26915120       6.07833566       7.77650356      -0.08693088       0.00458817      -0.08414202      -0.23684904      -0.44396570       0.03036121       0.02354352      -0.06642037
H       12.32592816       4.46992657       5.61184378       0.01087337      -0.02555594       0.04302124      -0.07570895       0.11852630       0.53667206       0.01451296      -0.02035744
O        1.96809313       9.07309794       2.14272881       0.32710009       0.07994373       0.36769176      -0.33803046      -0.61076826       0.02139274      -0.02746938      -0.16008677
C        3.00995411       9.92595984       2.46753676      -0.00123441      -0.62794974      -0.39984250      -0.50753981       1.26098382      -0.44923338       0.01152125      -0.25582272
C        2.70399112      11.33545396       1.84481799      -0.09853138       0.65733236       0.21060086      -0.08687863       0.09989256       2.17371964       0.02165430      -0.10147326
F        1.46559247      11.65720751       2.24917335      -0.13158877      -0.35166820      -0.80313873      -0.51449907      -0.34216884      -0.63312948      -0.01303805      -0.22991407
F        2.78343493      11.38708245       0.53798328       0.38650001       0.52417982       0.36059744       0.19978818       0.44073528      -0.42473331      -0.00711358      -0.23269603
F        3.43472033      12.31659263       2.40415096       0.75209423       0.37162240       1.02595138       0.83131778      -0.25920546      -0.97714859      -0.00954471      -0.19329056
C        4.37430603       9.35179349       2.12141685      -0.12296219      -0.15737131       0.29777680       0.48853919      -0.36895022      -0.02907210       0.02167819      -0.15670931
F        4.37723198       8.74471915       0.93276992      -1.03068504       0.12598289      -0.00920066      -0.05760578       0.33926746      -0.35179791      -0.00985451      -0.24318698
F        4.70562661       8.37537979       2.98614077       0.63030516       1.49885542      -0.47039690       0.10130361       0.62737787       0.06992117      -0.01083522      -0.23340993
F        5.31915564      10.31790417       2.10822176      -0.81624134       0.77552246      -0.22321369      -0.79518533      -1.16263044       0.01389061      -0.01097911      -0.22569609
H        1.95587055       8.85652750       1.19775551       0.08775001      -0.00990671       0.14391148       0.37863418       0.13786176       0.16185264       0.02183605      -0.04700057
H        2.94664183      10.10261332       3.53468890      -0.04194176      -0.02337172       0.05895686       0.24956977      -0.08382438       0.22226802       0.01143058      -0.04463291
O        7.39196783      12.58375292      13.47156520      -0.00204446       0.64226797      -0.63487908       0.05771403      -0.22569273       0.35662383      -0.03003729      -0.09301130
C        7.84735588      12.69868979      12.18226029      -0.29598882       0.60730883      -0.15750719       0.65926659       0.33208469       0.17142130       0.01042510      -0.25096112
C        9.30220617      13.24460225      12.14013174      -0.16578610       0.76760905       0.52677253      -0.59351683       0.31142819      -0.00714275       0.02149866      -0.14467596
F       10.03811778      12.73246147      13.13325388      -0.89950220       0.74767207      -0.77077760      -0.16160616      -0.09030402      -0.45646232      -0.01199610      -0.26422033
F        9.31660049      14.58807450      12.30280761       0.20309281       0.11991402      -1.21855224       0.04547244      -0.41081184      -0.09451718      -0.01135662      -0.26456034
F        9.86131445      12.91568543      10.96475734      -0.82989045       0.33822781       0.23498063      -0.03647365       0.13444209       0.48775649      -0.01229362      -0.22320557
C        6.80574682      13.52827336      11.46199866      -0.30407681       0.33501454       0.74270517      -0.81852770       0.69885659      -0.76149422       0.02257488      -0.13181657
F        6.48705755      14.65091879      12.13843579      -1.52571524       0.36402662       0.36578328      -0.14709261      -0.67181718       0.61674899      -0.00985424      -0.21120185
F        5.64136612      12.79586115      11.37483049      -0.84081419       0.66762477      -0.66456729       1.00977659       0.56758827      -0.23623118      -0.01480869      -0.29416811
F        7.17718936      13.96136625      10.26231959       0.21051614       1.40051340       0.53808059      -0.10781139      -0.66886646      -0.09796494      -0.01070923      -0.21796171
H        7.31228694      13.47053817      13.84640363      -0.19235248       0.01359364      -0.16281494      -0.05124221      -0.12519982       0.07097993       0.02612533      -0.00497902
H        7.92032690      11.72204749      11.72922380       0.11029434      -0.04474476      -0.12250679      -0.27879080      -0.33558509      -0.13993675       0.01091828      -0.04755652
O       13.29917386       8.65077569       1.53313652       0.58004383       0.42865747      -0.91382585       0.09548587      -0.02529480       2.46349978      -0.03401981      -0.07292356
C       12.28745197       8.85278527       2.54797170       0.11447275      -0.49467270      -1.36754338       0.76455474       2.65453696      -0.94611263       0.01262166      -0.16578570
C       12.67317458      10.05110242       3.46211625       0.90708452      -0.27809384       0.04521944      -0.49968457       1.28152621      -0.63265586       0.02167962      -0.12078610
F       13.13690589      11.07155927       2.68249804       0.79475480      -0.23731703      -1.85339780      -0.44412699      -0.98677832       0.61194140      -0.01320392      -0.23493667
F       13.57535841       9.84895662       4.41011731       0.76073380       0.41767667      -2.17602231       0.38212875      -0.32670519       0.08556581      -0.01101634      -0.26969019
F       11.55138205      10.51188839       4.07409884       1.56407290       1.86578450      -0.23507501       0.51652193      -0.60150874      -0.11756571      -0.01135689      -0.22234391
C       11.89589567       7.62888057       3.31171123       0.34274267       0.78152193      -0.17799879       0.91212362      -1.20675206       0.58554780       0.02369884      -0.10587917
F       12.76844771       7.36441663       4.30363350       0.07696014       0.20081011      -0.17353868       0.12540911      -0.22375295      -0.37924340      -0.01154532      -0.25027040
F       11.97516968       6.61903725       2.41034199       0.01310225       1.65090885      -0.97250035      -0.66028243      -0.27716303       0.63483083      -0.00939004      -0.25009128
F       10.70162005       7.63692769       3.91905632       0.46424610      -0.16163625      -0.29839715      -0.00562406       0.27197313      -0.93167293      -0.01135051      -0.26152298
H       14.18077102       8.70908645       2.02400985       0.20758612       0.31560078       0.08670545      -1.24841237      -0.08645988      -0.90174907       0.02026593      -0.07068907
H       11.39733726       9.31092117       2.09249570       0.15193287       0.24378507      -0.33430121       0.11223444      -0.65085906      -0.41042659       0.01331738      -0.02516004
O       10.77099433       4.50257248       0.65797014       0.49764490      -1.18884150      -0.57155405      -0.71523130      -0.11141854       1.46253073      -0.02862428      -0.03293686
C       10.47213384       3.31065288       1.41819236       0.09656469      -0.28021484       0.22059321       1.22570062       1.44001782      -2.19633436       0.01284688      -0.17221867
C        9.35688396       3.52872374       2.40134756       0.18399353      -1.24507756       0.28607000      -0.94857728      -0.81891459      -0.90598893       0.02381613      -0.13085726
F        8.35057475       4.06213116       1.66295190       0.39559345      -1.16575590      -0.21738342      -0.05854231      -0.36412218       0.77217835      -0.01028530      -0.24427089
F        9.67542200       4.38138170       3.33895521      -0.00128555      -2.01768602       0.38533664       0.17554587       0.63818431       1.04665089      -0.00739073      -0.26900104
F        8.91782997       2.36823350       2.97319885       0.64233465      -0.75845108      -0.97377525       0.26630306       1.04530287      -0.46338356      -0.00957976      -0.26792461
C       11.79888344       2.75968141       1.92906427       0.54772884      -0.87646481       0.56757776      -0.83325577      -1.03433716      -0.44149017       0.02222809      -0.13098380
F       12.52316177       3.58827843       2.63099874      -0.76068097      -0.06048277       1.13263951       0.59632838       1.57298636       0.48993394      -0.00836337      -0.27086279
F       12.55631552       2.26946362       0.95264329       0.00582161      -0.54304783       0.38414237       0.08894067       0.31437573      -0.59822273      -0.01040772      -0.25806284
F       11.52500159       1.74920434       2.71851051      -0.20534204      -0.42533080       1.14307391      -0.37737188      -1.58513987       1.30098307      -0.00974670      -0.21583694
H       10.87463584       5.25154393       1.27496980      -0.26295578      -0.02233547       0.00318848       0.08487368      -0.30006230      -0.32298896       0.02168524      -0.07569611
H       10.06176547       2.68551007       0.63010897      -0.11140154       0.10284121      -0.03855695       0.14558955      -0.75638878       0.29966986       0.01420036      -0.02354656
O        8.77747687       7.05202376      11.79983134       0.61392642       0.97018730       0.93558071      -0.35071778       0.43313998      -0.56550032      -0.03014951      -0.03081697
C        8.51652684       8.38563787      12.17073209       0.11976968       0.16851070       0.34253152      -0.15900707      -0.95266759       0.59212607       0.01067252      -0.25513124
C        9.22575516       8.56524758      13.52426407       0.96533025      -0.97809843       0.60247283      -0.94587266       0.87836421      -0.71034580       0.02037857      -0.15873837
F       10.45067175       8.06746362      13.42817134      -0.68675458      -2.23602228       1.50446999       0.29077840      -0.44540223       0.49568373      -0.01161360      -0.25143304
F        8.56580935       7.97632648      14.52594021       0.13727008      -0.10519152       0.52698451       0.32238746      -0.18994324       0.14926165      -0.01042111      -0.30106017
F        9.33023856       9.86827487      13.80589339       0.80309045      -0.28566696      -0.11942053       0.00692889       0.24747837       0.38888595      -0.01299720      -0.24669553
C        7.00337199       8.71747098      12.17610251      -0.03603057      -0.58224260       0.28891919       0.30432954       0.10321368       0.05335215       0.02258404      -0.13181108
F        6.37830539       7.82761763      12.93466853       0.59078191      -0.70602837      -0.27269640      -0.19355662      -0.05651546       0.67130995      -0.00942572      -0.22695594
F        6.48894023       8.57258547      10.95122520       0.71223358      -0.32229402       0.89403931       0.22141202       0.49710724      -0.14860269      -0.01271179      -0.26086068
F        6.72266328       9.98244873      12.61473234       0.40810192      -0.58663818       0.57109544       0.32429954      -1.24859941      -0.30159488      -0.01167257      -0.26093048
H        8.16858863       6.40167747      12.18136069      -0.26696803      -0.05312598      -0.01714384      -0.01299580       0.42281756       0.09561899       0.02408696      -0.05699655
H        9.00217014       9.04881277      11.46767839      -0.02254327       0.03287793       0.03414766       0.13445598       0.07080776      -0.23034413       0.01128604      -0.05681043
O        3.74416651       1.23846610      11.91838705       0.18664381      -0.15911776       0.01472262       0.23880064       0.82383436       0.29906350      -0.02174931      -0.01238321
C        2.53807109       1.62250807      11.33813658      -0.21176205      -0.85546733      -0.19718067       1.03923297       0.58949888      -1.64427304       0.01441095      -0.20828308
C        2.81910328       1.55084768       9.76329849      -0.35316620       0.39299532      -0.57383927      -0.99018699       0.67187721       0.76538533       0.02255313      -0.09742126
F        3.37127233       0.35273919       9.50119496      -0.25155399       0.58547010      -0.55504131      -0.27531272       1.02130818      -0.04914387      -0.01066013      -0.19813709
F        3.64785009       2.51389468       9.34053754      -0.20849241      -1.34936200      -0.03132857       0.27716112      -0.50442213       0.03250718      -0.00925587      -0.23135614
F        1.66766649       1.75978093       9.05763634       0.30033843       0.22472611      -1.50679804       0.74705869      -0.74330854       0.42520258      -0.01456475      -0.25786000
C        2.18174499       3.08321751      11.83063707       0.30692416      -0.27849543       0.54730697      -0.11538234      -0.08016091       0.23547094       0.02322741      -0.10626477
F        2.80141822       4.05748318      11.16717415      -0.65672721      -0.06511193       0.28511146       0.42351398       0.00959916      -0.71201682      -0.01060828      -0.23159692
F        2.60749724       3.22685038      13.09152083      -0.40318690       0.02284133       0.01021836      -0.67182010      -0.49229723       0.09870694      -0.00967645      -0.23468509
F        0.86429575       3.38615218      11.73059116      -0.15350282      -0.19994257       0.52038963       1.03211367      -0.94071800       0.37235913      -0.01246365      -0.20921263
H        3.76726439       0.33721123      12.24080359       0.08602783       0.08413360      -0.39794924      -0.30319515      -0.24640542      -0.06378833       0.02475287      -0.04337030
H        1.73943521       0.93425406      11.52277809      -0.03323397      -0.00443303      -0.14442802      -0.73524451      -0.19133151       0.28294924       0.01366743      -0.05785792
O        2.34574912       7.02586693      10.91180791      -0.18163221      -0.13047899       0.81568765      -0.35010684      -0.76351851       0.59542829      -0.02979772      -0.06636454
C        1.93817332       7.41780277      12.20516574       0.03054596      -0.78799485       0.01265122       0.75179559       1.07157004      -1.28024650       0.01056282      -0.25867456
C        2.69303125       8.73342995      12.45368243       0.36943121       0.21715663       0.10577153      -0.56258970       0.63850027      -0.81223100       0.02116943      -0.12735015
F        2.49882577       9.59818045      11.45002297      -0.39572117       0.48987536      -0.75110604       0.21222669      -0.38017422       0.05927283      -0.01481834      -0.19833910
F        4.01870630       8.55755996      12.54941421      -0.18871504      -0.61102891       1.19307504      -0.61727208      -0.05845131       0.23653580      -0.01027850      -0.23928070
F        2.19725859       9.37349992      13.52087513      -1.16274049      -0.81927254       0.57918251       0.19454536      -0.16151181       0.43707490      -0.00564139      -0.17754814
C        2.13251205       6.45749779      13.34715563       0.07847284      -0.44081752       0.50055446      -0.77540529      -1.46976233       0.32276982       0.02397766      -0.11858124
F        3.34145320       5.89792260      13.34931430      -0.84180675       0.47690981       0.80399296      -0.45851249      -0.34323078      -0.21416196      -0.00705605      -0.24726768
F        1.11791151       5.51361884      13.33978095      -1.07713601       0.41876112       0.83051201       1.56217337       0.85507089      -0.22013955      -0.01288237      -0.23234530
F        2.00973392       7.06841096      14.52988008      -0.35885276       0.05533167       0.70231297      -0.18548664       0.11449207       0.27197653      -0.00536652      -0.20979284
H        3.27129839       6.73747867      10.90343554      -0.09593866      -0.06847108       0.21859354      -0.13412692      -0.02973178       0.25202522       0.02153523      -0.07320958
H        0.87157774       7.63493911      12.15857352       0.35561036      -0.17576214       0.11269653       0.23897834       0.07533462      -0.03167158       0.01051254      -0.03500244
O        4.09072409      14.44348085       6.90127659      -0.39848332       0.86194998      -0.03991586      -0.21741669      -0.28427446      -0.51370513      -0.02566941      -0.10502113
C        4.58852609      13.19165543       6.50488833      -0.53940920       1.05165609      -0.46885915      -1.07210779      -0.42929080      -0.54802966       0.00764607      -0.21360952
C        6.10663529      13.18468462       6.76586137      -0.26751812       1.55546746       0.84580721      -1.16354227      -1.44107234       0.79746276       0.02279735      -0.12196209
F        6.24626045      12.91055845       8.11357793      -0.40963751       1.29483385       0.57317360       0.06050680       0.77199996      -1.31268680      -0.01516685      -0.22210805
F        6.68659726      14.32210351       6.44583160       1.38667237       1.59736889       1.23889058       0.35536155      -0.16863878       0.21000898      -0.00658600      -0.27957338
F        6.68317431      12.15363980       6.11523128      -0.92842125       1.38454093       0.49613863      -0.02504322       0.64977145       0.03406397      -0.01203169      -0.25655007
C        4.16497311      12.93955258       5.02457319      -0.45501024       1.22705204      -0.38178527       0.92919493      -0.11267879       0.23149525       0.02270009      -0.11454542
F        4.86050314      13.74618073       4.21711487       0.07581413       1.23182097       0.75457695       0.18671386      -0.11255968      -0.17828821      -0.00868936      -0.26555562
F        2.88009132      13.19988039       4.79311296       0.67040386       1.94105862       0.20068686      -0.51175845       0.61554712       0.34944966      -0.00852044      -0.20447353
F        4.32266144      11.65487348       4.66540036      -1.47703219       2.84320826      -0.28610198       0.57299322       0.02059524       0.39062402      -0.01300377      -0.23253973
H        3.32768005      14.63041253       6.32489283       0.10043189       0.31299095      -0.11623991       0.19072601       0.08904460       0.53295988       0.02494448      -0.02988372
H        4.11998354      12.32913135       7.04344384       0.10114333       0.26848487      -0.09849922       0.78968585       0.80530465      -0.17504615       0.00833309      -0.02367895
O       11.66753101      12.88392288       8.76359481      -0.27612239       0.05628817      -0.77592744      -1.07621098       0.30182680      -0.94332945      -0.02864365       0.02187748
C       10.84065447      11.84954040       8.28744331      -0.70845875       0.39174279      -0.75849985       0.22370966       1.00339341       0.29697907       0.00873586      -0.24009690
C       11.46610562      11.14382455       7.10436896       0.28527862       0.17737483      -0.36105144      -0.86349946       1.02882230      -0.52253211       0.02024004      -0.12854540
F       12.48935819      10.38349226       7.44702710      -0.18019219       0.30955378      -1.10139098      -0.06104295       0.15140140      -0.79782754      -0.01077874      -0.15355845
F       11.92733336      12.09532029       6.23353040      -0.17024750       2.34194467       0.17039743      -0.17608154      -0.95628363       0.13924107      -0.01206138      -0.27674714
F       10.47624454      10.40633746       6.53422340       0.00768644       1.24881080      -1.35940716       1.23933029      -0.14662369      -0.04019245      -0.01346885      -0.22521025
C        9.43987864      12.41677623       7.87281529       0.16896254       0.43714568       0.20847893      -0.14432295      -1.28617370       0.58521044       0.02207717      -0.09621451
F        9.38768416      12.67042893       6.56759988      -0.92295574       0.47732667       0.32074371      -0.14556220       0.16394961      -0.24697646      -0.00885704      -0.22102973
F        9.12386915      13.51101126       8.50056094       0.22256293       0.23045857      -0.03952558       0.45710683       1.72050381       0.52499986      -0.00937627      -0.20075125
F        8.45121878      11.57082596       8.21810975       0.01088131      -0.00263569       1.08446075       0.30369845      -0.96312797      -0.44801068      -0.01486605      -0.24062377
H       11.64834705      13.56186803       8.06095334       0.01628663       0.10199480      -0.21212324       0.32808769      -0.06870595       0.53319144       0.02551216      -0.02762084
H       10.79852540      11.11675146       9.07950195       0.15776201      -0.18114932      -0.14348986      -0.59566450      -0.10998642       0.26956081       0.00985759      -0.05042285
O       14.08901339       8.68607712      10.45450976      -0.33163625      -0.62197304       0.84403054       0.03386009      -0.27787814       0.13842171      -0.02904969      -0.01885428
C       12.84254317       8.66607602      11.09025895      -0.43422052      -0.48874838       0.47519576      -0.98753774       1.22786117      -1.88364995       0.01177475      -0.18804100
C       11.88905274       8.06334540       9.98655792      -0.23066416       0.19772539       0.57816603       1.45841074      -0.59724677      -0.21141726       0.02323371      -0.02604496
F       12.26176792       6.74810668       9.90952879      -0.64822593      -0.03495264      -0.35010036      -0.76950735       1.32388234      -0.22966938      -0.01149623      -0.21111748
F       12.20890711       8.59342345       8.77345756       0.38843724       0.47940131       0.13202340      -0.21473435      -0.44990346       0.70145327      -0.01068297      -0.19590561
F       10.58297014       8.17703872      10.08244394      -0.31891866       0.64270196      -0.47352598      -0.12879290      -0.07474127       0.56173128      -0.00818333      -0.22937866
C       12.57069591      10.10639563      11.66034583       0.02313370      -0.55014238       0.45920196       1.11714458      -0.86189955      -0.67197639       0.02157868      -0.11067615
F       12.48459168      11.07117923      10.71609953       0.04293253      -1.23444599       0.31864422      -0.61679196      -0.70761859       0.58595848      -0.01060889      -0.24565887
F       13.67573478      10.36285416      12.37832840      -0.27598959      -0.88941481       0.50652070      -0.45303947       0.29140595       0.39924264      -0.01233632      -0.23040734
F       11.51239136      10.13526255      12.45756342       0.01315010      -0.74607371      -0.42823396      -0.05959370       0.46559003      -0.29535726      -0.00907876      -0.25161970
H       14.01179653       8.94164218       9.50950178       0.08124700       0.21897018      -0.10873671      -0.09908244      -0.14731278       0.87432969       0.02320162      -0.03824142
H       12.81175890       8.01294822      11.95256193      -0.03594696      -0.01083202      -0.02346488       0.20755166      -0.33980823       0.14783837       0.01368527      -0.05060644
O        1.97324823      12.24460785       6.96571901      -0.00797642       0.85026144      -0.97875062      -0.60276270      -0.59982234       0.74386823      -0.02041555      -0.09920222
C        2.05746356      11.49711253       8.15861319      -0.24254733      -0.04520520      -1.27243265       0.01063460       0.86509979       0.96293235       0.01449827      -0.18483050
C        2.10511614       9.99106424       7.85746669      -0.07619355      -0.16654199      -0.22130282      -0.63008052       0.11360277       0.71749812       0.02389698      -0.12752998
F        3.05667178       9.74965020       6.96305699      -0.54027798      -0.51161566      -0.84393725      -0.31353384      -0.15769169      -0.01962860      -0.00862045      -0.26815316
F        0.90196150       9.53786644       7.37732613       0.47974864       0.08229163       0.16410349       0.77784330       0.37378263      -0.02080686      -0.01132445      -0.29143548
F        2.34100463       9.28297850       8.96785083       0.87991715       0.66889598      -0.50158617       0.18511134       0.14253530      -0.51458079      -0.01070053      -0.22781333
C        0.99101600      12.00091281       9.20556855      -0.14597060       0.16365095       0.54109792       0.19164068      -0.31979522       0.47496858       0.02157167      -0.09931374
F       -0.20082298      12.13150389       8.66122330       0.04432804       0.47450616       1.24834354       0.08150272      -0.55724615      -0.36936474      -0.00963051      -0.17982864
F        1.33516870      13.21497308       9.61346253       0.25292007      -0.07377866       0.52091189       0.21378206       0.53344417      -0.07851108      -0.01126217      -0.19408846
F        0.88604410      11.29119991      10.35926085      -0.64230151       0.26478463       0.75687452       0.46531069      -0.09340055      -1.36728179      -0.01346213      -0.20039250
H        1.12813983      12.05166575       6.53023089      -0.08531504       0.00568111      -0.10689944       0.06582941       0.07953352       0.00988897       0.02600320      -0.04710437
H        2.98042604      11.82718342       8.68161842      -0.06884741       0.17542117      -0.16117669      -0.11583193      -0.63108164      -0.55198705       0.01445699      -0.01677270
O        8.90454012      11.39389178       4.19052748       0.83619082       0.89473901       0.54202941       0.09774169       0.38339373      -0.41319752      -0.03003271      -0.08431489
C        8.78835890      12.49587632       3.32531561      -0.00241904       0.48233314       0.10261934      -0.90688145       0.89591259       1.50576997       0.01065925      -0.23526961
C        7.60180551      12.28715258       2.37692474       0.11756887       0.03211830       0.43959326       0.44664854       0.13816197       1.55933762       0.02296275      -0.12628774
F        6.50545634      12.02957921       3.08434508       1.24911045       0.00714074      -0.47113338       0.25043988      -0.09421501       0.22239889      -0.01174224      -0.16337927
F        7.88125083      11.25790288       1.59081128       0.34479446       0.30469427       0.61568959      -0.36281163      -0.24364810      -0.46930209      -0.01091958      -0.24471125
F        7.32754845      13.39545645       1.70192775       0.20740872       0.02748407       0.19881895      -0.08303308       0.58785021      -0.50223768      -0.00700294      -0.18104704
C       10.07342547      12.80326586       2.58082965      -0.28069492       0.12323401      -0.23082945       0.15705752      -0.57878864      -0.57081658       0.02140818      -0.17822321
F       10.55249459      11.68149487       1.97381806      -0.19636201      -0.36656423      -0.32214628      -0.24236377       0.54748207       0.01270079      -0.01172083      -0.25171283
F       11.00205036      13.22469291       3.42916102       0.27363816       0.46532169      -1.52879196       0.10872491       0.23435760      -0.16149142      -0.01026951      -0.25443462
F        9.87692813      13.71947408       1.60564319      -0.27016008      -0.33623467      -0.90246896       0.34782684      -0.17605607       0.60926813      -0.01040685      -0.25435561
H        9.03866071      10.59049171       3.67395032       0.15162400       0.10152950       0.06399273       0.04499368      -0.05576999      -0.08196614       0.02403802      -0.04511161
H        8.55440843      13.38899013       3.99910964      -0.01497118      -0.02895535      -0.01358030       0.29101840      -1.06386721      -0.99275601       0.01392623      -0.04054721
O        6.77750957       3.54413142       8.92640712      -0.95824299      -1.10245304       0.49177950      -1.02110159      -0.31637004       1.17971456      -0.02967836      -0.05168362
C        6.24122121       3.83319830      10.24156288       0.06687631      -1.53059839       0.21214812       0.44121504      -0.26006836      -1.58122134       0.01191653      -0.25426120
C        5.70052852       5.26512408      10.27247347      -0.85197480      -0.35044556       0.07350323       0.99763817       0.06736565       0.88072515       0.02289091      -0.12278490
F        4.69004115       5.49499584       9.43810327      -1.69724750      -1.08018891       0.40328924      -0.03827864      -0.19405563      -0.35598698      -0.00847334      -0.26918337
F        6.73966653       6.05052178       9.96100712      -0.07596808      -0.48409384       0.82208847      -0.32989338       0.45101592      -0.00989904      -0.01127592      -0.19750772
F        5.25604332       5.65954145      11.49388075      -0.82796690      -1.23982799       0.19367271       0.16402890      -0.29300538      -0.37184942      -0.01102733      -0.27022994
C        7.35364048       3.59029440      11.29632916       0.67040664      -0.77755935      -0.50406578      -1.35691500      -0.33129966      -0.98684496       0.02238972      -0.14965710
F        8.37291837       4.40194457      11.19160543      -1.01681542       0.04795632       0.83904375       1.07355392       1.02576566      -0.35283566      -0.00965766      -0.21910398
F        7.81449144       2.35387648      11.19870648       0.64480736      -0.76758087       0.13608166       0.10605495       0.00100922      -0.09213366      -0.01145175      -0.20957735
F        6.84108034       3.78685634      12.49487683      -0.83326255      -1.84251999      -0.90212329      -0.47220671      -0.21789998       1.44035172      -0.01042543      -0.26748088
H        7.25175494       4.27754161       8.52176100       0.14633250       0.01856480       0.13511569       0.05610014       0.39260435       0.36290210       0.02257231      -0.07153001
H        5.38949048       3.16213416      10.41181441      -0.01315103      -0.01976872       0.19480824       0.57281452      -0.05616093       0.07378240       0.01173811      -0.05994627
O       10.54105829       3.19034135      10.22466230      -0.14597462      -0.32805728       0.36535680       0.44598192      -0.08976319       1.94536567      -0.02833251      -0.06780563
C       11.36350745       3.04487232      11.38370585       0.19460147      -0.92625177       0.15491884      -1.37045777       0.95792866       0.05884761       0.01006666      -0.19321427
C       12.02173388       4.37692494      11.74761266       1.12595491      -0.53651832       1.10482449       1.64659095      -1.02141237      -0.15879092       0.01905548      -0.18396662
F       11.19771064       5.37620302      11.74692880       1.18092685      -0.99078952       0.52960924      -1.60187507       0.81197649       0.29557279      -0.01222677      -0.23011501
F       13.00599678       4.71196326      10.90252022       0.71691585      -1.39331820      -0.58835761       0.31981128      -0.29664963      -0.07616092      -0.01401421      -0.18213028
F       12.55705520       4.27088696      12.97362487       0.65243205      -1.12256288      -0.47835416       0.38805699      -0.03729070      -0.18086685      -0.01319418      -0.21687818
C       12.25080782       1.83595133      11.34773354       1.69530748       0.49520340       0.36116364      -0.79447252      -0.69259590      -1.08677316       0.02245164      -0.10364498
F       13.18826795       2.03851864      10.41069182       1.04304941      -0.99007497      -0.20348487       0.42856398      -0.90425205       0.48423713      -0.01032666      -0.23875509
F       11.50201325       0.76912119      10.96151634       2.64615112      -0.39125399      -0.75793773       0.53407151       0.51902598      -0.38901421      -0.01411295      -0.21750492
F       12.72814251       1.47729600      12.52865428       1.37727096      -0.41145611       0.47834565       0.88420206       0.49303341      -0.00733982      -0.00891262      -0.25264043
H       11.03331303       2.86171556       9.49163405      -0.05441085       0.04725246       0.18293362       0.59137791      -0.40381089      -1.11043715       0.02211669      -0.05225349
H       10.76813727       2.84624252      12.25582120      -0.06718167      -0.07519772       0.06100463      -1.03869736      -0.01792492       0.26006162       0.01184927      -0.01152319
O        6.20154550       6.77624845       7.56578013      -0.17108520       0.50756775       0.59796871       0.57543170       0.67503816       0.02812288      -0.02561713      -0.05049212
C        6.81265051       7.39480528       6.45832490      -0.28648889      -0.63469319      -0.08916771       0.43093440      -0.14621563       0.38548940       0.01363687      -0.20616592
C        6.00004833       8.57435349       5.95974112       0.16693396       0.46044844      -0.60827687       0.83538663      -0.05666050      -0.05213658       0.02187564      -0.14968480
F        5.81683615       9.48852505       6.93551071       1.07842286      -1.45788021       0.15850265       0.26672411      -0.33347705      -0.67194670      -0.01172239      -0.27844623
F        4.81149309       8.19944031       5.51501583      -0.73494561       1.17905164      -0.18669213      -0.60361850      -0.08699759       0.10558296      -0.00884027      -0.24950103
F        6.68513942       9.10067818       4.93053029      -0.73023569      -0.31220255       0.16827504      -0.24597816       0.63109338       0.19826838      -0.01153342      -0.25850639
C        7.07308158       6.26503910       5.46781254       0.13267925      -0.33489230       0.00891545       0.58610576      -0.73940998      -0.53569806       0.02302558      -0.10051714
F        5.95765457       5.50784075       5.35039946      -1.39948936      -0.04311434       0.46279581       0.54120165       0.38677976      -0.79527611      -0.00623443      -0.26173180
F        8.00540020       5.49073806       6.05599376      -2.02769432      -1.35341949      -0.75796195      -0.28963223      -0.27495235      -0.04085740      -0.01161523      -0.21342814
F        7.61016367       6.57169572       4.24996762      -0.79999050      -0.58781848       0.37528821      -1.21196282       0.02024746       1.03392351      -0.01156042      -0.25329170
H        5.32789480       6.42185434       7.34344639      -0.00199256       0.04426373      -0.09139261       0.19041060       0.16190222      -0.26271316       0.02704203      -0.04395421
H        7.85593629       7.75654937       6.67643765      -0.02068876      -0.03494920      -0.01119415      -1.15575337      -0.14238532       0.42243397       0.01339757      -0.03751981
192
Lattice="14.125798552335015 0.0 0.0 0.0 14.125798552335015 0.0 0.0 0.0 14.125798552335015" Properties=species:S:1:pos:R:3:momenta:R:3:forces:R:3:charge:R:1:energies:R:1 Built=T with=T Packmol=T charge=0 spin=1 external_field="_JSON [0.0, 0.0, 0.0]" energy=-17.695405960083008 stress="-0.00381897808983922 -0.0017551729688420892 -0.0008902630070224404 -0.0017551729688420892 -0.0011565055465325713 -0.0015374423237517476 -0.0008902630070224404 -0.0015374423237517476 -0.0040509384125471115" dipole="-0.4477890729904175 -1.088394045829773 -0.3407532572746277" free_energy=-17.695405960083008 pbc="T T T"
O       13.20628831       5.79375590       6.86587708       0.10682949       0.33825598      -0.41963690       0.31425998       0.42560422       0.55730832      -0.02561670      -0.12565993
C       12.40959596       4.68632013       6.72739571       0.20531242       0.20922704      -0.08731269      -0.63246524      -0.99752653      -0.15525346       0.01250620      -0.20487131
C       10.93325927       4.95125983       7.08633696      -0.35801245      -0.15146727      -0.53790952       0.48944530      -0.05043560      -0.68749243       0.02204934      -0.15301977
F       10.52937225       6.01218645       6.34314061      -0.35265074      -0.14725681       0.18890536       0.10878696      -0.46280420       0.68286586      -0.01349463      -0.25964811
F       10.75025438       5.21793227       8.37683702       0.54976988       0.19446189      -1.76111685      -0.24090812       0.12902412      -0.14388810      -0.00862139      -0.26373583
F       10.17586188       3.89162193       6.74037273       0.19613826      -0.51370378      -1.02064849       0.09068836       0.32172301       0.28053012      -0.01018771      -0.27605158
C       13.08341496       3.41342603       7.33677598       0.70107970      -0.17753654       1.30411198       0.20787764       0.84382433       1.05741537       0.02359116      -0.11511211
F       13.55849001       3.68255786       8.57327705       0.46363455      -0.83011740       0.17493406      -0.44545567       0.18195148      -0.26145253      -0.01154709      -0.23371556
F       14.14774095       3.12199012       6.61412547      -0.49781028       0.28521311      -1.96925294       0.21445833      -0.45248926      -0.67633933      -0.00842059      -0.24824390
F       12.31124825       2.30884951       7.45535343       0.44915003       0.19294126      -0.31864032      -0.02929120       0.47995237      -0.30305478      -0.00793273      -0.29687381
H       13.24399865       6.06790536       7.79566538      -0.13129580      -0.07862831       0.07528651       0.02063386      -0.07564677      -0.06600733       0.02326329      -0.05878177
H       12.35730462       4.47674884       5.67352018       0.00122356      -0.01683360       0.03833889       0.04806580      -0.14368519      -0.65586138       0.01397055      -0.01780311
O        1.97976857       9.09402258       2.16213743       0.10681752      -0.19963975       0.48940975      -0.38859105      -0.65538299      -0.61523783      -0.02865957      -0.20946662
C        3.01306373       9.94259623       2.46088251      -0.18183909       0.27848585      -0.09853309      -0.12357515       1.91515136       1.03945744       0.01040140      -0.21011443
C        2.70828365      11.38802946       1.87704491       0.02671638       0.45041066       1.02521637       0.50103974      -0.77638960       0.87642586       0.02172570      -0.12492588
F        1.46272477      11.67611889       2.23093659      -0.36729802      -0.40572064      -1.00606437      -0.43879691       0.09785791      -0.22835676      -0.01130199      -0.24394035
F        2.80167031      11.43213067       0.54666225       0.48583856       0.75691985       0.26057083       0.23452142       0.50153273       0.21546444      -0.00946086      -0.24855325
F        3.46631887      12.35486287       2.42999589       0.96488394       0.18918345       0.50295628       0.12363522      -0.42126942      -1.02218330      -0.00886970      -0.20560199
C        4.38385598       9.36877047       2.13499122      -0.00300886      -0.06139254       0.02321751      -0.17644370       0.76702237      -1.01538122       0.02170797      -0.15207714
F        4.36183945       8.77179587       0.93292843      -0.98646562       0.26230817      -0.14816596       0.16256642       0.21190681      -0.22245917      -0.01054855      -0.25051805
F        4.73488938       8.43663526       2.98354317       0.74393425       1.52655897      -0.24939158       0.39048663      -0.38496545       0.76799548      -0.00819761      -0.22693953
F        5.30664524      10.35629421       2.10776836      -1.15695635       0.20680069      -0.22505977      -0.54665285      -1.01977086      -0.05485205      -0.01155222      -0.23634104
H        2.03599261       8.86391668       1.21936766       0.19009128      -0.06849000      -0.05596227       0.00630807      -0.07407804       0.26042297       0.02146609      -0.03858460
H        2.96898137      10.10174420       3.54808404       0.10210646      -0.08001531      -0.08076677       0.23890060      -0.03350345      -0.21516044       0.01102779      -0.03581737
O        7.41052109      12.63105902      13.48921405      -0.01111290       0.38479054      -0.37375298      -0.13976748      -0.27670920       0.79818326      -0.02988500      -0.08697151
C        7.86266510      12.75279603      12.20550619       0.06357926       0.43209670      -0.22587532       0.41454068      -0.19501077      -0.13182212       0.01051821      -0.22630262
C        9.31144753      13.30929682      12.18644714      -0.53793348       0.69950042       0.13568687      -0.80341661      -0.54388887      -1.37560737       0.02125968      -0.14177790
F       10.04017334      12.78248380      13.14548157      -0.84918236       0.63701637      -0.75316092       0.24483009      -0.27736378       0.40213367      -0.01084695      -0.26049605
F        9.34551782      14.62732324      12.30253701       0.22836845       0.17523745      -1.15425054       0.04907422       0.61343473       0.24304090      -0.00973713      -0.26757196
F        9.86457461      12.95759371      11.00125213      -0.82176822       0.39971161       0.45053494       0.01477855       0.13001229       0.34441069      -0.01438005      -0.22989237
C        6.80241192      13.58301152      11.50847530      -0.65720649       0.67095827       0.05248554      -0.42844486       0.56660599      -1.64960265       0.02320644      -0.11750932
F        6.46344517      14.69285026      12.18238747      -1.54657192       0.05324720       0.68478348      -0.06981058      -0.53064734       0.67426407      -0.00870036      -0.21294600
F        5.64084360      12.84877994      11.38514194      -0.28479373       0.94349979      -0.72970001       1.10392189       0.56902927      -0.12320222      -0.01419406      -0.29560935
F        7.19934436      14.02764683      10.30263209       0.09190873       1.01440371       0.62512578      -0.35555953      -0.72144473       0.32539207      -0.01195339      -0.22246358
H        7.22839282      13.52013406      13.82915764      -0.22174826       0.03378910      -0.04649182       0.01531626      -0.29163778       0.13780575       0.02655500      -0.00098705
H        7.94874874      11.76309088      11.71959643      -0.08184589       0.16275154       0.00120369      -0.35772541       0.43693152       0.28809083       0.01099324      -0.05083394
O       13.35261653       8.68499484       1.52734948       0.52772245       0.34016790       0.11028313      -2.06411695      -0.64149922       0.53183764      -0.03269991      -0.11917478
C       12.33004910       8.88646279       2.49249992       0.47559006       1.05318800      -1.52089084       0.92245996       2.69322705       0.63474566       0.01246780      -0.15317746
C       12.73167400      10.07944670       3.45935346       0.31119948       0.45491761      -0.73211010      -1.55012286       1.55873239      -2.17730379       0.02191616      -0.06270984
F       13.18753242      11.08689623       2.64598936       0.58484931      -0.69811749      -1.48096535      -0.32180116      -0.74033540       0.67392218      -0.01428387      -0.23082563
F       13.63336856       9.88153739       4.36820922       1.14839526       0.16946920      -1.85013739       1.02863431      -0.61776096       0.83330947      -0.00855764      -0.25401267
F       11.62415936      10.58150614       4.07730635       1.82697152       1.45630344      -0.31186452       0.58249289      -0.86833686      -0.19991007      -0.01176332      -0.22949298
C       11.94598040       7.66618459       3.31591553       0.58832892       0.12670347      -0.10120655       0.20444994      -1.00031817      -0.35275611       0.02353852      -0.08216017
F       12.80337651       7.38729925       4.30710631       0.16147563       0.16124569      -0.40039900       0.25505954       0.00785689      -0.50706643      -0.01015834      -0.25339362
F       12.00162748       6.67536090       2.39555954      -0.26986912       1.38468616      -0.63727829      -0.47323635      -0.69660932       0.62106752      -0.01065977      -0.24267338
F       10.74063778       7.65422133       3.91535328       0.49219040       0.03899785      -0.74126722       0.14973019       0.50742531      -0.89156026      -0.01202272      -0.26153359
H       14.16883109       8.86128008       1.95668422      -0.13029409       0.23815410      -0.24576508       1.74008524       0.19323264       0.58091134       0.01917704      -0.05942539
H       11.51526475       9.34986625       1.93222899       0.16420598      -0.17470826      -0.28713777      -0.47155789      -0.61297154       0.26149482       0.01302771      -0.04032212
O       10.80780682       4.47723952       0.65339579       0.14634724      -1.22605828       0.10217567      -0.65174598      -0.34950250       0.83206713      -0.02685187      -0.07655369
C       10.51386988       3.31740079       1.40909798       0.61711478       0.06617183      -0.77233270       0.74192923      -0.19135669      -1.41405308       0.01155858      -0.17847709
C        9.38043313       3.48418342       2.40796975      -0.09437525      -1.20765823      -0.28495780       0.03110162       1.00122535      -1.26956010       0.02355436      -0.12315380
F        8.38128668       4.03999035       1.66665137       0.35447009      -1.32960219       0.18127493      -0.13422123      -0.36251134       0.78391868      -0.01116325      -0.25031954
F        9.70049094       4.34446789       3.36365109       0.05124026      -1.70454688       0.84460802       0.00770564       0.37541515       0.69162035      -0.00920667      -0.28227407
F        8.95748245       2.35895390       2.95375161       0.65901305      -0.51991523      -1.06277469      -0.16231307      -0.18397531       0.01838671      -0.00648189      -0.26453796
C       11.83924187       2.72525372       1.95220241      -0.05384497      -1.01814097       0.34711958      -1.27019942       0.42947328      -0.21169583       0.02249963      -0.14585601
F       12.53853652       3.60400121       2.66878566      -0.50352346       0.49117539       1.22462619       0.26738831       0.52879083      -0.12363813      -0.00995461      -0.29014409
F       12.58902988       2.26276060       0.96194564       0.10582805      -0.43179816       0.19058195       0.25669169       0.10318244      -0.11134974      -0.00932962      -0.26854786
F       11.54690889       1.73281938       2.76225325      -0.30377482      -1.14694541       1.66435605      -0.03789453      -1.22782052       0.77414221      -0.00883596      -0.23567584
H       10.79123413       5.23343300       1.24327092      -0.18033824      -0.03070555      -0.09623276       0.19087958       0.43730658       0.14265905       0.02233826      -0.06175890
H       10.06653864       2.65282854       0.65856265       0.05630963      -0.23829129       0.15017589       0.47707233      -0.47772983       0.30135906       0.01350925      -0.01814775
O        8.81085201       7.09572881      11.85536714       0.15731778       0.70279000       0.71378464      -0.02411481       0.06355862      -0.98319316      -0.03006914      -0.05863513
C        8.54272518       8.40631978      12.22099994       0.16756904      -0.09997721       0.58759102       0.38860974      -0.01532948       0.24414000       0.00991028      -0.22709867
C        9.27315369       8.56011710      13.57452292       0.13706503      -0.24959869       0.20301800      -1.95211804       1.73158157      -0.65792966       0.02060175      -0.13218002
F       10.46331744       8.02727350      13.50328371      -0.30371753      -2.42176508       1.68473565       0.93486261      -0.35458645       0.32816452      -0.00993240      -0.25576252
F        8.59267698       7.99233592      14.57713478       0.27304694      -0.19591650       0.62055260       0.23092493      -0.12631930       0.19554144      -0.01076746      -0.30066559
F        9.37487593       9.88581219      13.84002442       0.85835417      -0.31864334       0.08662058       0.23550610      -0.35207877       0.41922241      -0.01431001      -0.25248799
C        7.02533308       8.71932481      12.21951393       0.30027759      -0.34861772       0.35663811       0.88965827       0.63964266       0.23491806       0.02276659      -0.12542608
F        6.40735333       7.82786130      12.96515043       0.39532701      -0.81489696       0.14546631      -0.47613150      -0.35929143       0.92841363      -0.00853968      -0.22934675
F        6.52431499       8.58868549      10.99952218       0.74887678      -0.10321976       0.68227990       0.03656226       0.37659585      -0.57494408      -0.01194904      -0.25946847
F        6.75172324       9.98446242      12.65922128       0.52595684      -1.17934202       0.43352019       0.20877074      -1.14928961      -0.19820993      -0.01213388      -0.26912016
H        8.13344099       6.50469342      12.17256047       0.00240959       0.32968115      -0.12526154      -0.41774744      -0.41477501       0.23649392       0.02367950      -0.04651331
H        9.02196701       9.08743752      11.50098194      -0.01354186       0.00451711       0.03131124      -0.11371736      -0.20347738       0.25894454       0.01096563      -0.05725408
O        3.75852951       1.24693789      11.94894491       0.07503196       0.29799318       0.05114136      -0.54301751      -1.05968654       0.25475329      -0.02225017      -0.06129420
C        2.54436954       1.60082354      11.34335395       0.08575316      -0.37806261      -0.85823529      -0.20344745       1.05853474      -0.78508151       0.01412584      -0.17876728
C        2.80293855       1.57370903       9.77337464      -0.73564957       0.44074555      -0.11760226      -0.45231977      -0.42406091       0.89816540       0.02212584      -0.11379579
F        3.37135038       0.37419993       9.51045912      -0.40265043       0.96470343      -0.56339844      -0.37603903       0.55701023      -0.00097775      -0.01240590      -0.19751424
F        3.65455294       2.48486687       9.36283411       0.05893509      -1.28375075      -0.06831328       0.73801088       0.63347775      -0.14230227      -0.00882166      -0.22715022
F        1.68340868       1.76556405       9.04435288       0.55063898      -0.10168784      -1.27326818       0.25059980      -0.55327719       0.41288894      -0.01320092      -0.26792735
C        2.19614422       3.07819296      11.88128139       0.09062567      -0.35228399       0.38850265      -0.58932942      -0.17731531      -0.83826596       0.02304953      -0.07389257
F        2.79448568       4.06556943      11.19825623      -0.41685796      -0.11417177      -0.02652910       0.47687846      -0.22335835      -0.50413275      -0.01137384      -0.23937832
F        2.60019861       3.23234005      13.12622937      -0.63503672      -0.22552434       0.17273157      -0.32115760      -0.53367990       0.51046592      -0.00805838      -0.23767859
F        0.86949367       3.38327013      11.77581198       0.39069091      -0.68300510       0.70527629       1.08670509      -1.02241528       0.40479332      -0.01363029      -0.20966528
H        3.79702319       0.26855235      12.09462257       0.01972186      -0.19696041      -0.36764468      -0.02649909       1.19108939      -0.28023931       0.02476339      -0.04223079
H        1.67449733       0.92382885      11.51940368      -0.11760841       0.02429837      -0.00198625       0.64792413       0.49870259       0.16137323       0.01354177      -0.06022587
O        2.34330002       7.03311241      10.96704748      -0.28500126      -0.58568173       0.94729569       0.51417691      -1.28971410      -0.01168178      -0.02918012      -0.11710209
C        1.96301720       7.41595261      12.22893471       0.86226418      -0.14890521      -0.20334152      -0.24400891       1.82840526       0.40691563       0.00870131      -0.20064621
C        2.70544387       8.76786354      12.48162747      -0.15686943       0.32875799      -0.23189771      -1.34447789      -0.16281189      -0.44097984       0.02135620      -0.11051717
F        2.49717905       9.63132129      11.46185798      -0.18631594       0.18551942      -0.48507989       0.56301534      -0.73082596       0.85636872      -0.01437186      -0.21835481
F        4.02028085       8.56390454      12.61240992      -0.45803811      -0.51641341       1.22209383      -0.52698022       0.40188453      -0.03529443      -0.00940714      -0.23957169
F        2.17490656       9.37517442      13.57086931      -0.96317816      -0.85509282       0.60366090       0.50607204      -0.04581486      -0.31505728      -0.00650825      -0.18826790
C        2.13115997       6.44649647      13.40312971      -0.44070869      -0.72237875       0.56384704      -1.20322359       0.46404627      -0.10026041       0.02371304      -0.09467831
F        3.32740125       5.92090769      13.40239184      -0.81171350       0.08573019       0.72921658       0.46134457      -1.20405936      -0.02455853      -0.00537508      -0.24147087
F        1.10300402       5.54277497      13.39325337      -0.30395577       0.72226325       0.72424639       1.42558634       0.33599731      -0.15955287      -0.01143221      -0.24182346
F        2.00443986       7.08776419      14.58538365      -0.43728923       0.04846588       0.74740368      -0.16942124      -0.16548391      -0.03881258      -0.00679430      -0.21594898
H        3.25347135       6.70287500      11.04368776      -0.01006239      -0.14877690       0.19348610      -0.10693684      -0.10452802      -0.35813299       0.02187693      -0.05176551
H        0.89728442       7.62015321      12.22608765      -0.27990124       0.05106243       0.02941400       0.01249665       0.24870957      -0.17386502       0.00968259      -0.02854721
O        4.08751550      14.50545783       6.91480953      -0.42722128       0.85214058      -0.12905061       0.22041668       0.19798975       0.25789949      -0.02509653      -0.06983986
C        4.57553304      13.27239340       6.49347817      -0.49423330       1.42860795      -0.89191785       0.64475083       0.95530963      -0.33481738       0.00763641      -0.21024865
C        6.10130634      13.26595426       6.82059610      -0.67120251       0.83240628       0.87427927      -0.36934015      -1.10924602      -0.69061375       0.02304938      -0.12320128
F        6.25136551      12.98110043       8.14068252      -0.42246782       1.65117273      -0.01999988      -0.15607977       0.73014390      -0.98048520      -0.01293566      -0.23233290
F        6.73998585      14.39695697       6.49556016       1.38853312       1.36577613       1.37446572      -0.29386851      -0.72990119       0.44365868      -0.00846595      -0.28595281
F        6.67554241      12.22440008       6.14414629      -0.96815102       1.74229455       0.57520376      -0.19897331       0.82104772       0.29001108      -0.01384361      -0.25718293
C        4.16773817      13.02065818       5.02726928       0.08060306       1.15206564      -0.04149317       0.94440979      -0.10067798       0.94631147       0.02253002      -0.11595459
F        4.87666359      13.81270248       4.24446850       0.26355741       1.28833965       0.49345447       0.56744611       0.38812244      -0.77495342      -0.00807484      -0.27095056
F        2.89875708      13.28764832       4.81179578       0.14524991       2.31524710       0.29356631      -1.34478819       1.00057101       0.09625760      -0.00844502      -0.19542837
F        4.29994295      11.75480455       4.67174589      -1.08715882       2.53673978      -0.14244541       0.90360469      -0.98397875       0.20449600      -0.01209511      -0.21710844
H        3.39739497      14.82087452       6.33194264       0.09438083       0.31399991       0.01248533      -0.33372599       0.00230386      -0.15015922       0.02529667      -0.04036494
H        4.19588616      12.46511502       7.06371439       0.04488913      -0.01085277       0.19671647      -0.44872975      -0.83079034       0.56458926       0.00921822      -0.02406007
O       11.68038900      12.92242773       8.75312115      -0.76974963       0.25840691      -1.20089080      -0.89334685      -0.62519950       0.46666753      -0.02847704       0.02261154
C       10.84594206      11.89950915       8.28352788      -0.28209242       0.49269222      -0.41072386       1.14439964      -0.18073025       0.66638243       0.00958111      -0.23150253
C       11.49535865      11.19190353       7.10119356      -0.28172668       0.83573719      -0.67032259      -1.14997280       1.39011896      -0.62451828       0.02065033      -0.10890534
F       12.51572408      10.41864390       7.43250635      -0.21003134       0.41616858      -1.45487717      -0.18857655       0.39088967      -0.74014324      -0.01067171      -0.17229040
F       11.95201720      12.17871618       6.25443004      -0.22237204       1.73591672       0.23482025      -0.07997397      -1.25856531       0.10528496      -0.01262557      -0.27211094
F       10.51079227      10.46342839       6.51538869       0.63147673       1.14664595      -1.36406994       1.22869766      -0.15874936      -0.10062861      -0.01323271      -0.22232306
C        9.46545080      12.45234759       7.90527657      -0.14854913      -0.17781378       0.36629048      -1.02260172      -0.83172905       0.02741852       0.02239166      -0.11686594
F        9.38668538      12.71515525       6.59129149      -0.96842029       0.50939563       0.27125721      -0.12824887      -0.03269902       0.13690963      -0.00975216      -0.21695362
F        9.15526535      13.56131933       8.52435082       0.43597210       0.99517742       0.22710379       0.44376317       1.19771779       0.47270903      -0.00974128      -0.20923507
F        8.47533102      11.59470001       8.26342317       0.23877934      -0.35181071       0.82016391       0.57598853      -0.49210674      -0.52136827      -0.01509113      -0.25398299
H       11.71945554      13.59304755       8.07988677       0.13937880      -0.04036663       0.10725117       0.16669600       0.65179181      -0.48892835       0.02517875      -0.03287709
H       10.82249926      11.09636052       9.04093437      -0.16785805       0.05759658      -0.13069513      -0.57268494       0.70464313       0.06095839       0.01008362      -0.04370394
O       14.11440622       8.68748879      10.50483838      -0.31377654      -0.75664319       0.89221365       0.00191025      -0.91489887       1.82499790      -0.02852439      -0.01443422
C       12.84989080       8.67986627      11.11948934      -0.69132801       0.02067069      -0.29154841       0.03058150       0.36705521      -0.70006359       0.01312670      -0.20475248
C       11.92246873       8.08531554      10.02907174       0.32956689      -0.09991812       0.18723230       0.55323869      -0.46753952      -1.28203213       0.02381626      -0.04344635
F       12.27098810       6.77265757       9.92440167      -1.00171786       0.61280930      -0.39824569      -0.66386843       1.18556964       0.00544316      -0.01096936      -0.21461219
F       12.24795389       8.62431108       8.80435400       0.26737667       0.24559715       0.58561043      -0.20119871      -0.43579400       1.05464995      -0.01258455      -0.20653757
F       10.60123354       8.21348289      10.09931733      -0.27254744       0.58718006      -0.16558883       0.39917329      -0.11205240       0.66621804      -0.00883045      -0.23181818
C       12.61313319      10.10133669      11.70035096       0.45286451      -0.89753591       0.06452446       0.43067181      -0.45382571      -0.73044741       0.02207535      -0.13996053
F       12.51335980      11.06291658      10.75459846      -0.21930852      -1.53599975       0.56569865      -0.42316651      -0.60068828       0.39817619      -0.01097276      -0.25135663
F       13.70036164      10.36778326      12.42497673      -0.45211916      -0.74245240       0.70090969      -0.27604884       0.20202366       0.39518461      -0.01146680      -0.23845488
F       11.54056114      10.14425108      12.47678746      -0.07264220      -0.53562563      -0.47509217      -0.16576821       0.28990459      -0.02885004      -0.00939238      -0.25962177
H       14.06933845       9.03498249       9.62944639       0.00068943       0.12745666       0.31457334      -0.19997557       0.48250863      -1.05424595       0.02236884      -0.03875346
H       12.84881125       7.99068344      11.98645409       0.04119245      -0.10456373      -0.02092488       0.02728888       0.25088564      -0.44542640       0.01390993      -0.04930356
O        1.96985758      12.29527858       6.95741364      -0.52359401       0.44237534      -0.68185881      -0.57592660      -0.73453182       0.89543021      -0.02131710      -0.10398524
C        2.05105311      11.53349152       8.13883892      -0.38084444       0.38833650      -0.68362994      -0.56877238       0.61653817       1.15000665       0.01374278      -0.15083379
C        2.10318950      10.01264878       7.87315537      -0.22826860       0.04821043      -0.04022165      -0.06587116       0.71123266      -0.06342640       0.02370340      -0.13770899
F        3.04850456       9.76004221       6.95894155      -0.68291369      -0.56136259      -0.80619567      -0.32905078      -0.03293447       0.15379493      -0.01022852      -0.27444193
F        0.92008124       9.56552480       7.39972017       0.68903981       0.18110913       0.13307188       0.10378416       0.04068874      -0.08735728      -0.01031616      -0.29590136
F        2.37043887       9.32402611       8.97491403       0.93467237       0.69407216      -0.65267550       0.11494409       0.01105854      -0.10679427      -0.00991543      -0.23538187
C        0.99077664      12.03390555       9.25246753       0.04127762      -0.01019725       0.55064580       0.53693795      -0.20605963      -0.39210898       0.02202656      -0.05334401
F       -0.20046370      12.17070392       8.71243703       0.00137143       0.21224629       1.02880300      -0.16938163      -0.49318010      -0.41119599      -0.01003162      -0.18843251
F        1.34654374      13.24947658       9.65060059       0.37003191       0.17076353       0.49455019       0.25016552       0.40207282       0.00132654      -0.01164591      -0.20082000
F        0.87505296      11.32558958      10.39612890      -0.36781346       0.19780736       0.10406032       0.60050529      -0.20401844      -1.18627667      -0.01245606      -0.20226768
H        1.13817929      12.10563630       6.51401809       0.07668851       0.08483415      -0.04949048      -0.30769512       0.01587555      -0.22276825       0.02544709      -0.04769818
H        2.97191306      11.86519542       8.58651792       0.08222576      -0.11520414      -0.24232307       0.69379944      -0.38568884       0.26871732       0.01388303      -0.01080108
O        8.95269551      11.45287386       4.21471135       0.84158741       1.04610326       0.34085519       0.04150894       0.01318045      -0.46823561      -0.02990386      -0.07935063
C        8.80468205      12.54822565       3.34741727      -0.15133056       0.30114012       0.36610635       0.45360681      -1.60558438      -0.58148593       0.01132473      -0.26582453
C        7.63181202      12.32151338       2.41177465       0.44206992       0.15689351       0.83347023       0.72907019       0.31330067      -0.05863152       0.02274020      -0.13885054
F        6.55284328      12.05877551       3.08318844       1.05776120      -0.09736692      -0.14746766      -0.87794936      -0.31190428       1.03309453      -0.00978447      -0.15345000
F        7.90789448      11.29252700       1.60773434       0.20346734       0.20925217       0.40088699      -0.18555307      -0.04596514      -0.28077275      -0.01205793      -0.25455981
F        7.35099108      13.43294907       1.70850154       0.20148479       0.24858556       0.00817103       0.10697313       0.25654122      -0.17119806      -0.00918667      -0.19625068
C       10.09000413      12.83452496       2.57162984      -0.12508058      -0.15225909      -0.52871748       0.36942121      -0.45251119      -0.51623994       0.02172030      -0.17118840
F       10.57174948      11.70537185       1.97103509      -0.37512748      -0.03857412      -0.26186337      -0.45267555       0.68124598       0.16531752      -0.01196691      -0.25086439
F       11.03704586      13.27109622       3.39765373       0.28837175       0.55065280      -1.56414101      -0.04058104       0.11948743      -0.11692356      -0.01067636      -0.25177535
F        9.89677359      13.74397753       1.59038516      -0.11546032      -0.42700174      -0.59236966       0.25837845      -0.20297717       0.55092716      -0.01057294      -0.25249451
H        9.14198461      10.65238361       3.69954568       0.17318492       0.07360040       0.02031256      -0.01135158       0.21467938       0.07222231       0.02400863      -0.04599443
H        8.58388907      13.37112984       3.94970767      -0.01155247       0.07085402      -0.03728035      -0.30342993       1.52824903       0.97694474       0.01451784      -0.03815194
O        6.76082904       3.52113679       8.96914817      -1.18722001      -0.93817622       0.76993716      -0.54249370       0.04669398       0.39264917      -0.02801809      -0.12361042
C        6.26356946       3.78464787      10.26177619       0.24187784      -1.18236322      -0.40128715       0.12146371       1.20916903      -0.66035819       0.01180610      -0.25022051
C        5.69201151       5.26167800      10.30906227      -0.25359672      -0.52301071       0.41531485       1.11797059      -0.67404622       0.40566942       0.02310353      -0.07855756
F        4.65957183       5.47988415       9.47057417      -1.49313238      -1.15006991       0.31591384       0.80930442      -0.19927062       0.08282459      -0.00938732      -0.27104530
F        6.75085488       6.05518500      10.00694852      -0.41662796      -0.35977626       0.79789341      -0.98490947       0.04451248      -0.02707930      -0.01128243      -0.20794336
F        5.24887607       5.64037202      11.52545302      -0.74445275      -1.32520182       0.03168520       0.14174999      -0.17469870      -0.25531793      -0.01016457      -0.26819524
C        7.38238141       3.56560929      11.29808652      -0.18718022      -0.81620803      -0.68034519      -1.63822126       0.25992015       0.33544952       0.02205688      -0.14175704
F        8.37536273       4.42053384      11.23857771      -0.42423579       0.50256455       0.61444919       0.97887313       0.63787776      -0.47446883      -0.00979628      -0.23216084
F        7.85217799       2.33965516      11.22928350       0.77842479      -0.79222590       0.04382790       0.39904687      -0.06340341      -0.27963769      -0.01025702      -0.21279570
F        6.83431369       3.74758523      12.51126446      -0.99123565      -1.92829287      -0.30651031      -0.22190981      -0.28077081       0.78575963      -0.01305691      -0.26773140
H        7.30262121       4.26979256       8.67610407      -0.02349822      -0.13633110       0.38429526      -0.03636001      -0.08448956       0.07968746       0.02341848      -0.05678561
H        5.44439422       3.13063189      10.52933128       0.12987887      -0.17790614       0.15756971       0.02442388      -0.43029076      -0.21323629       0.01140476      -0.06273945
O       10.56820354       3.18686352      10.27457124       0.36844808      -0.52380230       0.93133182       2.00559807      -1.00228775      -0.59431976      -0.02869288      -0.06446807
C       11.38512091       3.02655381      11.42490224      -0.51108307      -0.33059372       0.55743981      -1.08061707       1.13269472       1.06500995       0.00964284      -0.23702681
C       12.10624573       4.35594066      11.81254974       1.31390881      -0.98452331       0.46155494      -0.89160138      -0.58937997      -2.15733433       0.01884087      -0.16222633
F       11.24736419       5.36864019      11.79203501       0.56828517      -0.68377214       0.68687016      -0.67720151       0.23681368       0.36023030      -0.01486349      -0.25635940
F       13.05864133       4.68618568      10.91526802       0.81930339      -1.50784279      -0.50056651       0.14868817      -0.28897244       0.35707852      -0.01430484      -0.20094316
F       12.60962799       4.25259824      12.99600897       1.05213337      -1.11559934      -0.17903541       1.26144814      -0.03070180       1.27216530      -0.00906362      -0.19845749
C       12.33738886       1.84914097      11.37954588       0.93044864      -0.15239073      -0.16832504      -2.04184008      -1.63879812      -0.80407614       0.02235516      -0.08336139
F       13.25184347       2.01386053      10.43466013       1.34888170      -1.25319368       0.03882567       0.82862419      -0.24472772       0.47915730      -0.00895757      -0.22794366
F       11.60208985       0.76457766      10.96789242       2.84542450      -0.11408156      -0.84313891       0.38552132       0.46214473      -0.06336615      -0.01618565      -0.21575804
F       12.80109086       1.47409995      12.57177489       1.78865201      -0.10259574       0.39657449       0.82386905       0.72531492      -0.38918892      -0.00912135      -0.25682327
H       11.08848483       2.85289141       9.48811931      -0.00113801      -0.00230760      -0.03791136      -0.87140185       0.55026925       1.12358761       0.02281231      -0.05450587
H       10.70446391       2.82376433      12.28798831      -0.17650376      -0.03077545      -0.13856623       0.37497562       0.14013433      -0.62034118       0.01121711      -0.03935876
O        6.21492671       6.81318959       7.60138031      -0.00129304       0.77354392       0.43427772       0.13812520       0.44835278      -0.59347540      -0.02673370      -0.11704601
C        6.81962260       7.38832013       6.47332296      -0.32886072      -0.56261556      -0.01563653      -0.78988504       0.22156295      -0.12415996       0.01252016      -0.22008125
C        6.02734454       8.60719670       5.95295960       0.34115046      -0.05136806      -0.37859868      -0.22339371      -1.79532874       0.82023591       0.02212391      -0.13275807
F        5.86057274       9.47431793       6.95340846       1.16856322      -1.41874601      -0.08762053       0.19914269       0.33712378      -0.31926060      -0.01126643      -0.27819234
F        4.80187249       8.24991346       5.52479126      -0.88917640       1.14120109      -0.11880199      -0.02062923       0.00485928       0.18214978      -0.01089340      -0.25937152
F        6.68306861       9.12071326       4.94634509      -0.66555618       0.14068593       0.02190054       0.43156958       1.13094258      -0.71767211      -0.00888202      -0.25598639
C        7.09627969       6.26028092       5.47775775       0.00201016      -0.63013476      -0.14397299      -0.99883378      -0.35620224       0.03612617       0.02310628      -0.09596014
F        5.94061660       5.52336926       5.37048486      -1.05767784       0.18602177       0.04970023       0.68543684       0.50385445      -0.85346675      -0.00851977      -0.26225039
F        7.97369997       5.46684865       6.05236880      -1.88723024      -1.60175454      -0.65885979       0.68901110      -0.85189956       0.37479261      -0.00954081      -0.20976010
F        7.60170114       6.57346638       4.27569465      -1.29238208      -0.53568527       0.73478704      -0.83091199       0.15413718       0.39170554      -0.00967680      -0.26395017
H        5.36169191       6.47190866       7.30437384       0.05499042       0.06893975      -0.10764925      -0.12267390      -0.12589443       0.18261310       0.02635268      -0.03298783
H        7.78164851       7.75758257       6.74137463      -0.17826707       0.01334236       0.21781160       0.81236607       0.41745299       0.48032919       0.01312373      -0.03693334
192
Lattice="14.175561731108184 0.0 0.0 0.0 14.175561731108184 0.0 0.0 0.0 14.175561731108184" Properties=species:S:1:pos:R:3:momenta:R:3:forces:R:3:charge:R:1:energies:R:1 Built=T with=T Packmol=T charge=0 spin=1 external_field="_JSON [0.0, 0.0, 0.0]" energy=-18.111791610717773 stress="0.0007664038566872478 -0.0014846979174762964 0.0012071848614141345 -0.0014846979174762964 0.0005493182688951492 -0.0015416016103699803 0.0012071848614141345 -0.0015416016103699803 -0.003009132342413068" dipole="-0.5792101621627808 -1.0520442724227905 -0.5770359039306641" free_energy=-18.111791610717773 pbc="T T T"
O       13.25707819       5.82680790       6.88407993       0.11481677       0.41613068       0.01656460      -0.33209115      -0.34094763       0.47401497      -0.02584720      -0.14543420
C       12.45564370       4.69990543       6.74457034      -0.05868602      -0.36237359      -0.31017585      -0.24642985      -1.11506855      -0.91526502       0.01190656      -0.16036677
C       10.96522286       4.96173802       7.08168729       0.08890760      -0.19673368      -0.91173906       1.11181009      -0.14786993      -0.73721689       0.02192899      -0.14953636
F       10.55766596       6.02703903       6.37354171      -0.34045640      -0.32467864       0.38570868      -0.05391559      -0.27207306       0.11776035      -0.01242958      -0.26629871
F       10.80003186       5.24187903       8.36242550       0.35359687       0.22197509      -1.56321545      -0.43610206      -0.03203467       0.65594804      -0.00879009      -0.26965702
F       10.21720729       3.89442618       6.73984392       0.22611630      -0.32115035      -0.85197668       0.06805703       0.41441813       0.30258429      -0.01036766      -0.28243509
C       13.15669332       3.42780277       7.41478741       0.54703589       0.28882235       0.96426138      -0.73302323       0.83617854      -2.24919248       0.02321761      -0.08521417
F       13.61699765       3.67543488       8.60822360       0.43182012      -0.71620471       0.26962036       0.33408612       0.24379025       0.64810044      -0.00725649      -0.23025876
F       14.18551315       3.13780634       6.58535654      -0.46409564       0.10676011      -1.94437646      -0.14044471      -0.22122297       0.59540087      -0.01092202      -0.26156223
F       12.36622188       2.32473266       7.47245997       0.45992694       0.40285631      -0.35390577       0.12510036       0.45223498       0.10904344      -0.00916795      -0.30131742
H       13.23981678       6.05156607       7.82187130      -0.05860379      -0.03765680      -0.05324414       0.22872724       0.34923393       0.18136561       0.02273367      -0.05078680
H       12.41470094       4.46760467       5.66210474       0.06907289      -0.07126926      -0.05611878       0.20236024      -0.01344567       0.47516271       0.01393962      -0.02956054
O        1.98839670       9.11603600       2.17746481       0.03942650      -0.37114921       0.08042882       0.06129066       0.27874830       0.03670561      -0.02570430      -0.23162688
C        3.01696574      10.00397590       2.47348618      -0.10977774       0.88472491       0.25779562       0.30442393       0.46986741       0.77071583       0.01188447      -0.21318936
C        2.72384751      11.43844511       1.92702243       0.24511454       0.07482351       0.92841220       0.24964592      -0.53367758      -1.07115519       0.02229855      -0.13882014
F        1.45638090      11.70817595       2.21255789      -0.48333001      -0.27482096      -0.98400907       0.00198034       0.34999037       0.20048729      -0.01002946      -0.24681678
F        2.82556601      11.49451319       0.55879774       0.60146347       0.92556469       0.60438294       0.29236433       0.21839227       1.13772643      -0.01307114      -0.24638306
F        3.50279341      12.40036137       2.44546652       0.86456903      -0.04609448       0.05473319      -0.40928847      -0.53782123      -0.74960083      -0.00749634      -0.20443118
C        4.39452710       9.40895570       2.13217835      -0.28283949       0.42369923      -0.52080547      -0.82061869       0.92942476      -0.94091815       0.02196056      -0.14089465
F        4.35326565       8.81049174       0.93135909      -0.85504900       0.33185618      -0.21167353       0.24966034       0.12292144      -0.04621941      -0.01041333      -0.25536874
F        4.77305158       8.50187202       2.99295075       0.89728534       1.19741056       0.15455911       0.18887179      -0.61672056       0.66472095      -0.00811656      -0.23075324
F        5.29355158      10.39280523       2.10873825      -1.24318787      -0.14893620      -0.28964826       0.10423443      -0.35982618      -0.25656879      -0.01086628      -0.23603490
H        2.12180072       8.85678540       1.26315446       0.12366046      -0.11543386       0.14790591      -0.09173718      -0.36020306      -0.39894941       0.02156268      -0.02662894
H        3.04333415      10.10862651       3.54979665       0.12960931      -0.01840371       0.09692115      -0.11863039       0.18932822       0.39361855       0.01169774      -0.03470403
O        7.43511991      12.68549969      13.53146973      -0.06815088       0.21360830      -0.00387444       0.06365129      -0.75271654       0.43558297      -0.03030897      -0.08414453
C        7.89171357      12.82065664      12.24128355      -0.13342981       0.80300224      -0.07036460      -1.19412935       0.97813004       0.43884575       0.01045654      -0.22875696
C        9.31628501      13.37712371      12.22049204      -0.76157227       0.29542905      -0.54610824      -0.03690124      -0.87312132      -1.13051212       0.02110692      -0.15042876
F       10.05534304      12.84213822      13.17572153      -0.72431706       0.50104651      -0.48060263       0.08624357      -0.17782278       0.50279641      -0.01155031      -0.25845540
F        9.38436200      14.68839705      12.31821544       0.21687754       0.58250447      -0.97316526      -0.09320675       0.87839705       0.34940115      -0.00945941      -0.26547730
F        9.87853817      13.01412681      11.05273183      -0.77611327       0.43168486       0.48600545       0.10235672       0.02182699      -0.20643693      -0.01429028      -0.23026183
C        6.79897740      13.66166525      11.53721181      -0.59593113       0.77848643      -0.52964030       0.57327712      -0.06795792      -0.49626714       0.02320162      -0.11475520
F        6.44624501      14.74320797      12.24671011      -1.53536366      -0.13788264       0.94521910      -0.02024117      -0.25456506       0.41195774      -0.00851952      -0.22632638
F        5.65975906      12.92142664      11.40560013       0.17876334       1.15187441      -0.79852583       0.73279184       0.35085911      -0.25806874      -0.01284724      -0.30138975
F        7.22449421      14.09920579      10.35630359      -0.11501853       0.73153564       0.67307165      -0.44290784      -0.29465601      -0.18686575      -0.01102008      -0.23113626
H        7.15546676      13.54034964      13.86527272      -0.18494611      -0.09812862       0.00449059      -0.01318008       0.17175765       0.21594219       0.02594280      -0.01028869
H        7.91208650      11.86034668      11.76073778      -0.14773462      -0.03140456      -0.04977718       0.05345148      -0.51566839      -0.18058102       0.01118984      -0.05080324
O       13.40559824       8.72164330       1.53902276       0.31321436       0.16519525       0.38158925       2.13001752       0.38587576       0.96558708      -0.03496716      -0.08187501
C       12.40125324       8.97804631       2.45302676       0.77215466       1.66328162      -0.73917095      -0.35446492      -0.00814850       1.78775752       0.01043799      -0.19958296
C       12.77560735      10.14687614       3.42176336      -0.26983213       1.02317092      -1.60010097      -0.55048287       0.62664711      -1.05333495       0.02140958      -0.09918302
F       13.24755469      11.10560422       2.62076748       0.49152721      -0.76728846      -1.23304503       0.02676154       0.52959305       0.10966534      -0.01162187      -0.22156222
F       13.71600327       9.91679227       4.34016441       1.44496881      -0.12495865      -1.58337738       0.12341663      -0.50965071      -0.09274123      -0.01167017      -0.27359563
F       11.71483130      10.65084571       4.08243094       1.97326985       1.03886313      -0.39944881       0.12884514      -0.65307301      -0.18629505      -0.01035631      -0.23884174
C       12.01283823       7.69380884       3.31741020       0.60131883       0.04551633      -0.43284083      -0.03798635       0.66858554      -0.80005199       0.02264678      -0.06333262
F       12.85464258       7.41731409       4.30901897       0.32825224       0.13313591      -0.61321584       0.42365107      -0.14670168      -0.40562457      -0.00963480      -0.25630563
F       12.03459124       6.72913530       2.39109168      -0.42502555       0.92562279      -0.38445211      -0.18323094      -1.01727378       0.32809871      -0.01043162      -0.25161761
F       10.79219628       7.68554015       3.90481295       0.57165022       0.29982890      -1.12404850       0.21394995       0.55857205      -0.74994808      -0.01369942      -0.26694143
H       14.31409568       9.02268921       1.90028428       0.13086608       0.19456977      -0.15862776      -1.69522238      -0.70464748      -0.57331389       0.02010137      -0.08209459
H       11.54498896       9.26538029       1.82992859      -0.18901684      -0.25068567      -0.12517498      -0.24145035       0.07308866       0.68579292       0.01225199      -0.04475078
O       10.84611954       4.45581283       0.66307089      -0.10610984      -1.07575005       0.31399187      -0.35086274       0.84251159      -0.03396416      -0.02418503      -0.08120456
C       10.58011505       3.32379398       1.37695482       0.72672802      -0.45829416      -0.82656844      -0.23155083      -1.80074620       1.08401477       0.01154355      -0.19589335
C        9.41431110       3.46237667       2.39347794       0.22061589      -0.38948274      -0.78040712       1.05278683       1.80399990      -0.60708511       0.02310251      -0.11031555
F        8.41856183       4.01828692       1.68155180       0.22526670      -1.42189941       0.48692082      -0.35762310      -0.08949248       0.44862977      -0.00995656      -0.26122621
F        9.73561284       4.31735309       3.39956210       0.01007805      -1.61094478       0.93232034      -0.13416655      -0.10537137      -0.27361739      -0.01220686      -0.29073077
F        9.00424355       2.35057016       2.93766109       0.50199034      -0.82692973      -0.97276882      -0.31658554      -0.88015479       0.13648592      -0.00613148      -0.25266147
C       11.86887934       2.70166003       1.97382994      -0.44155574      -0.53794987       0.44215849      -0.16643110       1.21613026       0.61470276       0.02253527      -0.15222871
F       12.57010515       3.62976193       2.70716302      -0.52185097       0.41453137       0.95714274      -0.36152893      -0.71002680      -0.79653668      -0.01233145      -0.28703195
F       12.63733761       2.26006386       0.97106808       0.17550314      -0.39658198       0.31767538      -0.03005172       0.04781349       0.68480527      -0.00940977      -0.26096424
F       11.58026976       1.70405485       2.81721356      -0.23552430      -1.44521993       1.73195309       0.27401009      -0.04310616      -0.36622617      -0.00912695      -0.24982430
H       10.76325212       5.26004044       1.20855682      -0.09144034      -0.02603321      -0.09759407       0.16442756      -0.43549773      -0.12238900       0.02439076      -0.05799259
H       10.18174005       2.51868275       0.74114451       0.24879394      -0.28654768       0.11864989       0.23099826       0.27345997      -0.39656651       0.01290292      -0.02296493
O        8.84841574       7.14298149      11.91053924       0.07954891       0.55403829       0.23327298      -1.65458798      -1.66147399      -0.37884232      -0.03058450      -0.05692311
C        8.58325065       8.43355059      12.28948116       0.30858811      -0.00124850       0.64828903       0.04784051       0.20992957       0.11857738       0.00977468      -0.24618720
C        9.29547239       8.59509898      13.62713215      -0.51227362       0.38850789       0.12141184      -0.45672256       0.61418742       0.41887486       0.02132029      -0.14991719
F       10.49662883       7.99290000      13.59547048      -0.06089092      -2.33873956       1.73341467      -0.10884871       0.55402011       0.01109951      -0.01230990      -0.26901856
F        8.63101079       8.01537066      14.64508994       0.33119222      -0.16783519       0.63722257       0.01269507       0.25302973      -0.08644164      -0.01120020      -0.29117340
F        9.43142727       9.90970343      13.89354007       0.95541435      -0.53424419       0.27668742       0.21346107      -0.46826491       0.37833247      -0.01302104      -0.24898732
C        7.07020356       8.74120893      12.27949091       0.63899344      -0.13074850       0.46448418       0.39195934       0.07325430       0.17512482       0.02337267      -0.13072227
F        6.43739859       7.83264010      13.01993125       0.20674361      -0.91972025       0.52658582      -0.18376701      -0.06350110       0.57513583      -0.00887711      -0.24063277
F        6.56689395       8.61842143      11.05219030       0.77780281       0.05269985       0.40955959       0.20335540       0.25711262      -0.38196483      -0.01253604      -0.26243141
F        6.79013504       9.98323118      12.71415810       0.59527503      -1.57815371       0.38846475       0.11486802      -0.52484906       0.08686428      -0.01077240      -0.27134475
H        8.07751905       6.58455230      12.19507636      -0.16328823       0.01548263      -0.03685152       1.17931819       0.37494200      -0.41684809       0.02412194      -0.02951770
H        9.04225630       9.11101279      11.58048500      -0.00279047       0.00624645       0.09160472       0.21176852       0.27668691      -0.11628409       0.01107465      -0.05193476
O        3.76829085       1.25184925      11.99248029      -0.36061119      -0.03866367      -0.03297821      -1.24084699       1.15239036      -0.53820914      -0.02358785      -0.10250182
C        2.55421853       1.60510135      11.34586877       0.01490542       0.41981130      -0.84845223       0.37685519       2.28967881       0.66955650       0.01455469      -0.18220502
C        2.78243451       1.59098760       9.80960114      -0.64236418       0.11321040       0.12524931       0.79169458      -0.66755986      -0.03953961       0.02240521      -0.11581646
F        3.37032159       0.40248338       9.52988488      -0.59911793       1.06358739      -0.50673800      -0.44527030      -0.08861527       0.20036431      -0.01356140      -0.18011074
F        3.67356106       2.46625588       9.39335861       0.39742350      -0.78772184      -0.10713100       0.55427551       1.15885997       0.02305993      -0.00995163      -0.21476819
F        1.70377533       1.76624123       9.04625348       0.51908844      -0.30424856      -1.03574494      -0.28667071      -0.29627693       0.47061825      -0.01146822      -0.26648182
C        2.20257438       3.07387233      11.92844233      -0.11358210      -0.35703482      -0.15151648      -0.11584966       0.18747427      -1.11823320       0.02320723      -0.06876209
F        2.79645863       4.07497927      11.23455453      -0.20190836      -0.28654726      -0.18877553       0.35544735      -0.48278138      -0.17617099      -0.01241526      -0.24630783
F        2.59159604       3.23434375      13.17995365      -0.71926813      -0.50975630       0.37900595      -0.11521804      -0.67318189       0.20930190      -0.00795043      -0.24480967
F        0.88860473       3.37137642      11.83770421       0.80497209      -1.14544748       0.85670979       0.58013123      -0.91887629       0.24598826      -0.01266255      -0.20870490
H        3.82952332       0.31225652      11.93932354       0.09458848       0.12634050      -0.40999178       0.39204922      -1.25538945       0.00615451       0.02328431      -0.04006635
H        1.70092004       0.98274495      11.57282003       0.12438087       0.12074267       0.05559263      -0.17251869      -0.40644330       0.15966868       0.01423194      -0.05837394
O        2.34915314       7.02947139      11.03312226       0.11316283      -1.24675713       0.80189488       0.41746202      -1.15008390      -0.41959164      -0.02909916      -0.13665804
C        1.98740334       7.45554335      12.27199231      -0.12942865       0.75742418       0.26242847      -1.72377360       1.27239454       1.13181603       0.00754547      -0.17391139
C        2.69639134       8.80844950      12.51444375      -0.68764016       0.10840603      -0.24205773      -0.61560786      -0.60753191       0.40140042       0.02146907      -0.12568918
F        2.50492645       9.66541757      11.49581958       0.10375391      -0.16433373      -0.00022927       0.55752718      -0.64788508       1.00342691      -0.01277617      -0.22806895
F        4.01904164       8.58416335      12.68729438      -0.75301782      -0.22517397       1.10449128      -0.79617786       0.69728035      -0.33458701      -0.01105176      -0.23737034
F        2.16134581       9.38625840      13.63076699      -0.67285300      -0.82892157       0.28651279       0.54525346       0.08202431      -0.84896159      -0.00775612      -0.19766223
C        2.11106183       6.45137974      13.47066661      -0.80643705      -0.00893554       0.40234594      -0.02663221       2.14529610      -0.40956819       0.02389610      -0.07617357
F        3.32162904       5.93556504      13.46838363      -0.55878549      -0.56814638       0.72443537       0.23835187      -1.27239871       0.02251215      -0.00654133      -0.25074971
F        1.10677302       5.58129827      13.45795872       0.22956258       0.68188852       0.62408622       0.66501856      -0.40992609      -0.21832031      -0.00839986      -0.24611700
F        1.99921435       7.11236966      14.65520728      -0.51252889      -0.09214910       0.66513740      -0.18675841      -0.35797846      -0.17757171      -0.00751941      -0.22004579
H        3.23070676       6.64821212      11.12042896      -0.09520901      -0.18291411      -0.03891226       0.22707315      -0.21284446      -0.37493479       0.02156774      -0.05057449
H        0.90250046       7.67326868      12.26531789       0.33653245       0.04039746      -0.04298406       0.61887771       0.05492190      -0.15381743       0.00916250      -0.02147685
O        4.08913522      14.58578250       6.93666533      -0.45847398       1.10783941      -0.06053988      -0.29165018       0.84392774       0.07611013      -0.02430126      -0.03610285
C        4.57593076      13.37624003       6.48944960      -0.29215892       1.19586525      -0.19909402       0.45346218      -0.90426171       2.23262930       0.00793157      -0.16941988
C        6.09543241      13.33922856       6.86870436      -0.58502925       0.56560569       0.21726510       0.59233534       0.11838683      -1.71228433       0.02281060      -0.12220155
F        6.26110392      13.07316963       8.16411991      -0.54365253       1.89903812      -0.32320066      -0.37698013       0.41161340      -0.25899577      -0.01145061      -0.23989248
F        6.79595694      14.47687680       6.55667691       1.04651822       0.85374083       1.57711708      -0.94416714      -1.16782951       0.44670904      -0.01177824      -0.28177094
F        6.67283089      12.31672940       6.18240959      -1.05773599       2.02783088       0.70055607      -0.21025348       0.42885122       0.20445521      -0.01348413      -0.26048058
C        4.19160763      13.11250478       5.05153849       0.27345079       1.10687022       0.30279376      -0.15559700       0.08025302       0.27207947       0.02266855      -0.12691952
F        4.90446653      13.89715187       4.26673129       0.55512397       1.47387224       0.07048434       0.55956191       0.38656938      -0.79584330      -0.00770926      -0.26910946
F        2.90503472      13.40010406       4.83683766      -0.38757000       2.74177251       0.33458725      -0.64394379       0.88892579       0.13643740      -0.00987931      -0.20893282
F        4.29333694      11.85409514       4.68583340      -0.58503176       1.91989781      -0.03496605       1.01066542      -1.15236723       0.27559870      -0.01126165      -0.20604420
H        3.43875866      15.00389853       6.35102022       0.08290878       0.17440379       0.00322141       0.19872090      -0.48077866       0.06427985       0.02625000      -0.04548260
H        4.22124153      12.52085446       7.14474064       0.04282595       0.20622239      -0.10911512       0.03876389       0.83301425      -1.04477715       0.00955995      -0.00170897
O       11.69322946      12.97158375       8.75364488      -0.97589165       0.18012969      -0.84507300       0.17417654       1.23991716       0.08669195      -0.02799723       0.05960541
C       10.88173533      11.96193595       8.29815763       0.06519036       0.55503780      -0.39250262      -0.01878397       0.24267928      -0.29941159       0.00976472      -0.27729613
C       11.51578383      11.27596051       7.09472933      -0.61288624       1.23816216      -0.80288763      -0.15398949       0.16313355       0.12114131       0.02099632      -0.13173932
F       12.55224673      10.46953664       7.41688804      -0.41157608       0.72012794      -1.76402635      -0.63644487       0.88804573      -0.64615017      -0.01316331      -0.20000398
F       11.98789076      12.25846192       6.28269442      -0.26048712       1.13524193       0.22228671      -0.09953450      -0.95613664      -0.18329661      -0.01089509      -0.27412292
F       10.57085731      10.52882066       6.50241473       1.10182942       1.06441568      -1.42576295       0.70224363      -0.06140048      -0.29606029      -0.01207267      -0.23042086
C        9.48263441      12.48610061       7.94619492      -0.60693157      -0.17821875       0.22636028      -0.64874035       0.80211878      -0.51899540       0.02210332      -0.13044007
F        9.39392989      12.77221974       6.62332208      -1.03749076       0.41811771       0.44040160      -0.27897927      -0.27297938       0.51805282      -0.01068835      -0.21674858
F        9.20133183      13.63942863       8.56242756       0.61873794       1.23681045       0.36278184       0.30708647      -0.10452468       0.10617653      -0.01194946      -0.23170435
F        8.51483811      11.62418168       8.31039230       0.49220420      -0.49878103       0.56702469       0.42081141      -0.16907434      -0.43126526      -0.01317101      -0.26920840
H       11.83542717      13.69071876       8.08753389       0.11730004       0.05437968      -0.05619072      -0.37001917      -1.05904436       0.60957485       0.02625490      -0.03824474
H       10.73705875      11.20667397       9.05524185      -0.27517866       0.15735959       0.10838202       0.18780561      -0.08286893       0.53938979       0.01049087      -0.05150729
O       14.15428991       8.68940122      10.57943313      -0.33112867      -0.94418294       1.19765372      -0.03636703       0.63180929      -1.42657304      -0.02824349      -0.02168068
C       12.87105465       8.71121350      11.14376619      -0.41871974      -0.03298200      -0.39801113       0.83698916      -0.27545774      -0.18941917       0.01277948      -0.19464436
C       11.97829054       8.10771765      10.05816004       0.23091389      -0.11712127      -0.48055774      -0.80986452       0.48323274      -1.17335331       0.02369385      -0.08733338
F       12.28509891       6.81794117       9.94950595      -1.21398317       0.95487612      -0.35606916      -0.28501266       0.16187902       0.08985660      -0.00904290      -0.22073922
F       12.29698731       8.65865151       8.85631226       0.20020776       0.08261202       0.97990406      -0.04031663      -0.16545878       0.45472929      -0.01170276      -0.21832003
F       10.63539923       8.25665585      10.13489641       0.06388333       0.50971409       0.16172228       0.85230774      -0.14064969       0.63369304      -0.01135220      -0.24478632
C       12.67578413      10.09884082      11.73898953       0.33010841      -0.89234409      -0.12934449      -0.83285320       0.36830744      -0.01138482       0.02222088      -0.16298743
F       12.54981167      11.05934054      10.80858842      -0.34261040      -1.71933314       0.63742726      -0.10126972      -0.25007814      -0.08109573      -0.01108800      -0.25511676
F       13.73567641      10.38609074      12.48880796      -0.53594516      -0.68361226       0.82830719      -0.14065044      -0.03279760       0.16558583      -0.01079468      -0.25170657
F       11.57891730      10.16739301      12.50828907      -0.08027490      -0.46541448      -0.49168428       0.12004760      -0.05379589      -0.08724149      -0.01133942      -0.26338017
H       14.10944763       9.17841760       9.70678732      -0.00009377       0.18843085       0.14553419       0.23096192      -0.79019463       1.34823954       0.02339143      -0.02974492
H       12.90152135       8.00684492      11.96883978      -0.03823273       0.02183976      -0.15633381      -0.29844609      -0.10204192       0.29735449       0.01410987      -0.03398381
O        1.95774621      12.34712888       6.96873963      -0.78503207       0.11506436      -0.21666627      -1.15319061      -0.66047984       0.56396925      -0.02153336      -0.08382524
C        2.04105481      11.59363566       8.15172008      -0.32962304       0.50155950      -0.08118992       0.82975399      -0.16523917       1.18227005       0.01389836      -0.14061770
C        2.10181824      10.05773501       7.89623554      -0.17817800       0.43119819      -0.22873501       0.19321658       0.72198516      -0.57076424       0.02348075      -0.13881750
F        3.03957529       9.78053775       6.96431834      -0.83747755      -0.48015187      -0.65336345      -0.35322493       0.33916718       0.37275842      -0.01186360      -0.27771330
F        0.94010278       9.60346333       7.42854668       0.55036205       0.12460338       0.07718134      -0.56850314      -0.21595849      -0.11987661      -0.00935596      -0.29047102
F        2.40331161       9.37466945       8.98990888       0.95110517       0.68419180      -0.60951957       0.02527192       0.06461342       0.14841753      -0.01005966      -0.24182117
C        1.00166139      12.07615781       9.30127152       0.31528557       0.06266967       0.20039053       0.48967129       0.49569821      -0.89004642       0.02265853      -0.03731168
F       -0.20189813      12.21599638       8.76699465      -0.03681189      -0.02066172       0.81910140       0.07468508      -0.43911657      -0.35562328      -0.01072507      -0.20191550
F        1.36211369      13.30227791       9.69729607       0.45441761       0.26808609       0.48381352       0.11912610      -0.00195474      -0.02227391      -0.01254924      -0.20872256
F        0.87274706      11.36881716      10.42867613      -0.03880993       0.04334672      -0.38963267       0.72744858      -0.39914915      -0.85570556      -0.01064798      -0.20241085
H        1.12293529      12.18201897       6.48292151      -0.07107670       0.05736393      -0.10397862       0.42336243       0.00273030       0.43636274       0.02600527      -0.05135424
H        3.06049089      11.81695746       8.53503522       0.10789507      -0.22781868      -0.10646594      -0.68449098      -0.03232320       0.17513740       0.01314153      -0.00847644
O        9.00983163      11.52499815       4.23712789       0.80509920       1.04385113       0.19416523      -0.14160179       0.18771988      -0.01449591      -0.02865885      -0.09428804
C        8.83528233      12.59833071       3.37275423       0.14278027       0.27822747       0.42882391       0.70661259       1.43730104       0.69707870       0.01200457      -0.24965687
C        7.68164393      12.37418018       2.44812539       0.59853228       0.28310168       0.42418562      -0.19673745       0.16947071      -1.28870666       0.02278619      -0.14665833
F        6.59648852      12.09672084       3.09758284       0.52111883      -0.24758133       0.42989869      -1.00414085      -0.25367686       1.17432415      -0.00961385      -0.16091432
F        7.94018212      11.33816460       1.62267233       0.15333804       0.27270198       0.34406044      -0.00770952       0.31685576       0.06489109      -0.01295318      -0.25442716
F        7.38331630      13.48714129       1.71487892       0.31629488       0.23888767       0.06567935       0.36524671      -0.25410354       0.38140884      -0.01104434      -0.20135617
C       10.12379140      12.87093752       2.55628305       0.02364317      -0.22272912      -0.60053151       0.18853956       0.19453795       0.21823682       0.02165409      -0.16699180
F       10.59667989      11.74931207       1.97215320      -0.56279086       0.21378256      -0.19922618      -0.31339851       0.29085758       0.03542059      -0.01030219      -0.25542313
F       11.08273946      13.33220573       3.36879308       0.22878068       0.53736881      -1.58809632      -0.14316215      -0.12348348      -0.11391980      -0.01162359      -0.25147003
F        9.93002302      13.78024859       1.58381702      -0.02173158      -0.50608966      -0.36961901       0.11192859      -0.14723255       0.28820804      -0.01069714      -0.25167471
H        9.25642614      10.74523849       3.72986106       0.17241785       0.10943381       0.03033585       0.06530800      -0.19482510      -0.10544101       0.02442761      -0.04235583
H        8.60120635      13.52953156       3.99326833       0.02739271       0.11800470      -0.01362705       0.40943089      -1.22491145      -0.77527040       0.01426035      -0.04632441
O        6.74424509       3.50342875       9.02548286      -1.33358195      -0.94914457       0.72782831       0.63072896       0.74093926      -0.84582770      -0.02623472      -0.15060166
C        6.29171889       3.76060837      10.28177693      -0.05918035      -0.69837538      -0.22282860      -1.17110753       0.63378060       1.25661540       0.01226504      -0.22682713
C        5.71001039       5.25192141      10.36383194       0.06751542      -0.85028791       0.43204426       0.11479201      -0.60026920      -0.22843556       0.02364261      -0.04554022
F        4.64478165       5.46824752       9.51363634      -0.84967295      -1.24870109       0.46890081       1.62887490      -0.32234722       0.51870459      -0.01146011      -0.26181144
F        6.75718027       6.06686469      10.06241425      -0.94281572      -0.41211102       0.75988622      -1.15129936      -0.28356501      -0.06104549      -0.01027587      -0.20921889
F        5.24939439       5.62516891      11.56562141      -0.63313291      -1.38660436      -0.05069572       0.26229286      -0.22441074      -0.08263963      -0.00932332      -0.25924590
C        7.38935832       3.55013301      11.31838475      -0.60227860      -0.51075163      -0.17221955      -0.01183600       0.76642233       1.54193747       0.02229794      -0.13819931
F        8.39782824       4.45078680      11.29093050      -0.21856771       0.54255601       0.37466561      -0.19350587      -0.41056120      -0.43610397      -0.01161997      -0.24724734
F        7.90196194       2.32819744      11.26785497       0.90536509      -0.67649662      -0.13067774       0.12056606       0.56071305      -0.41316175      -0.01017116      -0.21685648
F        6.83218389       3.70957269      12.55038046      -1.00977158      -2.02395272      -0.15056913       0.04549393      -0.26506209      -0.09361468      -0.01362587      -0.26255801
H        7.35833505       4.24715545       8.85292077       0.13389273      -0.07303978       0.16610261      -0.11069421      -0.60228235      -0.57202876       0.02458042      -0.01839518
H        5.53120735       3.03388717      10.60310467       0.14729975      -0.19636671      -0.02684191      -0.03558422       0.30927750      -0.42755046       0.01121377      -0.04834188
O       10.62726393       3.17738815      10.33734233       0.81478947      -0.67984285       1.01720025      -0.36781296       0.40718141       1.32915592      -0.02843997      -0.04947961
C       11.40214624       3.03279158      11.49214277      -0.39952704       0.03934204       0.58746111       1.34323514       0.20689808      -0.79756671       0.01078031      -0.27842262
C       12.18715332       4.32954706      11.85134847       0.46290750      -0.95188150      -0.51780935      -2.01314116       0.61139083      -1.24527097       0.01951932      -0.15144917
F       11.29968460       5.36978502      11.85320047       0.49699472      -0.75072978       0.81270048       0.34244677      -0.51850492       0.18071824      -0.01721695      -0.26144305
F       13.12595833       4.66211737      10.94368038       0.79746183      -1.63035575      -0.26063416      -0.19794093      -0.35465384       0.53604025      -0.01278135      -0.21482490
F       12.68943195       4.23876333      13.04545787       1.66511226      -1.11022181       0.40818280       1.11874199      -0.04294646       0.66683847      -0.00859963      -0.20703903
C       12.39825278       1.83440346      11.40810629      -0.02775822      -0.81659236      -0.30766866      -1.43054760      -0.83968341       0.23220894       0.02183515      -0.09321047
F       13.33813454       1.98859706      10.47555806       1.68546595      -1.19945704       0.28971880       0.56239098       0.30661139       0.59640664      -0.00995322      -0.22573203
F       11.71697245       0.76596177      10.98481049       2.80361409      -0.05452630      -0.82907394      -0.40092486      -0.35888273      -0.00854790      -0.01351466      -0.21584836
F       12.89626409       1.48143080      12.62236584       2.03186394       0.26786726       0.03651704       0.28687066       0.74033201      -1.04091346      -0.01109133      -0.26808107
H       11.07729563       2.89641494       9.56960225      -0.01186301       0.02657257      -0.03773483       0.98982030      -0.51356006      -1.41508389       0.02194229      -0.05604390
H       10.68498330       2.82591412      12.25686783      -0.11401186      -0.02224095      -0.01901600      -0.11993034      -0.06555609       0.94328302       0.01161349      -0.04224471
O        6.23550882       6.86273711       7.63597908      -0.16442146       0.83723732       0.05817528      -0.76083970      -0.12128788      -0.76834863      -0.02718745      -0.13385984
C        6.82814273       7.39656752       6.49564762      -0.22602042      -0.23140849       0.05327362       1.30178738       0.98400760       0.49117059       0.01221975      -0.19496876
C        6.05700403       8.61705177       5.96669486       0.01598225      -0.89894425      -0.01004775      -0.89415765      -1.25389791       0.41373622       0.02224365      -0.15103598
F        5.91231626       9.47413823       6.97426949       1.22749400      -1.15975739      -0.17286779       0.14295132       0.49889156      -0.07772865      -0.01176912      -0.27034351
F        4.79728935       8.30812026       5.54265647      -0.71968099       1.09821217       0.00759911       0.60428715      -0.12388071       0.33494672      -0.01213383      -0.25487462
F        6.69282223       9.16332764       4.95943964      -0.39901373       0.63311148      -0.33750735       0.44855925       0.72548318      -0.51429731      -0.00908324      -0.26374739
C        7.10914167       6.25558704       5.49461885      -0.61520574      -0.62555071       0.09333899      -1.28159320       0.23399624       0.85286933       0.02361640      -0.09786037
F        5.93837232       5.55057180       5.38534505      -0.75553153       0.39921477      -0.35638622       0.40794450       0.36350706      -0.78550613      -0.00853318      -0.26614842
F        7.95896887       5.43898570       6.05964888      -1.39591787      -2.04561895      -0.41666913       0.98257685      -0.97698981       0.48681948      -0.00917737      -0.21798664
F        7.59107626       6.58414562       4.31043006      -1.56047698      -0.41892843       0.72882175      -0.42134869       0.26257211      -0.26538622      -0.00809811      -0.26603749
H        5.38878387       6.50700876       7.31868699      -0.00865490      -0.01838325       0.09234408      -0.02689453      -0.14706606       0.53643948       0.02612791      -0.02414627
H        7.79117350       7.81931922       6.88405720      -0.03096170       0.05155569       0.15383263      -0.49551725      -0.36409134      -0.78772914       0.01294863      -0.02687401
192
Lattice="14.234656241834719 0.0 0.0 0.0 14.234656241834719 0.0 0.0 0.0 14.234656241834719" Properties=species:S:1:pos:R:3:momenta:R:3:forces:R:3:charge:R:1:energies:R:1 Built=T with=T Packmol=T charge=0 spin=1 external_field="_JSON [0.0, 0.0, 0.0]" energy=-18.093000411987305 stress="0.0006842581206001341 -0.00399211049079895 6.743977678524971e-07 -0.00399211049079895 0.0006840587011538446 0.00036204661591909826 6.743977678524971e-07 0.00036204661591909826 -0.000549806805793196" dipole="-0.8399262428283691 -0.9106857180595398 -1.1005229949951172" free_energy=-18.093000411987305 pbc="T T T"
O       13.31193748       5.85910471       6.91537324      -0.17506324       0.06968274       0.17620998      -0.74817097      -0.81709892       0.59228766      -0.02649068      -0.11172336
C       12.50608388       4.69735898       6.75385315       0.06744563      -0.60310827      -0.47335289       0.71500295       0.22305410       0.56788361       0.01341653      -0.18238670
C       11.02445443       4.97285620       7.06953470       0.51805417      -0.27075355      -1.04139581       0.50057656      -0.15623531       0.21893655       0.02239344      -0.15442796
F       10.59269785       6.04253038       6.40935615      -0.34413752      -0.40571530       0.27554680       0.05251740      -0.11466962      -0.51881796      -0.01153649      -0.25733548
F       10.85175011       5.26853267       8.36152419       0.18800849       0.11929406      -1.21189629      -0.15171908      -0.38972342       0.52151096      -0.01046963      -0.26988596
F       10.26616802       3.90513760       6.74789171       0.27405173      -0.10394727      -0.70445015       0.17255564       0.44082487       0.20965879      -0.01054400      -0.28205413
C       13.22509596       3.45974727       7.45675239       0.11054385       0.50512454      -0.46776197      -0.80210137       0.02736938      -2.82081699       0.02404606      -0.05339777
F       13.68761842       3.67418522       8.65519911       0.64036968      -0.55757894       0.53874471       0.37273106       0.32066694       0.07840718      -0.00601461      -0.22554475
F       14.23125127       3.15288829       6.56887059      -0.58815257       0.07310691      -1.38563611      -0.35638249       0.08156627       1.37616277      -0.01213175      -0.24434304
F       12.43054951       2.34783047       7.49576275       0.53100280       0.64264058      -0.24020369       0.18188173       0.58443934       0.25425458      -0.01014099      -0.29144058
H       13.29076420       6.10092225       7.86069194       0.02798140       0.10395986       0.01560303       0.07613094       0.01618296      -0.38604626       0.02258781      -0.06335869
H       12.52160342       4.45021590       5.70459650       0.14783231      -0.08525019       0.04734507       0.10132544      -0.09378135      -0.42397979       0.01495046      -0.03412209
O        1.99963431       9.14732657       2.19081721       0.20584855      -0.03567816       0.13355364       0.64470422       0.74017191      -0.38212624      -0.02928475      -0.20475262
C        3.02784941      10.07997557       2.50432131       0.00696726       0.64294453       0.74113155       0.07497425      -1.26125598       0.67969656       0.01271740      -0.23117997
C        2.74529192      11.48628014       1.95837239       0.19107832      -0.01035467       0.15529354      -0.41723096       0.14142010      -1.76679194       0.02290135      -0.13794541
F        1.45147669      11.75230965       2.19844196      -0.31206534      -0.08322149      -0.80000929       0.63000333       0.39371800       0.43039113      -0.01066912      -0.24245512
F        2.85471563      11.56668171       0.58437022       0.74323076       0.91478772       1.18938793       0.33736834      -0.17219883       1.15173006      -0.01413308      -0.24108934
F        3.53624685      12.44741181       2.45307377       0.57012289      -0.30931989      -0.22404146      -0.67821115      -0.51421928      -0.39075103      -0.00699369      -0.19919211
C        4.39336199       9.47161649       2.11488446      -0.64503759       0.63505832      -0.63445642      -0.54415071      -0.07482692       0.50252908       0.02238480      -0.13360465
F        4.35096937       8.85651107       0.92985206      -0.73231905       0.38858081      -0.19262160       0.14700124       0.16308570       0.10536891      -0.00919208      -0.25298932
F        4.81580010       8.56516561       3.01174829       0.81223303       1.00208581       0.25521977      -0.47188023      -0.05074333      -0.25769043      -0.01104195      -0.24219793
F        5.28595680      10.43187418       2.10784281      -0.99284684      -0.10998283      -0.48419902       0.75511676       0.47350606      -0.57219690      -0.01006887      -0.21905223
H        2.18451581       8.79965611       1.29112080       0.09039881      -0.21002805       0.06890027      -0.12309020       0.23455067       0.70367730       0.02101442      -0.03766170
H        3.09311746      10.16122318       3.60367138       0.00707992       0.05505358      -0.00969690      -0.30142030       0.11975472      -0.39117888       0.01206225      -0.04609769
O        7.46477834      12.73985176      13.59008807      -0.03582954      -0.04375914       0.14036976      -0.08130653      -0.04922421       0.28509200      -0.03027922      -0.08826090
C        7.90411007      12.90931364      12.29124278      -0.90158126       0.78537730      -0.02356715      -1.60652494      -0.46051350      -0.00264104       0.01036120      -0.22652972
C        9.32699223      13.43813073      12.24233335      -0.55397312       0.03100719      -0.75449243       0.64911306      -0.05035388       0.29309839       0.02106962      -0.16387431
F       10.07825642      12.90781151      13.22067105      -0.78289232       0.45190538      -0.32824001      -0.38812268       0.00826853       0.05343070      -0.01340630      -0.25889078
F        9.42806927      14.76884917      12.34669665       0.12379816       0.83792278      -0.80241597      -0.25709036       0.13620336       0.24363135      -0.01092929      -0.26739240
F        9.90076082      13.07915199      11.10843591      -0.67642899       0.38132425       0.19835960       0.24167597      -0.20582461      -0.92473495      -0.01223591      -0.22443752
C        6.81071356      13.74798268      11.56486014      -0.19331100       0.63040585      -0.32919539       0.83950609      -0.37253433       1.16539395       0.02337680      -0.10406542
F        6.43394356      14.79996672      12.32362696      -1.47556987      -0.21130289       1.01314619       0.15229249      -0.08646294      -0.04932411      -0.00892041      -0.23693874
F        5.69139014      13.00628630      11.43062940       0.39460968       1.21144541      -0.95635997       0.17913730      -0.00366211      -0.45503911      -0.01128470      -0.29899731
F        7.24912937      14.17605050      10.41384237      -0.29307446       0.70889068       0.37650764      -0.26929986       0.24487643      -0.90018308      -0.00922939      -0.22796521
H        7.09803396      13.56795008      13.94376349      -0.14478478      -0.07522725       0.04377953       0.25893211      -0.31021878      -0.14561018       0.02595189      -0.02032349
H        7.89030215      11.91064265      11.79785328      -0.06275489       0.14142820       0.04348035       0.21484104       0.64098585       0.27456626       0.01100427      -0.04565682
O       13.48180076       8.76507351       1.56063326       0.59561134       0.17959060       0.44245411      -2.04735351      -0.74520546      -0.75651407      -0.03174692      -0.11012554
C       12.47348429       9.07399263       2.44920273       0.14906664       0.98758929       0.02625685      -1.29710758      -2.46873617       1.52059650       0.01169474      -0.15360516
C       12.81796360      10.23186874       3.36878600      -0.13539142       0.93769704      -1.48226579       0.96775109      -0.85115427       1.32399678       0.02227164      -0.06374744
F       13.31647604      11.13901734       2.59882891       0.60022736      -0.10419578      -1.38204480       0.43283823       2.01755953      -0.80751824      -0.00777680      -0.18251826
F       13.80852047       9.95237880       4.31464771       1.20320265      -0.29216045      -1.86568950      -0.84812933      -0.18912177      -1.08025491      -0.01752425      -0.26465052
F       11.81371776      10.71852339       4.08798466       1.84290077       0.79177001      -0.48858704      -0.45753264      -0.25945067      -0.21770290      -0.00859659      -0.23936066
C       12.08674158       7.73763487       3.30750711       0.56092379       0.56842420      -0.66387098      -0.05712312       1.17393756      -0.08461889       0.02247000      -0.04616530
F       12.91922657       7.45046416       4.30854983       0.50993668       0.03666901      -0.82487833       0.30433103      -0.17906351      -0.58479577      -0.01027554      -0.25533170
F       12.07340832       6.77451925       2.39254580      -0.42450131       0.42873479      -0.29874474       0.14357041      -0.84302872       0.02540729      -0.01013002      -0.25858226
F       10.85336117       7.72900499       3.88781190       0.68543158       0.59415433      -1.43620103       0.31147808       0.70893222      -0.64045364      -0.01515535      -0.26550019
H       14.31302060       9.09936598       1.80757890      -0.00278407       0.11368343      -0.10528849       2.08576536       0.81530422       0.95535886       0.01943475      -0.07297280
H       11.53595942       9.20971704       1.87580998       0.01410241      -0.08769495       0.25216836       0.42130908       0.63381135       0.33819136       0.01233815      -0.04676344
O       10.88669307       4.44599993       0.67119151      -0.15925035      -0.85802365      -0.05899714       0.05565205       0.01122833      -1.03881240      -0.02337268      -0.06074228
C       10.64900333       3.30050885       1.36467602       0.44399818      -1.30240583       0.00297924      -0.71561837      -1.20705009       1.79807544       0.01301316      -0.21126243
C        9.47250561       3.47469874       2.37042689       0.65826551       0.13879818      -0.71213924       0.52503902       0.08967705       0.81839716       0.02345674      -0.11578250
F        8.45697934       3.99902733       1.70290124       0.03247018      -1.32063109       0.58391565      -0.34578282       0.36923316       0.01770337      -0.00802790      -0.26124007
F        9.77574446       4.29296916       3.43392395      -0.03419002      -1.67198854       0.55766992      -0.00603034      -0.23476164      -1.11963260      -0.01333872      -0.27886456
F        9.05333298       2.33457733       2.92506153       0.42522815      -1.10884672      -0.98249444       0.09162530      -0.24857366      -0.29002282      -0.00943076      -0.25208732
C       11.90366577       2.70225307       2.00773363      -0.16902659      -0.03491037       0.83261004       1.10471129       0.61875820       0.87929964       0.02326455      -0.13267742
F       12.60597407       3.64952152       2.73729780      -0.78039661      -0.09757184       0.48654209      -0.67851925      -1.22053850      -0.95730400      -0.01200039      -0.27243108
F       12.69333556       2.25991377       0.98929635       0.04532874      -0.32911438       0.83696358      -0.45051420       0.20735674       1.42073393      -0.01025870      -0.24112144
F       11.62472418       1.67648303       2.86888231      -0.04294485      -1.14027216       1.28345323       0.48525918       1.07698202      -1.19462156      -0.01047109      -0.23669747
H       10.77734000       5.24802526       1.18367584      -0.04654483      -0.04647670       0.03432905       0.05343477       0.15281346       0.46328637       0.02473292      -0.05901785
H       10.35036211       2.44430639       0.74248953       0.22233403      -0.03993993      -0.13175563      -0.31170681       0.53410482      -0.47531536       0.01308455      -0.02083781
O        8.87747830       7.17873720      11.96404493      -0.32900277       0.03844581      -0.04770738       0.95040858       0.37889171      -1.00371897      -0.03007430      -0.05854888
C        8.63132374       8.47078762      12.36577069       0.29149958       0.10379365       0.50172067      -0.00338139       0.16535854      -0.68107456       0.01121674      -0.27029654
C        9.31494931       8.64692847      13.69644064      -0.30135725       0.25261386       0.54956756       1.07520342      -1.06632853       1.14723444       0.02242754      -0.11682139
F       10.53587538       7.97181575      13.69585435      -0.35682220      -1.79706727       1.61477696      -0.95605510       1.36110497      -0.31434217      -0.01626737      -0.25313106
F        8.67492999       8.04695095      14.72143571       0.25625483       0.05544398       0.53307827      -0.30057663       0.60982418      -0.21238481      -0.01087264      -0.27375549
F        9.49634418       9.93491404      13.96094779       1.01366871      -0.68145519       0.45856001       0.12658128      -0.14659807       0.41766876      -0.01081685      -0.24114437
C        7.12635351       8.76971435      12.35017916       0.58822042      -0.33529605       0.45780350      -0.49413937      -0.85838264      -0.17732202       0.02391062      -0.12799866
F        6.46950568       7.84244061      13.09011008       0.24439472      -0.80397518       0.65410745       0.34085342       0.42576608       0.01474877      -0.01034045      -0.25316012
F        6.61613118       8.65705430      11.10741105       0.93454994       0.14422859       0.33957810       0.49508679       0.11344162       0.12548850      -0.01382723      -0.26549140
F        6.83415254       9.98297843      12.77848271       0.60777249      -1.58201929       0.51768063      -0.00891825       0.34898865       0.47394726      -0.00902923      -0.26074332
H        8.14499826       6.64333691      12.18973144       0.06046220      -0.05087352      -0.11252928      -1.20103061      -1.22352469       0.37615091       0.02291610      -0.03302012
H        9.10028972       9.17700881      11.66329122       0.06056797       0.06432817       0.08034709      -0.04916148      -0.18234548       0.17959161       0.01124137      -0.05250490
O        3.76470306       1.26035614      12.03629402      -0.81502284      -0.01757270      -0.42503290      -0.42234451      -1.22402346      -1.11751676      -0.02604431      -0.09065620
C        2.56927164       1.64949257      11.36949752       0.11850812       1.25872855      -0.21950483      -0.43619642       0.51019186       1.68193078       0.01366632      -0.22028625
C        2.77877300       1.59751874       9.85170300      -0.06144123      -0.05449718      -0.13216310       1.30899525       0.08584497      -0.82806444       0.02284192      -0.10696571
F        3.36643056       0.42925331       9.55832230      -0.77149030       0.81279179      -0.35194528      -0.27245688      -0.83420926       0.36658657      -0.01290314      -0.15994711
F        3.70162178       2.46383140       9.43036535       0.55248462      -0.19561717      -0.04727607       0.14896977       1.15915787       0.16447639      -0.01157499      -0.20935118
F        1.72184681       1.76439481       9.06070396       0.31940969      -0.39043032      -0.74858623      -0.39843178      -0.09844359       0.62420380      -0.01116414      -0.26185825
C        2.20854580       3.07558443      11.96331026       0.01393124      -0.15500210      -0.49227490       0.56728315       0.55450869      -0.15898544       0.02368344      -0.10785484
F        2.80494068       4.08143810      11.27589156      -0.05115959      -0.52274922      -0.22302173       0.26630974      -0.44854423      -0.02196250      -0.01227489      -0.25338814
F        2.58354599       3.23024970      13.24429957      -0.72338387      -0.85376879       0.28220047       0.04964627      -0.75891489      -0.56483209      -0.00978104      -0.24965927
F        0.91493210       3.35081842      11.90986126       0.87448698      -1.50209405       0.87447769      -0.22690424      -0.62868893      -0.11556423      -0.01109677      -0.19753964
H        3.92916498       0.30174702      11.79795507       0.19442993       0.12971210      -0.32866220      -0.14800900       1.51706803       0.43022567       0.02322755      -0.04554854
H        1.72876303       0.99017622      11.65728720       0.00602117      -0.04371586       0.04715358       0.21560188       0.22849225      -0.33934313       0.01408627      -0.05437887
O        2.36369412       7.01406219      11.10100417       0.18853183      -1.61753042       0.66310094       0.19079934      -0.58201307       0.05402123      -0.03037150      -0.10933878
C        1.98934421       7.52114485      12.34221111      -0.01101542       0.74572117       0.56444989      -0.16438320      -0.79235995      -0.11160053       0.00863211      -0.23231831
C        2.67851855       8.84376551      12.56312755      -0.61890576      -0.15467203       0.11275058       0.73719758      -0.35545123       0.90083468       0.02213443      -0.14342661
F        2.52108104       9.69783750      11.54972666       0.31593990      -0.42662500       0.44355469       0.31187937      -0.45356151       0.79653305      -0.01188806      -0.23505817
F        4.01080791       8.61868782      12.76585215      -1.18965511       0.12474258       0.86341769      -0.95643282       0.67527950      -0.51131308      -0.01300066      -0.23424619
F        2.15615720       9.40513142      13.68927292      -0.44385871      -0.71567271      -0.15551352       0.31305742       0.31976905      -0.84847069      -0.00812803      -0.20583981
C        2.09269397       6.49973057      13.53945943      -0.41014192       1.01167290       0.23147383       1.28379142       1.64657426      -0.21883072       0.02514057      -0.09604105
F        3.32047139       5.93934008      13.54289434      -0.68430061      -0.97490361       0.67880352      -0.76185536      -0.38236347      -0.15264550      -0.00931841      -0.26342198
F        1.11982515       5.61866730      13.52827097       0.37513508       0.40006795       0.45644126       0.11520934      -0.49744710      -0.42484662      -0.00754436      -0.24162924
F        1.99322951       7.13749329      14.73234217      -0.59109519      -0.24652938       0.58136377      -0.16188721      -0.22980033      -0.08959289      -0.00550046      -0.21227925
H        3.22834530       6.56689120      11.12717443      -0.02708825      -0.22230369      -0.07282171      -0.29385716       0.20925979       0.22941589       0.02085937      -0.08063660
H        0.95042535       7.76189501      12.27380298      -0.29888715       0.19979756      -0.12764235      -0.66306710       0.05179786      -0.05547597       0.00945436      -0.01823203
O        4.09188857      14.68561838       6.96642320      -0.42362297       1.39741446       0.16468361       0.15325944       0.55821228       0.54206651      -0.02483059      -0.03131130
C        4.59101290      13.47883908       6.52410362       0.15831735       1.28156824       0.36590252       0.99946600       0.92487073       0.17913164       0.00903609      -0.20692790
C        6.10465214      13.42268102       6.89004201      -0.19159340       0.86561991      -0.50070906       0.76300615       0.97925812      -0.86644894       0.02247276      -0.12066451
F        6.27051369      13.17806002       8.18944353      -0.75730341       1.96157499      -0.31431403      -0.52949715       0.04811420       0.16577503      -0.01261327      -0.24558693
F        6.84433708      14.55176179       6.62649297       0.48381132       0.28791213       1.66585480      -1.17662632      -0.94989341      -0.00195326      -0.01280243      -0.27542406
F        6.67276514      12.42111897       6.22646726      -1.06781894       2.00050898       0.66536310       0.11827162      -0.38317141      -0.34908360      -0.01130829      -0.25733051
C        4.21621940      13.21399587       5.08395350       0.03821284       1.20511557       0.17223913      -0.61372423       0.38352710      -0.66969544       0.02335421      -0.12140733
F        4.94180886      13.99442152       4.28224837       0.71022044       1.52650960      -0.20396252       0.09638377      -0.04993599      -0.31534210      -0.00789592      -0.27436543
F        2.90566698      13.53095656       4.86670621      -0.40259260       3.01275378       0.42424271       0.50809336       0.46657142       0.24894866      -0.01112802      -0.22722252
F        4.30235219      11.94655724       4.70676312      -0.11911734       1.46596051       0.16589375       0.80907351      -0.42794475       0.55726272      -0.01075233      -0.21162635
H        3.48880849      15.11197876       6.35713671       0.02055271       0.04748831      -0.12957212      -0.19113855      -0.15643224      -0.32639062       0.02606504      -0.04493855
H        4.21609327      12.67253158       7.08176410      -0.22122576      -0.00525672      -0.08714012      -0.76883411      -1.17795718       0.79140711       0.00981522      -0.01340364
O       11.71473217      13.03897554       8.76854187      -0.80483338       0.52711994      -0.37405202       0.21024014      -0.13557601       1.88481915      -0.02810333       0.03730064
C       10.92371532      12.03357454       8.31755425      -0.34436606       0.45478413      -0.26541877      -1.35498571      -0.31875941       0.58138722       0.00951948      -0.23266768
C       11.54094494      11.36957402       7.09586939      -0.42953774       0.92642793      -0.52631607       0.71685314      -1.16263998       0.83941120       0.02134713      -0.12791061
F       12.58962700      10.53785650       7.39912679      -0.74449369       1.19768891      -1.96529669      -0.66687381       1.05326748      -0.29318202      -0.01574943      -0.21495780
F       12.03056663      12.33403033       6.31254096      -0.30224151       0.81468349       0.02786863      -0.09156871      -0.24490599      -0.57401079      -0.00905104      -0.27549541
F       10.64599427      10.59981543       6.49070550       1.23353096       1.03569220      -1.58678708      -0.06023657       0.02355753      -0.48641551      -0.01119002      -0.23368773
C        9.49479162      12.54243565       7.98278833      -0.63564003       0.43744569      -0.05180516       0.46138829       1.42435801      -0.46170205       0.02196684      -0.11420052
F        9.40423960      12.83426033       6.66551274      -1.20988859       0.25997517       0.67519424      -0.51809728      -0.29172218       0.40419483      -0.01003282      -0.22014712
F        9.25681120      13.72517890       8.60747908       0.67422212       0.92814021       0.34006513      -0.04132585      -0.91524428      -0.13496651      -0.01324988      -0.23822793
F        8.56484612      11.65941370       8.35705703       0.59961627      -0.49602360       0.36915769       0.08456914       0.15793338      -0.34334466      -0.01164483      -0.27522537
H       11.90404868      13.69249902       8.12182671       0.01517115      -0.07777267      -0.12634205       0.13551947       0.85701919      -1.15282404       0.02537183      -0.03526843
H       10.70636111      11.33823902       9.15373489       0.01636838       0.20726268       0.04304625       0.76668042       0.04081350      -0.52187610       0.01031792      -0.03732245
O       14.20368731       8.69969035      10.65277066      -0.27148865      -0.91237184       0.96277872       0.22202803      -0.95903212       0.93810743      -0.02617708      -0.05078916
C       12.91585327       8.74180951      11.17350231      -0.04347239      -0.32280672      -0.32799301       0.49114048      -1.12271392       0.81683445       0.01264931      -0.15257522
C       12.02763712       8.14478975      10.07304830      -0.27475390       0.33093138      -0.71393369      -1.01144266       1.12619770       0.32313597       0.02308598      -0.10867956
F       12.30421690       6.86916734       9.98227122      -1.23813104       0.71351504      -0.32610601       0.02736467      -0.94319928      -0.02172468      -0.00814806      -0.22194049
F       12.35359696       8.69687087       8.91855261       0.23101956       0.12799907       0.86037066       0.17712809       0.39776546      -0.93013215      -0.01002139      -0.22806841
F       10.68657062       8.30337534      10.18498247       0.44141858       0.44956029       0.42879981       0.59613627      -0.02604468       0.46722910      -0.01251285      -0.26134312
C       12.73162060      10.11010370      11.78499723      -0.20525764      -0.59364482       0.03648910      -1.11170721       0.60391378       0.59184325       0.02214575      -0.15132368
F       12.59330921      11.06098909      10.86828573      -0.31884858      -1.66466797       0.44823765       0.13623200       0.33917081      -0.62778598      -0.01069330      -0.25166366
F       13.77826333      10.41121816      12.56243036      -0.60418313      -0.73470013       0.80859091      -0.22624844      -0.21729927      -0.17026716      -0.01098019      -0.26740316
F       11.62608406      10.19684730      12.54734842      -0.00807221      -0.55591927      -0.51065842       0.08042972      -0.32973635       0.01269040      -0.01242802      -0.26020455
H       14.20529959       9.25263414       9.89769510       0.16496994       0.14020435       0.17412181       0.40188578       0.92313409      -1.46458781       0.02250766      -0.02442408
H       12.89996238       8.02231180      12.00186862      -0.18197651      -0.07021293       0.05733462      -0.21745931       0.13254696       0.01956713       0.01406208      -0.03065132
O        1.93561584      12.39811214       6.99640808      -1.02281962      -0.10300304       0.21198791       0.49195796      -0.19280204       1.42639303      -0.02147105      -0.06983796
C        2.04367528      11.65740828       8.19136778      -0.04788007       0.18811824       0.26652809      -0.12173078      -0.91796196       0.14691371       0.01501502      -0.14847884
C        2.10498440      10.12198161       7.91464869      -0.10720826       0.58594133      -0.45251153       0.07354137      -0.12607518      -0.25716090       0.02370973      -0.12962930
F        3.02878790       9.81205420       6.97906934      -0.96196852      -0.20156391      -0.45182001      -0.21600838       0.74656332       0.35138446      -0.01200224      -0.27211627
F        0.95382229       9.64534282       7.46083492       0.19005339       0.02626622       0.03146174      -0.78997612      -0.12328550      -0.04202983      -0.00951751      -0.28157330
F        2.43751509       9.43222591       9.01257526       0.90194126       0.76619951      -0.54595899      -0.15225111       0.34827018       0.01282824      -0.01128640      -0.24978039
C        1.02180794      12.13519487       9.33933272       0.41507912       0.37208106      -0.21791642      -0.09269232       0.63046271      -0.69748294       0.02360975      -0.04786763
F       -0.20235006      12.26387935       8.82231464       0.09866483      -0.20077809       0.63003915       0.45606086      -0.28166628      -0.36926237      -0.01159332      -0.21552378
F        1.37988192      13.36373577       9.74971775       0.46860202       0.16570578       0.43035157      -0.00812121      -0.36524543      -0.17147034      -0.01208816      -0.21099173
F        0.88030053      11.41462490      10.45718760       0.35251245      -0.16749877      -0.75389841       0.87934762      -0.42652938      -0.72430515      -0.01001086      -0.20867577
H        1.12810163      12.25087970       6.51223079      -0.04761888      -0.01661181       0.05604216      -0.74321675      -0.34750167      -0.07591052       0.02567926      -0.05649865
H        3.05491971      11.78476597       8.54685008      -0.09210371      -0.04029964       0.03560620       0.27236956       0.72442049       0.46010041       0.01363263      -0.00469495
O        9.07111813      11.60470953       4.26081479       0.75550203       0.95931639       0.19532372       0.02542882      -0.36490923       0.01582554      -0.02863296      -0.09240828
C        8.88681191      12.67290478       3.40515254       0.62039109       0.57312360       0.24052892       1.21071434      -0.98124582      -1.81460214       0.01189861      -0.26990265
C        7.73249943      12.43770929       2.46305683       0.25717657       0.27008121      -0.14531963      -0.96712625      -0.17651944      -0.74282277       0.02301296      -0.15293029
F        6.63250634      12.13984182       3.12793533       0.20613874      -0.28883087       0.86825007      -0.19483431       0.07569695       0.61523831      -0.01106040      -0.19054885
F        7.97743072      11.39497488       1.63908184       0.17453703       0.47989850       0.41055177       0.08266238       0.50897992       0.18355946      -0.01283350      -0.25412628
F        7.42467024      13.54725632       1.72676913       0.49899358       0.04636538       0.31522110       0.35687101      -0.44851980       0.57023478      -0.01058774      -0.20381388
C       10.16785661      12.91966733       2.54712881       0.04566033       0.02590402      -0.32153339      -0.06250888       0.72390443       0.76307881       0.02147134      -0.15085378
F       10.62495967      11.80443586       1.97508931      -0.64604890       0.21712190      -0.22266780      -0.09395453      -0.22722411      -0.12803268      -0.00878830      -0.26186472
F       11.13412286      13.40038766       3.34169024       0.18628265       0.42506509      -1.57595012       0.03269152      -0.25804281       0.04609914      -0.01205995      -0.24805894
F        9.97124199      13.82410526       1.58204441      -0.00478226      -0.52956870      -0.30557366      -0.04416238       0.01614087      -0.04941279      -0.01074190      -0.24896580
H        9.37933306      10.83333914       3.75740684       0.15352308       0.10879294       0.04544777      -0.12515406       0.17418979       0.14547528       0.02451825      -0.04215252
H        8.68566631      13.54623406       3.95058217       0.11437513      -0.05157905      -0.07062067      -0.20977801       1.24030244       0.93853194       0.01443788      -0.04784935
O        6.73920818       3.49581585       9.07654295      -0.85693850      -0.57674545       0.12770025       0.34390295      -0.04535911      -1.11693919      -0.02575256      -0.14339860
C        6.30487603       3.75436395      10.32990625      -0.51305888      -0.35903642       0.46620733      -0.45602855       0.73753226       1.14355898       0.01300289      -0.24713022
C        5.73469219       5.23512649      10.42145891      -0.08209720      -0.98875590       0.26327471      -0.58514959      -0.01433485      -0.34745049       0.02419969      -0.05240121
F        4.65342953       5.45675908       9.56878957       0.03374169      -1.40812451       0.72485355       1.80276370      -0.44219810       0.49927235      -0.01229707      -0.25854173
F        6.75412915       6.07920139      10.12332415      -1.45409658      -0.60906404       0.69972246      -1.00146711      -0.53766817      -0.12059221      -0.01040988      -0.21775596
F        5.25694220       5.61143543      11.61239717      -0.46917884      -1.49496129      -0.04376465       0.32355556      -0.35049140       0.12280609      -0.00901695      -0.25101227
C        7.40007466       3.55129986      11.37479540      -0.30011618      -0.18466426       0.60377258       0.93654883       0.42303553       1.33688021       0.02286933      -0.12382202
F        8.42394201       4.47905941      11.34514679      -0.53507155       0.16062479       0.19357658      -1.01323307      -0.99886018      -0.24373955      -0.01303390      -0.24755165
F        7.95787169       2.32579948      11.30885704       0.83227329      -0.19975900      -0.32621940      -0.31119543       1.27828383      -0.36995456      -0.01156730      -0.21901517
F        6.83555456       3.67179419      12.59752290      -0.91353447      -2.07490184      -0.25680534       0.23985103      -0.11561310      -0.18603498      -0.01165209      -0.25742012
H        7.42420213       4.14257777       8.89992502       0.06961109      -0.34689178      -0.13261941       0.47782335       0.18372038      -0.63987356       0.02446655      -0.02652691
H        5.59116520       2.98815907      10.60067137      -0.05340541      -0.05795320      -0.11951991      -0.65978682       0.19933034       0.07378199       0.01159220      -0.03637621
O       10.69617299       3.17058526      10.41058765       0.85447715      -0.69282271       0.64322267       0.17904596      -0.24563235      -1.69616044      -0.02804849      -0.03843322
C       11.44668554       3.04359817      11.55787882       0.21039565      -0.25054545       0.36492599       1.01774085      -1.19996548       0.00220239       0.01174332      -0.28985825
C       12.23963286       4.31782895      11.87579189      -0.26604770      -0.45774097      -0.50245993      -0.68062443       1.14666390       1.10324740       0.02034310      -0.17583473
F       11.36275755       5.36884065      11.92394445       0.76181181      -1.06989155       0.81081588       0.66784662      -0.76208305      -0.10098528      -0.01646644      -0.25974607
F       13.19885736       4.63761711      10.98600651       0.56636212      -1.75576206       0.00337496      -0.68964601      -0.28095579       0.51671392      -0.01175342      -0.22102363
F       12.79002969       4.22779814      13.11051438       1.93350746      -1.09756336       0.26681533       0.12216073      -0.00113481      -1.10744548      -0.01211279      -0.22267406
C       12.44165400       1.80665898      11.44858241      -0.18173803      -0.75554961       0.02079267       0.87318832       0.99178690       0.93672460       0.02183376      -0.06448147
F       13.43898447       1.96883397      10.53087736       1.74644821      -0.94378435       0.62667505      -0.17570797       0.59928805       0.80925465      -0.01316889      -0.21787575
F       11.83261915       0.76267337      11.00897772       2.26099082      -0.55490163      -0.85538689      -1.52844453      -1.65517831      -0.16912769      -0.00990633      -0.18810886
F       13.00240047       1.49868158      12.66846851       1.95558917       0.56428105      -0.56059095      -0.40015486       0.47697532      -1.31278908      -0.01293343      -0.27225113
H       11.16193035       2.91001941       9.57409360       0.03636501       0.06454976       0.16420432      -0.30148441       0.33031815       1.26536179       0.02304626      -0.05879215
H       10.70678682       2.83420202      12.36918278       0.12011606       0.03923633       0.15156305       0.91539484       0.25927538      -0.29379731       0.01146031      -0.04893997
O        6.25116094       6.91536303       7.66572814      -0.46683989       0.72073994      -0.11301999      -0.33042672      -0.19160284       0.15890990      -0.02676053      -0.09375081
C        6.85799340       7.42434417       6.52829107       0.12083768      -0.06027861       0.13252983      -0.59517092      -0.63114607      -0.46288460       0.01354743      -0.24817593
C        6.07418335       8.61089462       5.99143315      -0.38776378      -0.97507405      -0.08771731      -0.63380730       0.88359582      -0.65794599       0.02252205      -0.15497759
F        5.96908384       9.48669345       6.99861723       1.24315735      -0.94116570      -0.18807589       0.02554251       0.26338214      -0.02885904      -0.01313901      -0.25810456
F        4.80362012       8.36944721       5.56841850      -0.30892794       0.93585854       0.20819424       0.93448353      -0.45357016       0.46605766      -0.01113032      -0.24274789
F        6.71232261       9.22020096       4.97025247      -0.29216175       0.72353184      -0.34449116      -0.05145595      -0.28765902       0.42520636      -0.01211268      -0.26831299
C        7.10362239       6.25911079       5.53055167      -1.01587149      -0.47621339       0.53562921      -0.28097668       0.23723648       0.78414351       0.02400251      -0.12946740
F        5.94539844       5.58577257       5.39418697      -0.65476144       0.51240021      -0.67073107      -0.08961596       0.12434810      -0.51248789      -0.00691522      -0.27385291
F        7.96166792       5.40424538       6.07690529      -1.00959000      -2.32953236      -0.22298233       0.38006273      -0.29272538       0.23979743      -0.01071240      -0.24530365
F        7.58063490       6.60256017       4.34509347      -1.67317762      -0.28045502       0.56658733      -0.22625880       0.24682023      -0.19928041      -0.00862056      -0.26841289
H        5.40257379       6.51133141       7.44208342      -0.03205422      -0.06604102       0.23971317      -0.04311829      -0.02398750      -0.01206836       0.02608265      -0.04291701
H        7.77359778       7.83900419       6.89182731      -0.04170286      -0.05116605      -0.18586261       0.93250978       0.20071667      -0.22918057       0.01356580      -0.02610742
192
Lattice="14.297731994270666 0.0 0.0 0.0 14.297731994270666 0.0 0.0 0.0 14.297731994270666" Properties=species:S:1:pos:R:3:momenta:R:3:forces:R:3:charge:R:1:energies:R:1 Built=T with=T Packmol=T charge=0 spin=1 external_field="_JSON [0.0, 0.0, 0.0]" energy=-18.44449234008789 stress="0.004010731820017099 -0.0015003166627138853 0.0005021513206884265 -0.0015003166627138853 0.002735482295975089 0.00017491904145572335 0.0005021513206884265 0.00017491904145572335 0.002173734363168478" dipole="-0.8998985886573792 -0.5147427916526794 -1.3773820400238037" free_energy=-18.44449234008789 pbc="T T T"
O       13.36013240       5.88051032       6.95375100      -0.51035869      -0.38879771       0.20401530      -0.56223786      -1.04336298      -0.67232925      -0.02618052      -0.07814523
C       12.57291605       4.69952499       6.77099395       0.50479335      -0.24746075      -0.22126944       0.89369702       0.99056476      -0.09675685       0.01543926      -0.20079243
C       11.09589886       4.98270477       7.06417358       0.50496588      -0.31074906      -0.67985376      -0.44873381       0.00395097       1.06743169       0.02315608      -0.14322020
F       10.63173319       6.05820003       6.44054170      -0.24078240      -0.45495492      -0.09187981       0.35733670      -0.14976791      -0.91062289      -0.01138362      -0.24496390
F       10.90458725       5.29170443       8.36992660       0.21141969      -0.15872609      -1.03059645       0.23877482      -0.71040320       0.16925612      -0.01223078      -0.26061949
F       10.32015800       3.92250458       6.76077268       0.39648844       0.10300829      -0.62044405       0.34418365       0.37391749       0.08413388      -0.01062098      -0.27823231
C       13.28260243       3.49280584       7.45001159      -0.09330989       0.29211011      -1.26014762       0.02553102      -0.78989905      -0.32113883       0.02466340      -0.08441051
F       13.76575987       3.67823939       8.70384522       0.65664074      -0.38359608       0.09968007      -0.25602964       0.36409855      -1.78259194      -0.00936803      -0.23005798
F       14.27714301       3.16965044       6.57139820      -0.72131724       0.15186553      -0.67360123      -0.16069587       0.19556539       1.32021070      -0.01085286      -0.22839543
F       12.50019321       2.37864319       7.52406680       0.57840796       0.93571514      -0.15795075      -0.00232192       0.61362278       0.03538414      -0.01055179      -0.27708688
H       13.36133816       6.16752316       7.86939046      -0.00051279       0.05288703      -0.03528533      -0.16593984      -0.10328780       0.45319811       0.02250684      -0.07131346
H       12.65118298       4.42835439       5.70391070       0.13064000      -0.04525157      -0.07619333      -0.19239262       0.34159526       0.33783558       0.01552933      -0.02604592
O        2.01887524       9.19359136       2.20468628       0.41609067       0.46918212       0.29286738       0.10508249       1.34295034       1.15726233      -0.02643996      -0.18661919
C        3.04076015      10.13640378       2.54467446      -0.06857576      -0.06474608       0.52377036      -0.36714002      -1.25120652      -1.12400734       0.01405549      -0.24664819
C        2.76007376      11.53901380       1.95729962      -0.07064418       0.10023811      -0.55344237      -0.51723135       0.14042404      -0.83805186       0.02300647      -0.13742022
F        1.45465142      11.80467962       2.19057126       0.07857949       0.10310279      -0.55680921       0.86069536       0.36996004       0.47662741      -0.01139521      -0.24517573
F        2.88852552      11.63959377       0.62309259       0.88721145       0.73399387       1.50925738       0.30010262      -0.46050748       0.04157569      -0.01134631      -0.24273537
F        3.56201408      12.49164422       2.45649922       0.20456387      -0.52096702      -0.32033709      -0.74914825      -0.35447127      -0.02257212      -0.00775213      -0.19864614
C        4.38454371       9.53559517       2.10763481      -0.64184858       0.38333356      -0.09860750       0.56701326      -0.74701148       1.46663177       0.02293034      -0.10395758
F        4.35189426       8.90702397       0.93019138      -0.70598721       0.49191172      -0.07754924      -0.09862571       0.28536844       0.36842731      -0.00793437      -0.24772157
F        4.85373668       8.62943250       3.02847261       0.42918267       1.05520845      -0.04014785      -0.96424514       0.25537699      -0.82077432      -0.01352698      -0.23460259
F        5.28902349      10.47929934       2.10066127      -0.58340615       0.22727243      -0.80478239       0.72729170       0.78495669      -0.74120343      -0.00985898      -0.20745361
H        2.23652138       8.76129085       1.38351515       0.12387090      -0.15682789       0.15059829       0.28665873      -0.20381051      -0.56700778       0.02155263      -0.03962175
H        3.08027128      10.24489511       3.61601127      -0.09869865       0.09592823       0.07513127      -0.10496195       0.02384648       0.40884551       0.01228465      -0.05753957
O        7.49637584      12.79385549      13.65560573      -0.04241312      -0.16545651       0.15777066       0.04822452      -0.47212860      -0.19381651      -0.02949883      -0.09362523
C        7.89111548      12.99772569      12.34732526      -1.29269822       0.82234195       0.16082746       0.16118276       0.29634926       0.58628231       0.01089064      -0.24549681
C        9.35173490      13.50187495      12.27313994      -0.28727655       0.24644127      -0.31281186       0.29918203       0.81696218       1.21631122       0.02143806      -0.14549828
F       10.09968377      12.97686696      13.27029914      -1.03024668       0.46966286      -0.39054015      -0.62815583       0.08039262      -0.27548552      -0.01420522      -0.25827333
F        9.47124953      14.85487769      12.38208668      -0.01758381       0.69190368      -0.69868794      -0.28849173      -0.58618671       0.13687441      -0.01274418      -0.26644048
F        9.92897297      13.14511468      11.15592796      -0.53357344       0.22375578      -0.35033173       0.22967564      -0.36414903      -1.15008473      -0.01092036      -0.22123739
C        6.83940611      13.83116003      11.61650013       0.05332862       0.47813152       0.35249841       0.05367710      -0.11297862       1.23507345       0.02380822      -0.11292892
F        6.42613983      14.85979990      12.40309405      -1.30635656      -0.22310602       0.88050209       0.42172289       0.03077512      -0.36693341      -0.00913918      -0.24380672
F        5.72704601      13.09435003      11.45370632       0.38589970       1.11771461      -1.17350077      -0.13588203      -0.25954720      -0.46901077      -0.01137468      -0.28715861
F        7.27250934      14.25922560      10.46384389      -0.36607058       0.87618108      -0.05334416      -0.08237503       0.40751165      -0.60684723      -0.00885691      -0.22910191
H        7.08203097      13.57716261      14.01632699      -0.08341872      -0.06144633       0.03102614      -0.05531646       0.37225968       0.13835539       0.02551993      -0.02524836
H        7.91333119      12.04002437      11.86810234      -0.00598665       0.04140286      -0.03769940      -0.01528300      -0.68044931      -0.42026111       0.01168832      -0.03403681
O       13.55326179       8.80844067       1.57845341       0.50325684       0.29088904       0.38877641       1.12173343       0.98868382       0.49856284      -0.03457012      -0.06177464
C       12.52861725       9.12682747       2.47717714      -0.03604181      -0.36009901       0.77300382      -0.05381915      -2.35272956       1.00117755       0.01158753      -0.21428922
C       12.88178253      10.30370117       3.34125090       0.53341900       0.31702862      -0.53229038       1.66666269      -1.32791734       2.06631374       0.02301504      -0.05703264
F       13.39359823      11.19935544       2.56910948       0.77626137       0.93617000      -1.79663352       0.16830154       1.85460114      -0.75413013      -0.00703387      -0.18371774
F       13.89467888       9.98842008       4.27849452       0.72317123      -0.30704152      -2.40551541      -0.89503777       0.08972023      -1.14187849      -0.01971130      -0.25850677
F       11.90970667      10.78549805       4.09220977       1.50978650       0.73900912      -0.58305239      -0.67385960       0.05363608      -0.21477515      -0.00775707      -0.23787481
C       12.16209234       7.80395044       3.29684142       0.48291122       0.89705897      -0.52963469      -0.30789161       0.00775045       0.43151256       0.02327822      -0.08550976
F       12.99098849       7.48369548       4.30218128       0.59295509       0.00067570      -1.16053596       0.09160447       0.06738167      -0.82605010      -0.01112239      -0.25583518
F       12.11755695       6.81140941       2.39551547      -0.27409754       0.15591900      -0.28859067       0.43288374      -0.20550653       0.04304948      -0.01144254      -0.25813520
F       10.92111036       7.78343774       3.86456214       0.83424889       0.98233422      -1.66870242       0.33917761       0.93714660      -0.39682555      -0.01545805      -0.25891536
H       14.45263455       9.22546155       1.83291344      -0.07671697       0.06899845       0.06777981      -1.75911975      -0.82511270      -0.12963986       0.02033269      -0.08377517
H       11.58342985       9.29608418       1.98024865      -0.09224534       0.26782777       0.05788906      -0.14962642       0.53523737      -0.57755923       0.01283482      -0.04389051
O       10.93037099       4.44075672       0.66795755      -0.14209516      -0.76300244      -0.23147435       0.02462467      -0.08334448       0.21331237      -0.02529326      -0.07357806
C       10.70734787       3.25745409       1.38511217       0.11684057      -1.33802889       0.57700819      -0.54058349       0.87092525       0.38195997       0.01373069      -0.26334077
C        9.54203223       3.49010084       2.36346256       0.57376530      -0.27331178      -0.09053815      -0.82030874      -1.53697145       1.43660414       0.02441645      -0.09414113
F        8.49385598       3.98587820       1.72503270      -0.04141012      -1.04504540       0.53032841       0.09305921       0.59614563      -0.13229318      -0.00774002      -0.25639045
F        9.81868932       4.26784966       3.45541391       0.02708015      -1.72274953      -0.09311718       0.25476876      -0.06985389      -1.37626290      -0.01206248      -0.26804373
F        9.10577574       2.31628262       2.91040067       0.55186335      -1.06350178      -1.16183652       0.39787734       0.22123811      -0.43191588      -0.01278294      -0.23954234
C       11.96120004       2.71503758       2.05726409       0.37368090      -0.02708744       1.07591797       0.77029639      -0.59504986      -0.01796095       0.02412524      -0.12932183
F       12.63772374       3.65575674       2.75648167      -1.05795300      -0.63837447       0.09764587      -0.40082201      -0.85538232      -0.48954478      -0.00859683      -0.27762806
F       12.74769501       2.26308195       1.02487079      -0.18534214      -0.19290802       1.58499186      -0.38834459       0.28752664       1.60339606      -0.01108912      -0.23298186
F       11.67858578       1.66277553       2.90654132       0.23794679      -0.45933170       0.64510249       0.65470600       1.49119961      -1.19226825      -0.01158229      -0.22869784
H       10.81778284       5.22612204       1.22902785       0.03187680      -0.18202489       0.07891978       0.21862841      -0.25400338      -0.06179702       0.02421121      -0.05952235
H       10.45520539       2.48350863       0.65032534       0.01042024       0.11780181      -0.19145141      -0.42987579       0.08237037       0.32094604       0.01340965      -0.03734423
O        8.90965072       7.21119747      12.00986433      -0.33980774      -0.16745932      -0.34939221      -0.80822259      -1.11665308      -0.33543134      -0.03098407      -0.02922621
C        8.68039070       8.51117333      12.43500106       0.20275612      -0.06008532       0.26673992      -0.37307507      -0.93908966       0.01160955       0.01108977      -0.29292971
C        9.35625186       8.68144206      13.78944106       0.30901978      -0.48715879       0.95979734       1.18353879      -1.66688359       0.35739249       0.02283173      -0.10005829
F       10.56710095       7.97035132      13.79561314      -0.82864113      -1.03156286       1.39310522      -0.87269485       1.53110492      -0.43404895      -0.01745222      -0.24664487
F        8.71729122       8.08807383      14.79956411       0.01714300       0.36378186       0.49596778      -0.66313004       0.58540702       0.18418211      -0.00985317      -0.26403689
F        9.56521469       9.96125671      14.03747841       1.05625283      -0.66463168       0.68355654       0.13740075       0.07220069       0.53226858      -0.01032723      -0.24196714
C        7.17567476       8.78567419      12.42072773       0.26854366      -0.77038651       0.30016168      -0.62981087      -0.72697210      -0.34909454       0.02376315      -0.13089563
F        6.50721553       7.85974065      13.16413336       0.46807317      -0.53548751       0.55579536       0.52261901       0.53292203      -0.31868595      -0.01074629      -0.26418245
F        6.67275313       8.69937486      11.16687658       1.17367421       0.14192655       0.47193495       0.50106692      -0.12316409       0.37333763      -0.01422141      -0.26740015
F        6.87968684       9.99012358      12.85196630       0.56060851      -1.24911777       0.80003477      -0.11797620       0.75310373       0.67044598      -0.00930301      -0.25803411
H        8.15545660       6.59182333      12.21146187       0.08035158      -0.04146476      -0.08019105       1.05682945       1.08485973      -0.16574132       0.02352946      -0.05052834
H        9.16102954       9.22314879      11.76851125       0.03280947      -0.02265136       0.10087661       0.03776795      -0.00007691      -0.22777791       0.01122324      -0.05564006
O        3.75395014       1.26414247      12.07081926      -0.98038878       0.21365205      -0.66419650      -0.33058473       1.72030735       0.20264347      -0.02720582      -0.09982179
C        2.58003289       1.70537366      11.42514111      -0.10031577       0.99157412       0.34346434       0.08474341      -0.96939814       0.14444017       0.01298985      -0.23147184
C        2.80009726       1.60651767       9.88237970       0.44132619       0.22311335      -0.45855686       0.61213583       0.98266929      -0.33805150       0.02320069      -0.09723665
F        3.36061928       0.44551427       9.59412697      -0.79515874       0.26003937      -0.15054647       0.13381344      -1.27882016       0.41057527      -0.01150129      -0.15554564
F        3.73262630       2.47670088       9.47179056       0.56020496       0.32803828       0.00627342      -0.03140956       0.95497340       0.00983450      -0.01159619      -0.21763881
F        1.73563960       1.76194239       9.08590917       0.18132127      -0.38776270      -0.39691281      -0.10740028       0.08429310       0.73434591      -0.01215061      -0.26281899
C        2.22530677       3.08870460      11.99893371       0.32593790       0.12394400      -0.26338152       0.56717789       0.47658852       0.95556521       0.02388316      -0.13753307
F        2.81773195       4.08392633      11.32003714       0.08055250      -0.64944048      -0.22626442       0.28691465      -0.06053825      -0.01779354      -0.01045732      -0.26410222
F        2.57737364       3.21808915      13.30556605      -0.60913016      -1.17424779      -0.10965975       0.39276138      -0.56981373      -0.89501429      -0.01152389      -0.24674237
F        0.93850148       3.32399431      11.98346809       0.58399425      -1.68061031       0.70225877      -0.81824726      -0.20632091      -0.50452930      -0.01038737      -0.18091786
H        4.03144523       0.43782406      11.71321744       0.20445218       0.13412505      -0.33255626       0.24381733      -1.12581491      -0.48142853       0.02172355      -0.05147535
H        1.77095545       1.02464504      11.68449032       0.07880254       0.15282853      -0.12669458      -0.41695574       0.09116783      -0.12055045       0.01371616      -0.04726457
O        2.37885675       6.99418242      11.17251655       0.00497848      -1.59500473       0.83581265      -0.97383392       0.53475499       0.62086320      -0.03104112      -0.06812811
C        1.98407642       7.57502919      12.41316853      -0.75975500       0.20474584       0.13511967      -1.14085233      -1.45194149      -1.22447622       0.00975662      -0.24888447
C        2.67444240       8.87470651      12.63160665      -0.14240076      -0.21857997       0.47169410       0.96171069      -0.01728646       0.42361403       0.02214670      -0.16773342
F        2.54180379       9.72738305      11.61668626       0.40210205      -0.59348312       0.74777933       0.07708824      -0.25320300       0.47337338      -0.01245557      -0.24407075
F        3.99297610       8.66386927      12.84142894      -1.50582746       0.39045236       0.61455018      -0.31499901       0.38458446      -0.39823422      -0.01236780      -0.23541510
F        2.15567892       9.43103668      13.74158789      -0.35753545      -0.47973838      -0.43778379      -0.00860661       0.59740067      -0.24927083      -0.00889031      -0.21893679
C        2.09766704       6.57907076      13.60769516       0.15809629       1.26107282       0.19715845       0.81772012      -0.66204244       0.08972972       0.02552885      -0.12082402
F        3.31171379       5.94038714      13.61899215      -1.15254820      -0.89501156       0.55053057      -1.07454193       0.60321164      -0.31238577      -0.01100586      -0.25871047
F        1.13540175       5.65212635      13.59677849       0.46163987       0.32620852       0.18903344       0.30217731       0.26458007      -0.61952609      -0.01008095      -0.24133892
F        1.98618092       7.16218247      14.81221412      -0.62063818      -0.25199620       0.55422493       0.01109339       0.21080793       0.01571773      -0.00385312      -0.20606738
H        3.20789433       6.51216365      11.18681936      -0.04576267      -0.15014666       0.14246161       0.36222821      -0.03979470       0.56424624       0.02038364      -0.08950470
H        0.90483589       7.84968449      12.28501089       0.24046738      -0.03152492      -0.01790598       1.05107903      -0.54554802       0.29259884       0.00956723      -0.01346799
O        4.09677840      14.79798877       7.00369542      -0.44981462       1.66214148       0.19103156       0.04785411       0.34775570      -0.10654484      -0.02529093      -0.07857689
C        4.61985217      13.59034747       6.57183162       0.07260286       1.05453780       0.57347259      -1.03664768      -1.13812733       0.28466693       0.00899358      -0.19952741
C        6.12927710      13.52656378       6.89816974       0.00539345       1.26244537      -0.43380181      -0.03841990       0.51693457       1.01569486       0.02240729      -0.11552705
F        6.27544218      13.28656272       8.21884368      -1.00819400       1.88920076      -0.21481750      -0.54440933      -0.18461336       0.21655767      -0.01541828      -0.24439749
F        6.88021516      14.61941317       6.69713053      -0.01791260       0.04275005       1.46331790      -0.74457526       0.07601181      -0.70526284      -0.01061669      -0.26752901
F        6.67658717      12.52342154       6.26747714      -0.88936667       1.59645960       0.32175875       0.48983276      -1.02107465      -0.94054788      -0.00992860      -0.24681540
C        4.23109742      13.32515019       5.10637836      -0.19032425       1.35045674      -0.16036398      -0.22108126       0.24959089      -0.49752811       0.02379562      -0.11310334
F        4.98146865      14.09445543       4.29480091       0.62255404       1.38267357      -0.26534297      -0.37456718      -0.37990540       0.00902267      -0.00804703      -0.27519161
F        2.91315073      13.67024807       4.90069002       0.03896627       3.08050889       0.52822756       1.16123903       0.07060416       0.17396532      -0.01088734      -0.23697585
F        4.32271830      12.03651922       4.73584257       0.18740243       1.47348131       0.48049476       0.43000671       0.53698838       0.70576054      -0.01147569      -0.22183813
H        3.51991631      15.17166112       6.32299345       0.06491687      -0.07124670      -0.07621149       0.01632232      -0.05483363       0.19686595       0.02571426      -0.03401647
H        4.12129628      12.70610294       7.09833632      -0.08088427       0.12743039      -0.08665351       1.01407254       1.13949823      -0.39875001       0.00875770      -0.01650061
O       11.74565222      13.11793697       8.80300090      -0.50985492       1.02334049      -0.16187492       0.67062336       1.53522313      -0.66051054      -0.02960815      -0.00560886
C       10.94628819      12.10525223       8.34647652      -0.83120269       0.51163694      -0.19799883      -0.38394985       0.38400871      -0.14144720       0.00903592      -0.24664670
C       11.58204933      11.44507477       7.11478761      -0.07860244       0.31686777      -0.09833315       0.51534629      -0.97883958       0.68287122       0.02147267      -0.12613496
F       12.62311164      10.62133609       7.38087827      -0.92513045       1.60664813      -1.92252143      -0.03956551       0.62806571       0.35075715      -0.01541871      -0.22232103
F       12.07555676      12.40925980       6.33718770      -0.34109766       0.81263174      -0.29065213      -0.10584096       0.22095992      -0.65405005      -0.00918915      -0.27842098
F       10.72299124      10.67348170       6.47548720       1.01941211       1.02356722      -1.81128816      -0.67122281      -0.00129262      -0.51267201      -0.01117124      -0.23075365
C        9.51804860      12.62760775       8.01380302      -0.24681807       0.91698575      -0.08986579       0.90903056       0.36750117       0.37725925       0.02218539      -0.11068456
F        9.41132674      12.89635451       6.71395465      -1.46557490       0.16293296       0.74140623      -0.58404952      -0.06272445      -0.10886187      -0.00833198      -0.22625929
F        9.31403870      13.80357799       8.65323557       0.54692796       0.42819275       0.24174905      -0.41286179      -0.95058507      -0.21195725      -0.01249651      -0.23605940
F        8.61837002      11.70037508       8.40142706       0.59617897      -0.28692957       0.19766348       0.00058645       0.68701386      -0.34423238      -0.01250247      -0.27848083
H       11.95993137      13.73477884       8.05838198      -0.04486871      -0.15643304      -0.07045232      -0.23056418      -0.64258504       0.91794056       0.02552921      -0.02667908
H       10.82886028      11.44600348       9.18484644       0.22556782      -0.05379023      -0.01112760       0.03153761      -0.81055421       0.14829727       0.01014083      -0.04099817
O       14.26129975       8.70891610      10.72802788      -0.02449441      -0.82916174       0.63764838       0.73692161       0.58350188      -1.24170554      -0.02468092      -0.03184865
C       12.97305438       8.75657919      11.22022498      -0.03226583      -0.76567343       0.18233797      -0.36408982      -0.20185465       0.74407470       0.01139452      -0.17121714
C       12.06246686       8.20364837      10.09747555      -0.53445536       0.70520373      -0.16723947       0.08308133       0.25663447       1.57112384       0.02243312      -0.11230647
F       12.32729471       6.91141713      10.01766735      -1.19060449       0.20732032      -0.36720470       0.02677733      -0.86412323      -0.15164219      -0.00995073      -0.23458904
F       12.41555921       8.74243728       8.97151877       0.32640992       0.45285760       0.10096722       0.17324096       0.85428393      -1.85225761      -0.00917170      -0.23199587
F       10.74752324       8.35209616      10.24363108       0.54236739       0.49631841       0.59908669      -0.19425178       0.27370968       0.28279305      -0.01116405      -0.26708770
C       12.77082104      10.13505626      11.84472651      -0.56125313      -0.42938682       0.31167662      -0.24349219      -0.01745059       0.38083801       0.02181554      -0.14256662
F       12.64202056      11.07064010      10.92312064      -0.22260815      -1.33785950       0.04478378       0.21593282       0.78603560      -0.90465546      -0.01058116      -0.25556290
F       13.82198428      10.43703135      12.63716024      -0.74977977      -0.83479599       0.64404211      -0.41657385      -0.22812445      -0.41071725      -0.01206160      -0.27880257
F       11.67694534      10.22550421      12.59064573      -0.08878860      -0.72211198      -0.40624182      -0.47442678      -0.36112478       0.41059706      -0.01138525      -0.25551757
H       14.37789515       9.37050127       9.99093014       0.22726211      -0.02176300       0.28367702      -0.18987389      -0.98021412       1.07880390       0.02301057      -0.04527503
H       12.86064257       8.05498274      12.05524134      -0.17506143       0.03888883      -0.06234896       0.22752154      -0.08076620      -0.06511091       0.01381388      -0.03712694
O        1.91456586      12.44817916       7.04295745      -1.03218382      -0.23768807       0.71201878      -0.69224632      -0.41948578       0.60623848      -0.02157709      -0.07909483
C        2.04890901      11.70880303       8.23861837      -0.07369229      -0.13218369       0.27741888       0.50398827      -0.12541552       0.19739449       0.01583705      -0.17795874
C        2.11105741      10.18662914       7.93126862      -0.03739479       0.32826158      -0.38266323       0.22491436      -0.76296461       0.52455473       0.02441533      -0.12241883
F        3.01658829       9.85564556       7.00016015      -0.99832524       0.22533243      -0.33074308       0.00480568       0.94161004       0.07701608      -0.01112622      -0.26226717
F        0.95795704       9.68851478       7.49473105      -0.18981501       0.02987214       0.04545870      -0.70887065       0.15160306       0.10869985      -0.00953892      -0.27780569
F        2.47001186       9.49631341       9.03812205       0.75572995       0.96457141      -0.57991029      -0.36581773       0.46395704      -0.15955834      -0.01217346      -0.25148031
C        1.04029246      12.20860675       9.36693964       0.22652244       0.52787757      -0.40060972      -0.57140344      -0.07144198      -0.05950762       0.02411335      -0.07580817
F       -0.19752776      12.31184377       8.87498853       0.34370044      -0.26758836       0.40720816       0.47198689       0.00822327      -0.51415712      -0.01159683      -0.22459006
F        1.39777611      13.42447899       9.80242684       0.43407140      -0.05767032       0.28666689      -0.09495964      -0.49117053      -0.37998030      -0.01091683      -0.21075596
F        0.89905079      11.45847823      10.47959590       0.80018673      -0.33978840      -1.09304257       0.96319377      -0.29013321      -0.71658379      -0.01055602      -0.21800375
H        1.06506774      12.26445956       6.58360587      -0.09289251      -0.11633881       0.18687270       0.56516355      -0.00867206       0.54613286       0.02598315      -0.05450457
H        3.06026638      11.89948653       8.64575886      -0.01359218       0.25263722       0.15787151      -0.42807025       0.23515369      -0.16270936       0.01404140      -0.02183151
O        9.13416839      11.68414647       4.28628695       0.72162453       0.91247918       0.23467448      -0.03627031       0.12710655      -0.01770917      -0.02875239      -0.10400364
C        8.95966537      12.74518998       3.41340455       0.87342362       0.42644270      -0.40968719      -0.33657116       0.99020827      -0.22407076       0.01154483      -0.26306987
C        7.76806422      12.50172230       2.46537225      -0.15572682       0.16390052      -0.15381454      -0.53049266      -0.20012888       0.69205564       0.02306722      -0.15836264
F        6.66755956      12.18735358       3.16660442       0.28472039      -0.17416652       0.99827999       0.45493132       0.34687570       0.02693686      -0.01278700      -0.21303481
F        8.01765648      11.46077917       1.65769360       0.19334867       0.68612303       0.44684255      -0.01851136       0.32543519      -0.03478910      -0.01189203      -0.25382242
F        7.47207934      13.60577567       1.74579313       0.59438454      -0.15093148       0.54349815       0.03415050      -0.30662078       0.34698299      -0.00935388      -0.21248363
C       10.21417244      12.98526783       2.55263589       0.02548041       0.36576405       0.00880403       0.04735061       0.54126298       0.40661705       0.02146083      -0.16271299
F       10.65517206      11.86035124       1.97730269      -0.64825861       0.05281283      -0.27697389       0.00414084      -0.33750656      -0.06547108      -0.00902298      -0.26796055
F       11.18910762      13.46904032       3.31694173       0.27689649       0.29482084      -1.45440920       0.36071494      -0.21647784       0.34095564      -0.01168145      -0.24182346
F       10.01469178      13.87228223       1.58042890      -0.06397235      -0.46460161      -0.37465748      -0.18967988       0.21157841      -0.22613403      -0.01084459      -0.24435048
H        9.48802784      10.93141946       3.80127054       0.13696718       0.05507054       0.04609422       0.00782484      -0.21188180      -0.03281020       0.02413236      -0.04239301
H        8.76066265      13.68639047       4.01393117       0.07978386       0.13928030       0.09041054       0.20064613      -1.07654488      -0.71251684       0.01377133      -0.05262237
O        6.74474843       3.49280027       9.11354412      -0.66762759      -0.57449903      -0.31140759       0.70806497       0.29614717      -0.72697258      -0.02701662      -0.08256204
C        6.31062413       3.76252936      10.40148993      -0.50116198      -0.09628084       0.67577128       0.41125903       0.29916164      -0.25944716       0.01302657      -0.30256763
C        5.75067228       5.21992190      10.47534206      -0.36598253      -0.84848007       0.12967660      -0.43990108       0.43997857      -0.14941840       0.02388934      -0.10345496
F        4.68552244       5.44189170       9.63221760       0.80547851      -1.60936187       0.86289108       1.25801337      -0.47517893       0.06757167      -0.01155582      -0.27265978
F        6.74121161       6.08708289      10.18516359      -1.81581648      -0.85303062       0.60265432      -0.54378092      -0.43005133      -0.23091590      -0.01091208      -0.22966574
F        5.27006730       5.59558226      11.66417551      -0.32767036      -1.65227493       0.09798569       0.18701713      -0.39216140       0.48140135      -0.00942984      -0.25366083
C        7.42913010       3.56150162      11.45815751       0.06817374      -0.14069657       0.86289700       0.37057221      -0.22485232      -0.34690076       0.02343563      -0.11685146
F        8.44059017       4.49652972      11.39952633      -1.06690999      -0.33736761       0.15247060      -1.09667063      -0.93501461       0.10136700      -0.01196256      -0.25606477
F        8.01201847       2.33977302      11.34864604       0.61423317       0.49493010      -0.45353103      -0.46106908       1.44012332      -0.16781569      -0.01277751      -0.22272870
F        6.84417164       3.63457217      12.64697031      -0.75317731      -2.03767471      -0.16791984       0.32785788       0.10072483       0.61248225      -0.00919661      -0.25190067
H        7.53054792       4.01820705       8.83370408       0.09845805      -0.30340365      -0.19225264      -0.76614600      -0.30586240       0.53495079       0.02470249      -0.05710098
H        5.53560044       3.01103265      10.60878088      -0.20233536       0.12848920      -0.02785082       0.14304107       0.50599402       0.23744263       0.01138586      -0.04962151
O       10.76528892       3.16415204      10.47334997       0.44752865      -0.60106356       0.66017025      -0.71632326       0.02856957       0.23160264      -0.02753567      -0.08913422
C       11.51815211       3.03544661      11.62228393       0.87617493      -0.75015172       0.20347500       1.79462588      -0.60202146      -0.76456785       0.01297673      -0.30146170
C       12.28286449       4.32817127      11.92254501      -0.11358590      -0.04828677       0.25405423       1.20851314       0.23192398       1.60531247       0.02103983      -0.16903774
F       11.43641376       5.36090434      11.99660774       1.00665316      -1.34352643       0.71337353       0.30298734      -0.32997414      -0.18569313      -0.01308049      -0.26580265
F       13.26658616       4.61185361      11.03794685       0.12050064      -1.79501855       0.24199217      -1.01861513       0.02893893       0.44116068      -0.01244912      -0.22704077
F       12.89528540       4.21856509      13.16655503       1.76026876      -1.05196812      -0.46591874      -0.57835448       0.12339117      -1.62696445      -0.01511787      -0.21719226
C       12.50397397       1.79649918      11.50853796       0.62628746      -0.12822043       0.37028340       2.02078676       1.05817187       0.23926482       0.02311260      -0.04044521
F       13.54082222       1.95752327      10.59891149       1.47390543      -0.59096183       1.02193406      -0.72478867       0.75936377       0.79568774      -0.01616266      -0.19956829
F       11.93244624       0.74073159      11.03511376       1.39776495      -1.37047368      -0.86004929      -1.57292008      -1.32465577       0.23201363      -0.00985702      -0.19175309
F       13.10654486       1.52210817      12.70244175       1.60532885       0.70326684      -1.11293409      -0.79237986       0.13177495      -0.86722529      -0.01209504      -0.26916969
H       11.27249681       2.95053518       9.69604734       0.31494110      -0.00314379      -0.04488066       0.46530920      -0.10163623      -0.49493921       0.02213887      -0.05468757
H       10.88087211       2.88156140      12.47210146       0.27131416       0.05618193       0.11355123      -0.46656448      -0.26511416       0.37695631       0.01178500      -0.05148174
O        6.26378067       6.96688178       7.69941333      -0.45501139       0.65617482       0.14111186       0.40035895       0.05041531       0.72713262      -0.02576558      -0.02763918
C        6.88501659       7.44584401       6.55630620      -0.20976052      -0.48194614      -0.17050107       0.00526466      -0.60150450      -0.50709981       0.01498703      -0.26676512
C        6.08221838       8.62358047       6.00680731      -0.43785889      -0.18129199      -0.45438518       0.50911582       1.94575310      -0.63926792       0.02287261      -0.12414417
F        6.02720682       9.50573033       7.02453232       1.18684990      -0.84997096      -0.20858357      -0.16403791       0.08971165      -0.06118860      -0.01434638      -0.24668686
F        4.82247357       8.42705610       5.60123269       0.08776402       0.63030402       0.40702001       0.55157572      -0.68535054       0.31353900      -0.00941314      -0.23666109
F        6.73340596       9.27621059       4.98725794      -0.40253811       0.39983988      -0.01706164      -0.36702433      -0.86151546       0.75117362      -0.01441158      -0.25898144
C        7.09535354       6.26890378       5.58182129      -0.83072947      -0.42932750       0.68985665       0.83739442      -0.11781758      -0.17469457       0.02402615      -0.15018496
F        5.95315662       5.62372467       5.39840286      -0.82548158       0.47683916      -0.81897696      -0.62941635      -0.23453568      -0.14713567      -0.00584022      -0.27056667
F        7.97169369       5.36847310       6.09901573      -1.00621543      -2.21136876      -0.17077026      -0.40842864       0.55973649      -0.02155747      -0.01256699      -0.26236457
F        7.57008321       6.62602270       4.37874160      -1.72574866      -0.17318870       0.59152667      -0.10314631       0.17671832       0.34975848      -0.01046907      -0.26819631
H        5.41884893       6.51603751       7.56676802       0.01782976      -0.01887191       0.09708791       0.12702551       0.12580019      -0.48616433       0.02620257      -0.05188381
H        7.88211683       7.86961353       6.82342474       0.18036633      -0.02515418      -0.21778074      -0.73080117      -0.37579843      -0.09676927       0.01379458      -0.04771959
192
Lattice="14.359344070576084 0.0 0.0 0.0 14.359344070576084 0.0 0.0 0.0 14.359344070576084" Properties=species:S:1:pos:R:3:momenta:R:3:forces:R:3:charge:R:1:energies:R:1 Built=T with=T Packmol=T charge=0 spin=1 external_field="_JSON [0.0, 0.0, 0.0]" energy=-18.723587036132812 stress="-0.002105133142322302 -0.00319800921715796 -0.00031472521368414164 -0.00319800921715796 0.0008300152258016169 0.0023241026792675257 -0.00031472521368414164 0.0023241026792675257 0.001230353256687522" dipole="-0.580532431602478 -0.3613996207714081 -0.9769891500473022" free_energy=-18.723587036132812 pbc="T T T"
O       13.39931369       5.88814773       6.98638667      -0.63102768      -0.66956674       0.06226599       0.08187598      -0.01748057       0.21042167      -0.02566860      -0.08444458
C       12.65351298       4.72040442       6.78894151       0.68088689       0.28280240      -0.29254233      -0.32885289       1.03063905       0.23456791       0.01525252      -0.21952520
C       11.15847293       4.99238401       7.07836307       0.20715657      -0.24628600      -0.11828133      -0.56173724       0.23043260       1.02072382       0.02333304      -0.12919724
F       10.67419432       6.07146499       6.45991537      -0.00033369      -0.54343727      -0.55675810       0.57808679      -0.23586197      -0.94179839      -0.01237665      -0.24485916
F       10.95898157       5.30566611       8.38046953       0.37087739      -0.52728083      -0.93344902       0.37026942      -0.76072240       0.25337216      -0.01231048      -0.25654536
F       10.37713288       3.94397446       6.77429845       0.56905522       0.22841477      -0.59085848       0.35158241       0.12195829       0.01013488      -0.01042030      -0.27673548
C       13.33845655       3.51108737       7.43534028       0.05813924      -0.12502183      -0.86644516       0.41894573      -0.67653108       1.57085252       0.02504144      -0.07340957
F       13.83947597       3.68675698       8.73039021       0.43337346      -0.17379966      -0.99956421      -0.52345341       0.47339588      -2.46645546      -0.01311799      -0.22542584
F       14.32031124       3.18814268       6.58960431      -0.63982655       0.20251356      -0.16328302       0.51389045      -0.02819380       0.66054988      -0.00881111      -0.22344550
F       12.56801475       2.41615345       7.55211642       0.46052848       1.13210076      -0.19887715      -0.47067773       0.17200781      -0.19521786      -0.00956767      -0.26914960
H       13.39530087       6.19221093       7.91420641      -0.09771843      -0.09363424      -0.00390790      -0.18246578      -0.42171419      -0.32161021       0.02304973      -0.06873664
H       12.73931363       4.47089698       5.73640334       0.00521583       0.12605652       0.04783911      -0.22555254       0.18199481      -0.30654815       0.01512230      -0.01406186
O        2.04102423       9.25448565       2.22823825       0.45623308       0.78677820       0.48799054      -0.02989858       0.00757351      -0.13503025      -0.02911244      -0.19962549
C        3.04668474      10.16909007       2.56823896      -0.28226512      -0.35256261       0.16289897      -0.35427424       0.16055726      -0.40492335       0.01204904      -0.24693540
C        2.76517853      11.59196369       1.94170794      -0.22125797      -0.00123180      -0.44704819      -0.04698753      -0.53907031       1.18750393       0.02278437      -0.11120967
F        1.46806549      11.86059825       2.18857486       0.45174453       0.28907981      -0.33353500       0.61531323       0.39745373       0.39609426      -0.01196376      -0.25481844
F        2.92551018      11.70550040       0.66061605       1.00047077       0.47794179       1.01263125       0.21859159      -0.52401811      -1.95350003      -0.00837454      -0.22056527
F        3.57803201      12.53047424       2.45952929      -0.14372734      -0.61215331      -0.23023113      -0.64967078      -0.06439775       0.37750351      -0.00939772      -0.20187792
C        4.38618291       9.58533486       2.12752825      -0.14280576       0.07285584       0.59617964       1.26599193      -0.35307777       1.10942662       0.02350935      -0.11097804
F        4.35154089       8.95990879       0.93515188      -0.77896496       0.62707748       0.17597794      -0.22211796       0.28334147       0.68092585      -0.00811701      -0.24655899
F        4.87940119       8.69509236       3.03524851      -0.05653464       1.12305266      -0.43012252      -0.90499407       0.01610081      -0.65765238      -0.01252306      -0.23733333
F        5.30061816      10.53494850       2.08443762      -0.31664318       0.56180400      -1.13547645       0.30728832       0.54611468      -0.61184162      -0.01066412      -0.21488337
H        2.32000517       8.73037814       1.44934171       0.12600233      -0.05389017       0.20936462      -0.24443337       0.44773069       0.50386256       0.02187222      -0.03813071
H        3.04393980      10.32856756       3.66461835      -0.08234114       0.04865352      -0.03271505       0.15558356      -0.16889910      -0.56911439       0.01144432      -0.06045373
O        7.52611711      12.84284283      13.71849428      -0.17455207      -0.15940559       0.12901741      -0.46825463       0.26937345       0.01465921      -0.02848722      -0.10107644
C        7.88142982      13.08292345      12.41014649      -0.68695071       0.44551382       0.24034053       1.97607315      -1.39747036      -0.14942203       0.01133601      -0.21038608
C        9.38166029      13.57856871      12.32420226      -0.25586498       0.63941926       0.15917486      -0.14294849       0.62060457       0.47337267       0.02191970      -0.13774392
F       10.11287103      13.04537533      13.31567294      -1.29912075       0.50205598      -0.51366115      -0.48264739       0.08040877      -0.18900651      -0.01354584      -0.25795364
F        9.50990239      14.93237436      12.41833131      -0.14370367       0.33975066      -0.62140660      -0.22609437      -0.71193969       0.15041041      -0.01279955      -0.26538581
F        9.95879454      13.20546445      11.18898632      -0.50211659       0.08034725      -0.74085347      -0.18252411      -0.15381016      -0.35301682      -0.01223873      -0.23245989
C        6.86850538      13.91074488      11.68877956      -0.13892684       0.53216377       0.60806490      -0.75146365       0.29023808      -0.21701767       0.02426582      -0.12459549
F        6.42332027      14.91870494      12.47664930      -1.03900574      -0.15486712       0.66998572       0.55319893       0.24883233      -0.40023103      -0.00824470      -0.24407889
F        5.76045657      13.17756125      11.47030784       0.28098996       0.94335733      -1.33700540      -0.22444397      -0.34765443      -0.25149611      -0.01192002      -0.27344200
F        7.29403233      14.34542272      10.50606558      -0.38926152       1.01940410      -0.07144469      -0.04864058       0.23547886       0.54001224      -0.01033274      -0.23572692
H        7.08080479      13.61890529      14.09620015      -0.01528133      -0.06972432       0.02418925       0.23544058      -0.22293511      -0.08350238       0.02592863      -0.02502042
H        7.93199367      12.09688576      11.88393131      -0.07346005       0.10595404      -0.03907511      -0.19741191       0.65538114       0.30162841       0.01177716      -0.03211519
O       13.62500757       8.85821599       1.59967407      -0.03271470       0.28525507       0.47783844      -2.54965353      -0.77630866      -0.02723347      -0.03307021      -0.10581244
C       12.57765519       9.13738893       2.52108591      -0.21484780      -0.78239555       0.67352595      -0.07491159       0.69495726      -1.03755820       0.01267856      -0.23032525
C       12.97559999      10.35003723       3.35167962       1.29138356      -0.15114490       0.22540280       1.10232723      -0.50153750       0.72448671       0.02353360      -0.12662031
F       13.47062102      11.27993818       2.53135473       0.64958413       1.40977368      -1.87927145      -0.59816968       0.09705095       0.35963988      -0.00964770      -0.22394130
F       13.96858440      10.02452543       4.22905298       0.42480675      -0.21796544      -2.77068260      -0.10028557       0.21738403      -0.35832545      -0.01450908      -0.27459142
F       11.99602404      10.85136701       4.09340038       1.22257574       0.75451436      -0.69047677      -0.31524044       0.01669418      -0.26033098      -0.00814601      -0.24215920
C       12.22916599       7.86813708       3.29372771       0.19023316       0.45463836      -0.32507281      -0.80607152      -1.64831507       0.32323289       0.02430788      -0.12145963
F       13.06253597       7.51704345       4.28562942       0.60280258       0.10521993      -1.54081023       0.01807447       0.31594932      -0.73576552      -0.01061825      -0.25988328
F       12.16594908       6.84473639       2.39891100      -0.00710013       0.18914914      -0.24143263       0.60690016       0.24856499       0.09959619      -0.01324180      -0.25036293
F       10.99153531       7.84853359       3.83665642       0.95115419       1.46199355      -1.73383993       0.10749495       1.03817272       0.06307238      -0.01406146      -0.25258863
H       14.41690558       9.26513471       1.88888012       0.05789746       0.10372195       0.21888312       1.75073528       0.70304459       0.60850292       0.01931128      -0.06402093
H       11.64540583       9.47900831       1.99055245       0.22808135       0.21654490       0.01771826       0.78573418      -0.61232662       0.17268653       0.01301483      -0.04644942
O       10.97355367       4.43272105       0.66645146      -0.11172179      -1.04990114       0.00386877       0.03572522      -0.59767807       0.96265721      -0.02705576      -0.08665290
C       10.75375581       3.23015249       1.41416837      -0.08328221      -0.60134551       0.48815707      -0.30609757       1.83489835      -0.36749795       0.01317653      -0.22061153
C        9.59538018       3.47743751       2.38258839      -0.01470367      -1.06878070       0.45411870      -1.28242052      -1.43362260       0.58053547       0.02420847      -0.11222760
F        8.53095262       3.97989097       1.74538929       0.10929772      -0.75305582       0.47578165       0.45072487       0.48746952      -0.03597604      -0.00942681      -0.26150310
F        9.86371499       4.24213484       3.46000769       0.19361158      -1.65862471      -0.65371726       0.39111546       0.21754451      -0.81419742      -0.01063545      -0.27507800
F        9.16163090       2.30000132       2.89093166       0.71659998      -0.99600396      -1.27684224       0.22661562      -0.16307719      -0.03991768      -0.01216476      -0.23960343
C       12.03014356       2.71670991       2.10466537       0.32476695      -0.50773645       0.68817513      -1.01699090      -1.13038003      -1.40591872       0.02419354      -0.11809058
F       12.66410639       3.65178417       2.76968497      -1.04072680      -0.79574692       0.08271161       0.41333383       0.19237728       0.43547374      -0.00618697      -0.27813309
F       12.79650284       2.26936819       1.07931391      -0.23450967      -0.09609363       2.22571632       0.24846141       0.02990843       0.99092668      -0.01054810      -0.24686292
F       11.73929987       1.66707560       2.92919786       0.56298260       0.19990523       0.19027965       0.64461714       1.04710329      -0.56564063      -0.01099642      -0.24430896
H       10.90454343       5.17709589       1.28021710       0.13495614      -0.06874549       0.10498213       0.25018492       0.18929948      -0.16583651       0.02297803      -0.05820664
H       10.46314891       2.53756325       0.62437718      -0.14181595       0.00840332       0.09628132      -0.18703035      -0.52112925       0.59902668       0.01333988      -0.03759696
O        8.93966318       7.23555486      12.04680594       0.04278613      -0.05799414      -0.66260100       1.41089785       0.73202616      -0.73961943      -0.03057143      -0.04529457
C        8.72275173       8.53418157      12.50158725       0.07399454      -0.60556696       0.38507689      -0.00158982      -0.96571034       0.26672474       0.01098863      -0.26287544
C        9.41842961       8.68508985      13.88688070       0.67388523      -1.05800466       0.78930942       0.16997404      -0.45858240      -0.91144115       0.02248401      -0.12524031
F       10.58726431       7.98710716      13.88813782      -1.05756239      -0.37356761       1.16516309       0.00383926       0.97746247      -0.38550386      -0.01432734      -0.26652065
F        8.75043256       8.13529418      14.87856546      -0.37919392       0.56007554       0.72826918      -0.91449392       0.22408295       0.76393563      -0.00894884      -0.26199856
F        9.63443064       9.98691300      14.11885435       1.10326815      -0.70708929       0.92160921       0.11389092      -0.38105026       0.45095024      -0.01228839      -0.25511512
C        7.21253752       8.78837037      12.48383248       0.06820929      -0.84782963       0.19876919      -0.06613846       0.43897325       0.01893112       0.02383105      -0.13794897
F        6.55028715       7.88270303      13.23285875       0.67099546      -0.33565056       0.36635157       0.26893988       0.19090140      -0.37546590      -0.00992512      -0.27613008
F        6.73434322       8.73918248      11.22933044       1.33737867       0.01701772       0.62142888       0.21585140      -0.36863324       0.22184913      -0.01314146      -0.27049541
F        6.92302393      10.00536929      12.93198103       0.50041850      -0.92817594       1.08881136      -0.07624290       0.40504798       0.52519447      -0.01113991      -0.26568890
H        8.23708590       6.63842744      12.23826536      -0.12548250      -0.08004671       0.03797826      -0.99721575      -0.59291852       0.40087256       0.02252023      -0.05330309
H        9.21839488       9.25374894      11.83791881       0.01750994      -0.03506752       0.00071882      -0.20582016      -0.19655204       0.02606470       0.01092777      -0.05990914
O        3.74273579       1.27970765      12.10174677      -0.67709407       0.23036403      -0.76270112       0.95176739      -0.49872598      -0.24215613      -0.02826345      -0.12199220
C        2.59062625       1.74258774      11.48255092       0.04711725       0.41774311      -0.07248961      -0.20522486      -1.52137601      -1.40941167       0.01095523      -0.19492958
C        2.83278690       1.63306722       9.90601261       0.48593361       0.71810765      -0.39846945      -0.33371174       0.78693026       0.47209233       0.02356307      -0.08067994
F        3.35632158       0.44635489       9.63413734      -0.62954788      -0.30551051       0.04710267       0.44035676      -0.83169353       0.41443387      -0.01084057      -0.16560926
F        3.76288113       2.50126509       9.51221412       0.53460084       0.72040134      -0.06060043      -0.03170307       0.67059684      -0.27656299      -0.01020601      -0.23501709
F        1.74790017       1.76059644       9.11947958       0.21893616      -0.28111801      -0.03702258       0.26815891       0.34527120       0.71114504      -0.01311162      -0.26393619
C        2.25175928       3.10964924      12.05063195       0.43642724       0.18072917       0.25961206      -0.15041323      -0.33205077       0.92218173       0.02369720      -0.13456035
F        2.83387793       4.08568710      11.36294059       0.23088202      -0.52606952      -0.22171316       0.31221083       0.50148094       0.05869793      -0.00881582      -0.27448681
F        2.57622682       3.19905606      13.35497493      -0.30198127      -1.32869234      -0.46643192       0.82077640      -0.12837611      -0.47457555      -0.01118006      -0.24407254
F        0.95205341       3.29486659      12.04942098       0.15242316      -1.63378416       0.38754227      -0.80379242       0.28246972      -0.69721520      -0.01115943      -0.17448691
H        4.11966852       0.51125166      11.61014451       0.00138432       0.34338153      -0.19061376      -0.56905001       0.74565482       0.54956752       0.02230569      -0.04605878
H        1.73492408       1.08481313      11.67943855      -0.22410189       0.08135812      -0.08585426      -0.05700055       0.11825518       0.07278688       0.01272556      -0.04739746
O        2.38379272       6.97918092      11.25136382      -0.25593372      -1.38062933       1.17716249      -0.02386622       0.16828388       0.83040470      -0.03116063      -0.10301819
C        1.96871903       7.59892320      12.46256394      -0.10974306      -0.63250573      -0.25424727       1.65621018      -1.31450260      -0.36500919       0.00998290      -0.27193242
C        2.68699279       8.90338519      12.70617429       0.08850857      -0.26825781       0.43040626      -0.27255476      -0.24395901      -0.53268635       0.02195907      -0.16661699
F        2.56317009       9.75302363      11.68807311       0.38746746      -0.63925126       0.86109686      -0.09877669       0.03416890       0.01791754      -0.01339813      -0.25244874
F        3.97201059       8.71270829      12.91065990      -1.32957268       0.45880577       0.48653161       1.03206086      -0.07994509      -0.06138641      -0.01001853      -0.22913319
F        2.15501319       9.46360574      13.78952317      -0.43487768      -0.13188200      -0.37853386      -0.29404226       0.73905581       0.40303564      -0.00922957      -0.22864673
C        2.11782815       6.64508459      13.67572084       0.29349171       0.44696840       0.26629667      -0.27613050      -2.23277998       0.16206862       0.02561356      -0.08820443
F        3.29030187       5.94824917      13.68967705      -1.55284646      -0.43743480       0.37418065      -0.48149139       1.05123067      -0.33373746      -0.00997758      -0.25263014
F        1.15416817       5.68775450      13.65617112       0.60164086       0.57358605      -0.12755814       0.20758519       0.62152529      -0.63297457      -0.01312263      -0.23227045
F        1.97930898       7.18872037      14.89042126      -0.55338343      -0.05639074       0.55150103       0.22359507       0.52524787      -0.04285919      -0.00287263      -0.20167975
H        3.21435287       6.47949070      11.36521292      -0.05956691      -0.05819935       0.35922715      -0.35668641       0.33552077       0.19711272       0.02073842      -0.08287780
H        0.95471585       7.84874202      12.34140955      -0.30477742      -0.04582454       0.00284728      -1.21278977       0.04587295       0.04607270       0.00962105      -0.02105667
O        4.10272736      14.91298839       7.03973229      -0.30053183       1.62997068       0.17265487       0.18215568      -0.12863640      -0.33490005      -0.02688484      -0.09862733
C        4.63508069      13.68784269       6.61879307      -0.16737699       1.10832215       0.13162146       0.30773422       1.62264264      -1.94690275       0.00925884      -0.18820894
C        6.15252654      13.63722131       6.92343591      -0.22337691       1.18378111       0.24883381      -0.79121548      -0.78395355       1.43557942       0.02266438      -0.08377171
F        6.27323039      13.39068186       8.25045231      -1.24563180       1.70973368      -0.06300485      -0.49265161      -0.42115670       0.40978929      -0.01640439      -0.23741026
F        6.90629406      14.68677810       6.75783672      -0.19443624       0.39740547       0.95406214       0.00289192       1.30961418      -1.21420968      -0.00817260      -0.24075878
F        6.68573881      12.61190991       6.29661893      -0.63301250       1.08934682      -0.14507799       0.40320072      -0.79161572      -0.81056440      -0.01081550      -0.25521812
C        4.24164768      13.43897207       5.11920544      -0.13031316       1.37444055      -0.22319683       0.42662498      -0.09314409       0.28487954       0.02437632      -0.09109964
F        5.01590099      14.18803134       4.30692058       0.35928765       1.14781205      -0.21723110      -0.61314505      -0.44740409       0.13806273      -0.00790104      -0.27702489
F        2.93436462      13.80813824       4.93599637       0.62834966       2.99725656       0.54535117       1.16517437      -0.17739971      -0.08725501      -0.00942690      -0.24309132
F        4.34805610      12.13105188       4.77298843       0.29951513       1.86337741       0.80363013       0.05631512       1.06734765       0.61496228      -0.01228686      -0.22850192
H        3.54121303      15.22466658       6.31847293      -0.05299980       0.04819369      -0.04543180      -0.13601820       0.27741820       0.31698132       0.02483569      -0.02197082
H        4.18057376      12.87904774       7.09659815       0.10879446       0.11564084       0.10622064      -0.43819535      -1.34915924       1.17786467       0.00907824      -0.03153995
O       11.78238769      13.20999077       8.83548008      -0.48728044       1.08849353      -0.07787048      -0.28009266      -0.42603445       0.16501477      -0.03029285      -0.04033219
C       10.96168767      12.17820613       8.37682916      -0.57186794       0.40855651      -0.00186953       1.36940956      -0.61032391       0.58921802       0.01021240      -0.21921596
C       11.63100013      11.50183822       7.14490858      -0.05218862       0.16852562      -0.02452760      -0.48222992       0.46118811      -0.46258420       0.02175316      -0.10726149
F       12.65556049      10.71064921       7.36709221      -0.68434867       1.68240743      -1.53828312       0.98136067      -0.23872674       1.06918371      -0.01326760      -0.20557430
F       12.11798218      12.48527537       6.35343605      -0.40921545       0.93098408      -0.53636442      -0.20662172       0.26977602      -0.34363532      -0.01160884      -0.28377527
F       10.79042300      10.74572768       6.45410710       0.60088332       1.00422041      -1.96745699      -0.90423888       0.01253471      -0.20034304      -0.01210919      -0.22672176
C        9.55709436      12.71784380       8.05079747       0.11067986       0.71443424       0.24178139       0.45158279      -1.03613007       0.75588393       0.02283504      -0.10652623
F        9.41082244      12.95625557       6.76031267      -1.68740103       0.18945215       0.57977922      -0.38172117       0.15606603      -0.39655253      -0.00779431      -0.22839418
F        9.36504760      13.86887017       8.69557579       0.27446427       0.05896999       0.16017943      -0.63848823      -0.50179666      -0.07209034      -0.01055578      -0.22830255
F        8.67096291      11.74883076       8.44056506       0.60149252       0.16829086       0.03445562       0.04974185       1.09166467      -0.27742621      -0.01449265      -0.27537033
H       12.00135840      13.73689570       8.07257660       0.06498457       0.06563553      -0.16943452       0.33378190       0.66903102      -0.38199583       0.02417498      -0.02342729
H       10.96295923      11.42541935       9.19492401       0.08495341      -0.11594435      -0.18001987      -0.53792036       0.45027545      -0.55306846       0.01004061      -0.05086976
O       14.32543010       8.71702169      10.79367044       0.11854609      -1.29482079       0.84345338       0.02116608      -1.25924671       0.74390388      -0.02476306      -0.02532357
C       13.02382529       8.76687356      11.27972649      -0.20327196      -0.49313606       0.31905824      -0.21635054       0.74066538       0.26520973       0.01239770      -0.19511129
C       12.09825307       8.26632484      10.14831745      -0.15661683       0.54258301       0.44083462       1.25972366      -0.78017509       0.60701716       0.02283050      -0.11501636
F       12.34979439       6.94272234      10.05043032      -1.18003038      -0.01832449      -0.43348011      -0.04771329      -0.01714160      -0.12331018      -0.01212145      -0.24484581
F       12.47788129       8.79691496       9.00229743       0.32142769       0.81892333      -0.62183210      -0.22020379       0.56371111      -0.83952498      -0.01051147      -0.26402363
F       10.80496243       8.40325393      10.30476926       0.27077033       0.69841808       0.70761067      -0.73741621       0.56325191       0.21405558      -0.00881767      -0.25443876
C       12.80418527      10.15962399      11.90985030      -0.42173383      -0.52599787       0.31839717       0.63929158      -0.29700777      -0.29081434       0.02236741      -0.13013518
F       12.69220011      11.08883613      10.96602815      -0.10775967      -0.95940777      -0.33773609       0.23732801       0.57307154      -0.57670814      -0.01087744      -0.26722795
F       13.85936117      10.45923403      12.70533704      -0.97069381      -0.91796268       0.40909487      -0.51258498      -0.16399644      -0.49373168      -0.01232198      -0.28182167
F       11.72065361      10.24889192      12.63790906      -0.46319206      -0.86664100      -0.10965313      -0.97128552      -0.27437261       0.69656318      -0.00969749      -0.24940845
H       14.53823030       9.40617474      10.17537131       0.19932817       0.19791135       0.11457849      -0.12885237       0.67343283      -0.46489453       0.02141235      -0.06078624
H       12.86807072       8.06597651      12.09966765      -0.00778598      -0.15197950       0.04443532       0.40053377      -0.24821001       0.06409986       0.01385836      -0.04244787
O        1.88917076      12.49194236       7.10059653      -1.05061818      -0.38007081       1.08634850       0.22006759      -0.20686354       0.73201668      -0.02286721      -0.11890940
C        2.06057165      11.75645955       8.28809265       0.15375360       0.05862203       0.39349409      -0.14724113       0.61325610       0.07210992       0.01527715      -0.17501558
C        2.12078734      10.23624378       7.95713592       0.05721754      -0.02596599       0.00984730       0.09936628      -0.48834506       0.92195785       0.02496066      -0.10773582
F        3.00455419       9.90979641       7.02156749      -0.91277046       0.66808000      -0.37232562       0.26339215       0.85442644      -0.24292731      -0.01016854      -0.25582021
F        0.95337775       9.73259649       7.52928601      -0.45205370       0.17149211       0.14613129      -0.35042727       0.41142043       0.32084674      -0.01055100      -0.28123143
F        2.49756844       9.56448448       9.06133003       0.54810044       1.11028010      -0.61908346      -0.39543980       0.11650596       0.03676930      -0.01166822      -0.25410134
C        1.04825719      12.27867163       9.39216872      -0.03937173       0.25126998      -0.30469610      -0.36855417      -0.93779027       0.34476075       0.02421237      -0.09254295
F       -0.18729271      12.35874000       8.92003808       0.47688620      -0.18469629       0.10385120       0.05447436       0.28714114      -0.69197768      -0.01069439      -0.23164178
F        1.41413604      13.47787947       9.84932413       0.35423115      -0.27796766       0.06416897      -0.21697029      -0.40947753      -0.49100098      -0.00997974      -0.21149436
F        0.92942848      11.49746164      10.49250001       1.23414309      -0.46045885      -1.37478679       0.82910603      -0.26966810      -0.44946009      -0.01140715      -0.23499939
H        1.03978952      12.25804667       6.72591236      -0.14606444      -0.13361963       0.19222663      -0.48972949      -0.01221157      -0.33434349       0.02475538      -0.04856694
H        3.01040344      12.06735535       8.72134852      -0.17607900       0.17667097      -0.00138265       0.33508477      -0.33718935      -0.18435967       0.01408847      -0.02740704
O        9.19616050      11.76247410       4.31008051       0.76551269       0.90439371       0.07700215       0.11859188       0.16224705      -0.40434846      -0.02971633      -0.09520046
C        9.02693706      12.82462214       3.41128514       0.48451164       0.56013034      -0.45002546      -0.86279863      -1.39028561      -0.60710740       0.01133608      -0.27759233
C        7.79328988      12.56021223       2.47994279      -0.16036034       0.05913118       0.39742593       0.49822810      -0.22341987       1.31316376       0.02349179      -0.14428024
F        6.70706288      12.23790391       3.20533136       0.55872940       0.03025882       0.91828884       0.60902524       0.44908661      -0.21608514      -0.01281982      -0.22603871
F        8.05669716      11.52927351       1.67567881       0.13935887       0.76900874       0.38055982      -0.18861558       0.08572292      -0.15146816      -0.01173923      -0.25422081
F        7.51883417      13.65931721       1.76880370       0.49424835      -0.21282599       0.62923384      -0.38817641       0.03302914       0.07877590      -0.00840382      -0.21795473
C       10.26055225      13.05908260       2.56494994       0.10809378       0.43696686      -0.02593029       0.26365134      -0.27691522      -0.55864078       0.02189167      -0.16660661
F       10.68438967      11.91124631       1.97881169      -0.64523462      -0.04097991      -0.24220536      -0.04207686      -0.00522243       0.19774210      -0.01090624      -0.27126479
F       11.24733816      13.53359378       3.29665437       0.51511378       0.22099046      -1.19465453       0.58782512      -0.06594925       0.59362203      -0.01062884      -0.23567438
F       10.05487385      13.92191434       1.57603877      -0.16697915      -0.30171091      -0.49333889      -0.20901763       0.41968113      -0.26758385      -0.01079701      -0.24224788
H        9.58442557      11.00501541       3.84925138       0.07837449       0.08142541       0.09136075      -0.10298633       0.06043353       0.03184586       0.02342695      -0.04825173
H        8.85427170      13.69810112       3.99106351       0.10508762      -0.15765590      -0.15174518      -0.29726887       0.88929981       0.43887207       0.01382615      -0.04668935
O        6.75400877       3.49021298       9.14148443      -0.83499132      -0.66862543      -0.28171893      -1.46436882      -0.63650918       0.83166450      -0.02803288      -0.03461203
C        6.32473914       3.77806832      10.46729683      -0.06395893       0.07955099       0.27511630       1.24390101       0.43509182      -1.13241661       0.01265558      -0.27229828
C        5.75880665       5.21261465      10.52529376      -0.37236475      -0.61012935       0.13315924       0.43517661       0.39851028       0.19204943       0.02306512      -0.14614327
F        4.73215541       5.42112754       9.69492221       1.13883406      -1.79631677       0.71558431       0.09745038      -0.38449213      -0.63472730      -0.01022932      -0.27683091
F        6.72162862       6.08967598      10.24282039      -1.87679212      -0.92371661       0.45141403       0.20741764       0.15178674      -0.34033304      -0.01147259      -0.23804221
F        5.28499257       5.57484492      11.72086624      -0.29493488      -1.80605145       0.42839434      -0.06682568      -0.34437490       0.84681082      -0.01016488      -0.26547936
C        7.46410045       3.56793977      11.53373602      -0.01284547      -0.30400666       0.31222194      -0.70260239      -0.35453635      -1.59776700       0.02375429      -0.10061103
F        8.44337873       4.50228175      11.45389414      -1.48712196      -0.66814798       0.27577190      -0.64035165      -0.38228998       0.38598481      -0.01071011      -0.26812476
F        8.05959389       2.37079706      11.38521503       0.40564082       1.07149358      -0.48776037      -0.32035458       0.84818548      -0.03755545      -0.01223218      -0.22928298
F        6.85647222       3.59883773      12.70260762      -0.56951518      -1.92087060       0.29693009       0.39431483       0.22203900       1.10524416      -0.00875596      -0.25086495
H        7.56227772       3.89014240       8.84656262       0.05974723      -0.18889630       0.05558014       0.75831109       0.70590311       0.30127603       0.02374161      -0.06532282
H        5.48968393       3.12046312      10.67171535      -0.08656763       0.19003806       0.10037849       0.16772395      -0.34712210       0.25407472       0.01114220      -0.05348969
O       10.82738804       3.15673456      10.53308394       0.69941598      -0.80409306       0.26761790       0.68610990      -0.42058843       0.01033480      -0.02806407      -0.12530172
C       11.61783282       3.01510479      11.67624014       1.41616730      -0.81678795       0.12060684       0.15192151       0.18160830       0.64915979       0.01256800      -0.25919661
C       12.34681694       4.34133930      11.99775453       0.69464306      -0.35697565       0.82715373       1.73323274      -1.39480972       0.63674241       0.02108232      -0.16189437
F       11.51218409       5.34904853      12.06570265       0.99340719      -1.29668226       0.64272868      -0.22297144       0.35519835      -0.03653910      -0.01118997      -0.27087304
F       13.32070129       4.58681285      11.09398948      -0.32998751      -1.63291441       0.38510480      -0.71580207       0.50789434       0.11186617      -0.01335120      -0.23802349
F       12.99201334       4.21089898      13.20208885       1.41738785      -0.92922356      -1.10651753      -0.58678746       0.29388180      -0.86078906      -0.01438223      -0.23148215
C       12.60145225       1.80474314      11.57038457       1.41327192       0.02781706       0.09733196       0.98833269      -0.40316504      -1.31379294       0.02380160      -0.07368285
F       13.63225294       1.95572278      10.67503913       1.08816458      -0.19767247       1.28385251      -0.63457590       0.78861314       0.24625562      -0.01546371      -0.19660527
F       12.01168423       0.70389662      11.06384009       0.83168035      -1.57603629      -0.52587460      -0.61564344       0.37624529       1.04212868      -0.01385348      -0.22579978
F       13.19944520       1.54673172      12.72534058       1.22807378       0.65669789      -1.24303799      -0.54737890      -0.29286826       0.35976988      -0.00929585      -0.25594938
H       11.42410899       2.98733078       9.78313109       0.02629028       0.12246343       0.27502593      -0.40958831       0.16086607      -0.00545883       0.02190175      -0.04402493
H       11.00358909       2.88023099      12.59529580       0.09272839      -0.11574250       0.05397494       0.02267573      -0.33733681      -0.82549250       0.01134874      -0.04377619
O        6.28160544       7.01816792       7.74194899      -0.11958049       0.73690869       0.43023618       0.64554679       0.16183351       0.28078839      -0.02572517      -0.04470290
C        6.90616356       7.45409866       6.57248939      -0.30480073      -0.66410788      -0.43074132      -1.09469712      -0.37372646      -0.61900800       0.01504068      -0.24534389
C        6.09962000       8.67070515       6.01035106       0.08029186       0.57317568      -0.56413168       1.37480783       0.84541309       0.22089621       0.02312450      -0.11130692
F        6.08231563       9.52566740       7.04919937       1.05376124      -0.75656213      -0.21517975      -0.27461362       0.28951687       0.04294029      -0.01449776      -0.24222226
F        4.84755109       8.47521580       5.63715384       0.19185072       0.29099290       0.47739082      -0.06033180      -0.61353552       0.01316412      -0.00874227      -0.24443138
F        6.74974738       9.32103809       5.01246274      -0.56604026      -0.00748786       0.26505830      -0.24990517      -0.66353506       0.29224563      -0.01324303      -0.26450837
C        7.10133175       6.27577776       5.62894016      -0.38328563      -0.58863035       0.36813054       0.69533074      -0.53242713      -0.99538535       0.02419337      -0.14231108
F        5.95313433       5.65814412       5.40047899      -1.16295161       0.29165220      -0.78699164      -0.71510899      -0.45951265       0.21289775      -0.00621828      -0.26620662
F        7.97652114       5.33961026       6.12042371      -1.30527988      -1.76349199      -0.21706724      -0.80558962       1.05162334      -0.16402169      -0.01300098      -0.26617077
F        7.55830089       6.65116934       4.41572963      -1.67427663      -0.09218410       0.82194129       0.23883495       0.14805864       0.53015351      -0.01158052      -0.26160294
H        5.45542096       6.54283826       7.58550528       0.03064656       0.00683380      -0.14317529       0.07902110       0.05994419      -0.35604510       0.02584466      -0.05088114
H        7.89712700       7.84570529       6.75398586      -0.17283879      -0.16372313      -0.13066594       0.20166411       0.15855457       0.54623675       0.01371113      -0.04413222
192
Lattice="14.42638142401513 0.0 0.0 0.0 14.42638142401513 0.0 0.0 0.0 14.42638142401513" Properties=species:S:1:pos:R:3:momenta:R:3:forces:R:3:charge:R:1:energies:R:1 Built=T with=T Packmol=T charge=0 spin=1 external_field="_JSON [0.0, 0.0, 0.0]" energy=-18.9127197265625 stress="-0.0034502511844038963 -0.0012489226646721363 -0.0006414295639842749 -0.0012489226646721363 0.0007883203215897083 0.0019902000203728676 -0.0006414295639842749 0.0019902000203728676 -0.0022012784611433744" dipole="-0.14828872680664062 -0.4949985146522522 -0.4033567011356354" free_energy=-18.9127197265625 pbc="T T T"
O       13.44500193       5.89703979       7.02161099      -0.41177125      -0.47421248       0.09032432       0.71867406       0.82475126       0.21296959      -0.02502915      -0.12423402
C       12.73211459       4.76066985       6.81141806       0.17075555       0.48347018      -0.23043795      -1.55521595      -0.39427051      -0.53965598       0.01376757      -0.18566649
C       11.21508411       5.00852068       7.11414839       0.06195307      -0.09512382       0.16942750       0.00863720       0.33100447       0.04078849       0.02291222      -0.12764294
F       10.72780742       6.08426033       6.47032436       0.29312702      -0.65838094      -0.93997964       0.59973019      -0.25911453      -0.62031287      -0.01352396      -0.25914556
F       11.02172297       5.31245784       8.39821738       0.50526432      -0.83901333      -0.67024992       0.16740571      -0.51413119       0.80712354      -0.01052910      -0.26480678
F       10.44214500       3.96835980       6.79082239       0.69680299       0.20783146      -0.57126375       0.20438682      -0.17381389       0.05146332      -0.01029413      -0.27820274
C       13.40643259       3.51936029       7.45163289       0.19058121      -0.16384618      -0.05840234       0.07138532       0.58255529       1.28341281       0.02444157      -0.07608814
F       13.91214738       3.70269881       8.73066399       0.20635397       0.08288287      -2.06553381      -0.31787959       0.56868923      -1.77536452      -0.01296580      -0.24922761
F       14.37560516       3.20728261       6.61876445      -0.19864447       0.09774033      -0.01448078       1.16120851      -0.36372188       0.01841605      -0.00826731      -0.22718464
F       12.63436704       2.45600119       7.58085091       0.08731560       1.00652402      -0.30540694      -1.01181233      -0.61819333      -0.21095797      -0.00833601      -0.26537907
H       13.39675720       6.14907884       7.94859618      -0.13261859      -0.14799352       0.06654590       0.05660208       0.14374745       0.33722326       0.02296014      -0.05372521
H       12.77984485       4.55885216       5.73232483      -0.07399267       0.12922609      -0.12473898      -0.11198241      -0.06991287       0.18812999       0.01407005      -0.02110436
O        2.06115164       9.32176976       2.25507284       0.14393403       0.76014463       0.62850179      -0.97537434      -0.40627724       0.20771044      -0.02618227      -0.21785225
C        3.04880303      10.20829756       2.58102654      -0.22319184       0.03560832      -0.17073223       0.64003313       1.20905292      -0.81725270       0.01161196      -0.22913522
C        2.77075044      11.63976691       1.94714580      -0.08618767      -0.30815096       0.27147106       0.55792540      -0.56278270       1.23008406       0.02268930      -0.10044289
F        1.48954911      11.92582801       2.19257755       0.64479819       0.46531074      -0.15145357       0.23462223       0.32362378       0.33351529      -0.01122121      -0.26126575
F        2.96591998      11.76890675       0.67528362       1.04603667       0.18629957      -0.14043608      -0.00082476      -0.67261118      -2.24398327      -0.00857912      -0.21247669
F        3.58724161      12.57316842       2.46833993      -0.42068523      -0.59828263       0.05507656      -0.48454252       0.05297159       0.75698167      -0.01043054      -0.20062464
C        4.41255034       9.63267632       2.16774843       0.37184975       0.14269788       0.73837373       0.58041120       0.71721280      -0.59241480       0.02411450      -0.11730669
F        4.35040551       9.01949259       0.94906848      -0.87286563       0.73407574       0.58371563      -0.17801411       0.17464192       0.95465732      -0.00996695      -0.24908793
F        4.89601242       8.76347094       3.03572039      -0.36935208       0.96863783      -0.55562012      -0.31064630      -0.61818826       0.19361629      -0.00877795      -0.24032077
F        5.31837230      10.60121414       2.06190623      -0.24534125       0.72559492      -1.31957250       0.04451088       0.17890872      -0.19906726      -0.01114347      -0.22872266
H        2.37383316       8.75070071       1.55175900       0.06625904      -0.10479971       0.08390387      -0.15783183      -0.23216750      -0.41966611       0.02225883      -0.02764041
H        3.04078699      10.38649062       3.64272766       0.01336512       0.01008737      -0.01852378       0.18906575       0.03071274       0.55627882       0.01122737      -0.05048924
O        7.55362433      12.89783999      13.78540950      -0.28784333      -0.21203878       0.02854149      -0.14431390      -0.18658873      -0.27351025      -0.02825134      -0.09194304
C        7.91020508      13.15326747      12.47734457       0.24398599       0.18654710       0.24910067       1.40755832       0.51804328       0.18857664       0.01189749      -0.22705771
C        9.41291615      13.67122382      12.38871250      -0.36750887       0.70598391       0.08305553      -0.28437269      -0.36436528      -0.69831818       0.02241519      -0.12574163
F       10.12444278      13.11967765      13.36408528      -1.41680657       0.53146388      -0.52122349      -0.06964421       0.07386071       0.12508219      -0.01231254      -0.25302565
F        9.54930173      15.00687976      12.46140599      -0.23781514       0.05991366      -0.52458121      -0.17709625      -0.36346525       0.19931875      -0.01124082      -0.26726440
F        9.99023591      13.26896354      11.22210993      -0.69354086       0.09158569      -0.65675874      -0.59576309       0.19802189       0.58016729      -0.01485116      -0.23760980
C        6.88716510      13.99976636      11.76235915      -0.48898529       0.61463417       0.26143091      -0.45000476      -0.04141861      -0.93234569       0.02424941      -0.11745551
F        6.43005158      14.98643031      12.54971583      -0.76227760       0.02276707       0.47854814       0.48301300       0.44881701      -0.34859318      -0.00738370      -0.25242069
F        5.79325973      13.26117782      11.48854078       0.17805579       0.76508015      -1.36410842      -0.19604194      -0.31459731       0.04383057      -0.01265049      -0.26813236
F        7.31779477      14.43992843      10.55851264      -0.40453042       1.10439755       0.38688390      -0.04412605       0.22275633       1.19463408      -0.01205599      -0.23587602
H        7.11536977      13.65598758      14.18028444      -0.00307962       0.00752951       0.07006677       0.01501347       0.20654023       0.08444067       0.02546448      -0.03044591
H        7.91883085      12.23107715      11.93636182      -0.10608206       0.07084279      -0.03439960       0.09857434      -0.81292135      -0.31039724       0.01226185      -0.03065917
O       13.68252108       8.90835994       1.62644275      -0.03943241       0.40062922       0.87419678       0.97271729       0.41885662       0.98567700      -0.03609667      -0.08202292
C       12.63548656       9.16126075       2.55012477       0.36117818      -0.05469007       0.20732449       1.94537473       1.77203035      -0.76283109       0.01065864      -0.19935907
C       13.09170793      10.39041170       3.37601152       1.19366014      -0.15204204       0.00279307      -1.54181433       0.52448559      -1.60341620       0.02417208      -0.07211091
F       13.54562102      11.36630001       2.49943978       0.26723075       1.08743088      -1.41971168      -0.83413196      -1.17305267       1.28867793      -0.01339282      -0.22691043
F       14.04765191      10.06688685       4.17857756       0.79698392      -0.14026999      -2.51043482       1.70967638       0.03766737       1.28144324      -0.00772699      -0.24842545
F       12.08281594      10.92117668       4.09316433       1.20703925       0.70694532      -0.79906551       0.32137838      -0.18369798      -0.22240852      -0.00965212      -0.25050890
C       12.28632548       7.90560061       3.29758057      -0.14930220      -0.39219363      -0.28896420      -0.35990867      -1.34796119      -0.29078364       0.02431107      -0.14032172
F       13.13919654       7.55674480       4.26231686       0.61052355       0.23738701      -1.75834557       0.05516308       0.16322258      -0.21092807      -0.01000931      -0.27479506
F       12.22632517       6.88297986       2.40432708       0.27377155       0.27824729      -0.21717704       0.49987426       0.04204967      -0.04796380      -0.01348189      -0.25513285
F       11.06650908       7.92882758       3.81179416       0.80913511       1.87911095      -1.51216690      -0.67554164       0.71566087       0.72683406      -0.01192716      -0.25356966
H       14.52385069       9.33036851       1.98730498      -0.15726493      -0.16383000       0.01770044      -1.04566920      -0.91032523      -0.78250426       0.01994544      -0.06020488
H       11.81555712       9.56056462       1.99952798       0.06345205      -0.02529154      -0.08625146      -1.14063752      -0.27767107      -0.47364962       0.01271160      -0.04154377
O       11.02154611       4.41816410       0.67862730      -0.09895415      -1.25513158       0.56962478       0.01629943      -0.74194413       0.80447996      -0.02676277      -0.11399511
C       10.79722907       3.23782401       1.43791449      -0.26549677       0.15261279       0.37108308      -0.54397416       0.80611968      -0.10287007       0.01192926      -0.22102487
C        9.62932210       3.44078542       2.41307967      -0.42691005      -1.36143733       0.37303555      -0.25519148       0.34884095      -0.82153779       0.02331047      -0.14416829
F        8.57642597       3.98162004       1.76581640       0.31658652      -0.57308965       0.48155601       0.34143880       0.18421726       0.07995046      -0.01121671      -0.27243307
F        9.91707563       4.22113097       3.45614381       0.35940231      -1.47926711      -0.81511178       0.26083571       0.35979253       0.09139359      -0.01072489      -0.28905249
F        9.22313383       2.28203576       2.87276713       0.68002494      -1.30816618      -1.11001672      -0.35738266      -1.22520566       0.63961017      -0.00868758      -0.23976715
C       12.08478110       2.70046016       2.12716018      -0.47016202      -0.78755498      -0.05413488      -1.87912416       0.24361844      -1.23573232       0.02345199      -0.12488712
F       12.70013207       3.65112290       2.78869348      -0.72389565      -0.53578106       0.41028312       0.63667530       0.62721050       0.73169935      -0.00802188      -0.28540248
F       12.85355831       2.27660194       1.14526464       0.09299670      -0.20737826       2.36435588       1.03889167      -0.49609527      -0.33580977      -0.00907423      -0.25253010
F       11.81201390       1.68459949       2.94586539       0.78425522       0.46601341       0.10482379       0.22816649       0.02630075       0.20262411      -0.00948322      -0.25674972
H       11.05034604       5.16420131       1.29304628       0.24617765      -0.08512399      -0.07120982       0.18137698       0.14864202      -0.11700192       0.02274037      -0.06284022
H       10.43473227       2.48977989       0.72671817      -0.13833938      -0.21861364       0.27476258       0.24660692      -0.12725925       0.16803902       0.01282644      -0.04130730
O        8.98401890       7.26476591      12.08018449      -0.03299126      -0.37563519      -0.76045600      -0.30096772      -0.73326278      -0.05721087      -0.03086182      -0.09133837
C        8.76734306       8.54191023      12.57822089       0.11712127      -0.91938519       0.51458814       0.04973617      -0.44996366       0.34635711       0.01006602      -0.24103019
C        9.48593913       8.68407858      13.97309965       0.33465629      -0.83131501       0.25138953      -1.49302006       1.19093633      -0.96018678       0.02249089      -0.12606782
F       10.61233834       8.01881580      13.98072482      -0.71359938      -0.14609164       0.98585030       1.29237247      -0.07546097      -0.27816063      -0.01070864      -0.26464039
F        8.77594133       8.18845887      14.97185895      -0.78410586       0.59461192       1.09981842      -0.67419505       0.01688486       0.63710684      -0.00972590      -0.27216932
F        9.70829135      10.01164173      14.21078012       1.11494594      -1.02881719       1.06053046      -0.01933099      -0.93913341       0.14832141      -0.01496909      -0.25872490
C        7.25118996       8.80294614      12.55217589       0.23663782      -0.37703854       0.33542425       0.66495639       1.23090160       0.53781009       0.02420243      -0.13173918
F        6.59882343       7.91108741      13.30186980       0.67844564      -0.34847646       0.19946773      -0.16165693      -0.21918462      -0.29262745      -0.00895362      -0.27848774
F        6.80078256       8.77778965      11.29857331       1.33850934      -0.19226035       0.65772507      -0.08458186      -0.44549924       0.00367885      -0.01196154      -0.27245417
F        6.96788066      10.02979690      13.02308938       0.47462171      -0.82641365       1.25977442       0.01589872      -0.01031491       0.24768201      -0.01269490      -0.27419817
H        8.24304732       6.67152947      12.31987443       0.14433815       0.18061797       0.01357085       0.61197120       0.34672406      -0.10491776       0.02312481      -0.04559107
H        9.24272342       9.25683870      11.90783857      -0.07660797      -0.10233813       0.05774615      -0.01430218       0.09878848       0.02836392       0.01055313      -0.05591018
O        3.74261132       1.29531324      12.13813116      -0.53337169       0.45908040      -0.47927049       0.40955001      -0.06566636       0.21586588      -0.02832700      -0.17008720
C        2.59842976       1.75346616      11.51893619      -0.28398657      -0.18592897      -0.75270768      -0.50636405      -0.40256804      -1.26023841       0.00982584      -0.15336140
C        2.86089249       1.67372965       9.94177433       0.21969585       0.78972548      -0.10435609      -0.59137982      -0.43781355       0.58895814       0.02455595      -0.06165303
F        3.35875745       0.43777423       9.68315505      -0.38965290      -0.41661870       0.27117613       0.47680336       0.36798495       0.49354705      -0.01191637      -0.17399077
F        3.79374299       2.53491675       9.55299361       0.47451038       0.93923798      -0.22453647      -0.24017052       0.23207693      -0.33951810      -0.00875261      -0.24298345
F        1.76398238       1.76444490       9.16548987       0.40995941      -0.03140314       0.29442033       0.48289940       0.64838964       0.62249726      -0.01308461      -0.25961059
C        2.27617759       3.12509405      12.12275750       0.19653444      -0.19822708       0.39406071      -0.70261735      -1.08175528      -0.50351441       0.02349476      -0.10314153
F        2.85466282       4.09492789      11.41134636       0.33078039      -0.22856319      -0.10208225       0.05639018       0.56010759       0.47581396      -0.00870101      -0.28295720
F        2.58638588       3.17990815      13.40389400       0.17841364      -1.27170528      -0.50887377       1.07784486       0.23391895       0.24794298      -0.00891722      -0.23960313
F        0.95617615       3.27097943      12.11126340      -0.13945076      -1.36358525       0.05191284      -0.35778630       0.69130862      -0.60928267      -0.01213368      -0.17667224
H        4.14572575       0.63957287      11.56287971       0.10936063       0.05012762      -0.28819741       0.16788031      -0.37940857       0.13211721       0.02198446      -0.03128563
H        1.68448885       1.15875468      11.69512970       0.02658224       0.17412649      -0.07518818       0.43086728      -0.18955418       0.04740075       0.01224673      -0.04240242
O        2.38682760       6.97120704      11.34577509      -0.26740378      -1.25504312       1.51877997       0.14258315       0.08882591       0.55076265      -0.02997740      -0.16460502
C        1.97324107       7.60304173      12.50998200      -0.36108291      -0.75601836      -0.15626351      -1.11978054       0.35972467       0.99842280       0.00841887      -0.24564643
C        2.69525664       8.93105679      12.77608165      -0.38525675      -0.41241119       0.07314964      -1.30317807      -0.27728450      -0.69465768       0.02152974      -0.15990971
F        2.58412164       9.78289459      11.76379154       0.29073252      -0.55251482       0.73050425      -0.28730711       0.23763798      -0.47651893      -0.01361548      -0.25377399
F        3.96553282       8.76380696      12.98376502      -0.53600702       0.31504420       0.52518891       1.80877125      -0.45330116       0.19198658      -0.00903939      -0.21742579
F        2.15185047       9.50867433      13.84718479      -0.58874399       0.17512330      -0.13811444      -0.33843973       0.44452366       0.43203539      -0.01072772      -0.24138068
C        2.13356215       6.67294953      13.75175539      -0.07358726      -0.52543396       0.31794895      -1.05465484      -1.36178005       0.03777659       0.02503825      -0.07480611
F        3.26527965       5.97079150      13.76140142      -1.45735204      -0.00530027       0.24332333       0.79340690       0.60007453      -0.16386332      -0.00731636      -0.24677905
F        1.17515087       5.73220769      13.71292434       0.54215705       0.75919337      -0.39747826      -0.51819640       0.04207549      -0.45428655      -0.01333910      -0.22883101
F        1.97613926       7.22425187      14.97321785      -0.39250967       0.20169462       0.44693747       0.36726907       0.44807974      -0.35803795      -0.00506623      -0.22279181
H        3.18997537       6.49474947      11.59043226      -0.03729351      -0.05744897       0.29549036       0.26680872      -0.21802922      -0.43201524       0.02141462      -0.04696764
H        0.87139527       7.83195347      12.42764299       0.17874759      -0.20210121       0.12898076       1.46023250      -0.29042503       0.21919270       0.00873218      -0.01646546
O        4.11364586      15.03105521       7.07404793      -0.20421914       1.48960229      -0.06203314       0.50533152      -0.44912639      -0.19228120      -0.02680100      -0.10553014
C        4.65011290      13.80653757       6.64136288      -0.24578069       1.34334244      -0.32904020      -0.54748088      -0.59784663       0.24105568       0.00930304      -0.17983027
C        6.16438642      13.73851929       6.97735832      -0.56860301       0.62697406       0.70776534      -0.43371019      -1.09036338       0.28051883       0.02290901      -0.10943367
F        6.26757548      13.49408201       8.29034293      -1.44142408       1.43241230       0.18287582      -0.38024452      -0.59075928       0.58473277      -0.01461459      -0.23531941
F        6.93436018      14.77482456       6.80602803      -0.11951757       1.10624302       0.33697244       0.10084335       1.32729113      -1.15075195      -0.00841943      -0.23827796
F        6.70224064      12.69540511       6.31856463      -0.54568166       0.87772714      -0.36701411      -0.11004838       0.00411414      -0.06260731      -0.01296061      -0.26919702
C        4.26158890      13.55538205       5.13976709       0.15368511       1.22242253       0.11658624       0.64080060      -0.34588379       0.95571405       0.02449862      -0.10380094
F        5.04469128      14.28114604       4.32230113       0.06307147       0.93732040      -0.14953276      -0.53060573      -0.32462311       0.12212761      -0.00785165      -0.27763855
F        2.97092069      13.94820050       4.97194822       1.10549080       2.82628783       0.43313170       0.81447816      -0.31655949      -0.30273110      -0.00871556      -0.24967040
F        4.37582263      12.24256948       4.81935687       0.25780351       2.36933712       1.03677108      -0.17557627       1.04013586       0.39992180      -0.01260944      -0.23657674
H        3.52827705      15.34445778       6.37981314      -0.08081086       0.14896363       0.15009482      -0.25243333       0.22878078       0.07121772       0.02452673      -0.02869499
H        4.23612404      12.92597425       7.24579697       0.13134210       0.07702362       0.16346327       0.43036932       1.16149843      -0.98089480       0.00917738      -0.02590395
O       11.82220538      13.30469418       8.86892220      -0.47669468       1.05688997      -0.48904873      -0.07289666      -0.53598166      -0.43829450      -0.03011957      -0.02501380
C       11.00624365      12.24860931       8.41614782       0.27192253       0.35730478      -0.14326052       1.67244625       0.47778055      -1.10142732       0.01169615      -0.22559857
C       11.67590452      11.57081915       7.16888578      -0.42891966       0.63768260      -0.50876852      -0.74486148       1.18502510      -1.36983597       0.02236314      -0.07672513
F       12.70469358      10.80096259       7.36962780      -0.05925342       1.39481875      -0.89959403       1.27383399      -0.64236403       1.33346343      -0.01246986      -0.19374146
F       12.16243555      12.56901596       6.36787278      -0.53894069       1.02548761      -0.61110143      -0.36369932       0.17924079      -0.01486220      -0.01345672      -0.28090644
F       10.85065908      10.82206454       6.43342334       0.17129641       1.02982817      -1.91241564      -0.78306890       0.18642879       0.30551848      -0.01269936      -0.22430013
C        9.60874140      12.79373727       8.10359500       0.18769491       0.07112663       0.42617747      -0.08401024      -1.29339528      -0.11605763       0.02313381      -0.11306189
F        9.40977685      13.02272293       6.80480752      -1.74977947       0.27172970       0.45089781       0.02835839       0.15568690      -0.02183036      -0.00939527      -0.23472184
F        9.41163397      13.93284621       8.74032092      -0.05346481      -0.09242837       0.17803671      -0.64768773      -0.19662164       0.14126191      -0.00977868      -0.22169255
F        8.72713781      11.81495112       8.47960773       0.60443415       0.69072792      -0.03869341      -0.01371547       0.97490627       0.00599353      -0.01500373      -0.27379107
H       12.08840852      13.82782126       8.09198876       0.02095850      -0.02947041       0.16711120      -0.08871657      -0.12117175       0.35958621       0.02429610      -0.03361780
H       10.98881645      11.46049399       9.14083656      -0.17283988      -0.01990390      -0.08695725      -0.35966012      -0.11730754       0.83698577       0.01075041      -0.05274521
O       14.39723098       8.71766947      10.86824633       0.17973086      -1.17848803       0.65263171      -0.28508696       0.14323324      -0.13177416      -0.02520062      -0.02822480
C       13.07628598       8.79244820      11.34983369      -0.13746274      -0.31659691       0.53697904       0.56505233       0.06372919       0.28358635       0.01370845      -0.22735813
C       12.16083899       8.31759760      10.21415889       0.41092510       0.05903997       0.33230592       0.76795626      -0.99333924      -0.91742450       0.02359461      -0.12575848
F       12.37689655       6.97622519      10.08562753      -1.17108942       0.15843801      -0.46324262       0.03560366       0.65861082      -0.02895718      -0.01299343      -0.24600676
F       12.54210388       8.86130921       9.02658410       0.11084740       0.92964761      -0.61171389      -0.56647503      -0.05493341       0.78788054      -0.01303370      -0.27752411
F       10.85840917       8.46425597      10.37227038       0.01472704       0.98537638       0.78187607      -0.10882661       0.61341751       0.12759046      -0.00860722      -0.24850720
C       12.85317751      10.18344217      11.97460623      -0.13293134      -0.59525216       0.11977829       0.31458879       0.06351508      -0.40823114       0.02360397      -0.13352580
F       12.75021522      11.11836738      11.00616800       0.01293177      -0.80877178      -0.46245519       0.24968359      -0.04536889       0.05881630      -0.01158144      -0.27639431
F       13.89599848      10.48361623      12.77201731      -1.18511124      -0.96091647       0.16154879      -0.39310616      -0.06775202      -0.47014120      -0.01103868      -0.27621943
F       11.75763183      10.27288108      12.69803054      -0.87258204      -0.97083205       0.16235403      -0.58586514      -0.22975768       0.30110288      -0.00936455      -0.25464925
H       14.64488757       9.49541795      10.33373260      -0.06032787      -0.10603786       0.40148129      -0.31548697      -0.30867729       0.26007691       0.02123838      -0.06799744
H       12.96502671       8.04051138      12.15265835       0.12877292      -0.05497719      -0.08440567       0.04865677       0.32775623      -0.20937082       0.01403779      -0.04365274
O        1.86283392      12.53642280       7.16881164      -1.32694570      -0.51951957       1.10077195      -0.69166446      -0.14935973      -0.29820612      -0.02417962      -0.12160649
C        2.07118436      11.81881333       8.34210558      -0.10663798       0.28191878       0.35176827      -0.19727078       0.33063370       0.02471504       0.01403289      -0.16859977
C        2.13276096      10.28124328       8.00284938       0.00629763      -0.02709429       0.36206232      -0.35244706       0.49712291       0.38034216       0.02500451      -0.08855440
F        2.99701361       9.97826111       7.04305364      -0.74985587       1.03098396      -0.49634541       0.28859302       0.69309103      -0.20712811      -0.01030144      -0.25938812
F        0.94495235       9.78533798       7.57075969      -0.50283843       0.39950174       0.36214387       0.11809047       0.50666910       0.57108682      -0.01199817      -0.28648695
F        2.52112144       9.63703861       9.08900917       0.38615692       0.98719910      -0.46502851      -0.20427211      -0.55456638       0.57085490      -0.00977894      -0.25091806
C        1.05040797      12.33607976       9.42721776      -0.02409374      -0.24503062      -0.12820480       0.46174762      -0.92999560       0.31043437       0.02393925      -0.10926442
F       -0.17655188      12.41374517       8.95983088       0.38715391      -0.01950351      -0.24656909      -0.32856315       0.33409557      -0.69619495      -0.00963114      -0.23809522
F        1.42807106      13.53114918       9.89382802       0.19556565      -0.46554118      -0.17623555      -0.41291055      -0.39510059      -0.47314575      -0.01065975      -0.21531761
F        0.97006799      11.53722751      10.50441230       1.53757495      -0.63044646      -1.44009978       0.47672737      -0.47904107       0.10430515      -0.01043457      -0.25097170
H        0.98469549      12.27387223       6.83269844      -0.01281362      -0.00454467       0.14227802       0.35392725       0.30717081      -0.09972069       0.02457675      -0.04128950
H        3.02104543      12.16736845       8.75749519       0.14817312      -0.01552628      -0.01405734       0.20937534      -0.54765475      -0.13470300       0.01366806      -0.02448103
O        9.26254972      11.84800328       4.33004026       0.75115099       1.09935616      -0.08912993       0.03715724       0.31135216      -0.42840108      -0.02982277      -0.09242444
C        9.08005422      12.89082459       3.40439939       0.03228684      -0.07843441      -0.48689602      -0.99984175       0.21089830       1.18444788       0.01160284      -0.26758987
C        7.83041309      12.61924850       2.51901252       0.22979599      -0.02901960       0.87176551       0.90492284      -0.10034551       0.46701801       0.02386360      -0.15526456
F        6.75633682      12.29858466       3.24265025       0.81442237       0.23741221       0.81758102       0.46178401       0.38158447      -0.09502212      -0.01177971      -0.23452605
F        8.09639370      11.60308787       1.69254184       0.01172593       0.76210342       0.32902884      -0.30614802      -0.05452642      -0.00930564      -0.01219394      -0.25234789
F        7.56368085      13.71811602       1.79375687       0.24682088      -0.16833346       0.66986350      -0.52836907       0.06896600       0.20293200      -0.00924362      -0.22414137
C       10.31551606      13.13269900       2.56818427       0.22840485       0.14099607      -0.42712409       0.16529199      -0.75429767      -0.88341302       0.02242254      -0.16876875
F       10.71747500      11.96648431       1.98345147      -0.64383917       0.03399350      -0.10504592       0.04201303       0.25687510       0.29371572      -0.01200258      -0.26808235
F       11.31658537      13.60214863       3.28508028       0.75522915       0.19147450      -0.89821804       0.33392960      -0.09343037       0.45788714      -0.01036302      -0.24119925
F       10.09641524      13.98205445       1.56913616      -0.23848951      -0.06900407      -0.60023068      -0.07393271       0.47242406      -0.18647951      -0.01073731      -0.24579161
H        9.66722931      11.08341552       3.89864207       0.08299311       0.02791946       0.02782508      -0.04981028       0.06457853      -0.07711138       0.02323313      -0.05115482
H        8.90374287      13.81794933       4.00636835      -0.04013620       0.21785457       0.03044526      -0.01296104      -0.66948098      -0.53874570       0.01353371      -0.04533351
O        6.75406570       3.48445448       9.18171011      -1.02634864      -0.66031754       0.11766787       0.36372149       0.46164078       0.90885735      -0.02777857      -0.08573877
C        6.36204986       3.80113077      10.51716945       0.34450358       0.10111222      -0.16666044       0.13317119      -0.52377033      -0.45838597       0.01163842      -0.23439828
C        5.77715429       5.21487935      10.58315531      -0.01126359      -0.50213339       0.32389017       0.82915610      -0.01436369       0.56218821       0.02246962      -0.15412953
F        4.78155548       5.39811691       9.75322011       0.88027285      -1.92229081       0.25036537      -0.96222597      -0.26229176      -1.11825430      -0.01000903      -0.26246360
F        6.70786789       6.09703621      10.29999015      -1.54094748      -0.63685871       0.26966753       1.00703371       0.93897045      -0.34878343      -0.01096687      -0.23259643
F        5.30140387       5.55237859      11.79208987      -0.34632817      -1.93320687       0.83664675      -0.11120391      -0.30806836       0.74923992      -0.01110605      -0.28250545
C        7.48857588       3.56966572      11.58469712      -0.53952530      -0.38890883      -0.40346466      -1.25400102       0.06767715      -1.03101969       0.02389890      -0.11687545
F        8.44179422       4.50530019      11.51718115      -1.63151520      -0.65954719       0.48776921      -0.09864732       0.35628021       0.46623302      -0.01008241      -0.26581681
F        8.10609090       2.41265391      11.42548342       0.29612739       1.21605387      -0.51601563      -0.12040887      -0.21170950      -0.15004066      -0.01081722      -0.22426750
F        6.87670301       3.56778509      12.77557063      -0.32504449      -1.76941748       0.69428674       0.56917703       0.26311800       0.36539569      -0.01058338      -0.26601335
H        7.63875556       3.85866119       8.96848299      -0.05062267      -0.10052266       0.28807321      -0.77964008      -0.16866834       0.35866705       0.02433457      -0.05910375
H        5.50342730       3.17459181      10.78923054       0.07371915      -0.01930530       0.14499936       0.53165793      -0.29863057      -0.11099785       0.01069752      -0.04530702
O       10.90118153       3.14507332      10.59857882       0.88740328      -0.90954497       0.77999830       1.50092018      -0.31698990       0.00671705      -0.02946967      -0.11919859
C       11.72776197       2.99873507      11.74122267       1.27745558      -0.66396649       0.27823892      -0.21745610       0.23680665      -0.56897014       0.01149663      -0.25976190
C       12.44588834       4.33136469      12.08908688       1.18117979      -1.11900286       0.77606447       0.01385293      -1.42974460      -0.80454391       0.02095662      -0.15973321
F       11.59007376       5.34296950      12.13870415       0.88889216      -1.12227675       0.65784401      -0.00924223       0.09893926       0.12981845      -0.01274486      -0.28814745
F       13.37132436       4.57020818      11.15525970      -0.50140538      -1.27944729       0.29911790       0.01177553       0.77924579      -0.45707196      -0.01309419      -0.24543583
F       13.08660076       4.20862848      13.23305844       1.26437950      -0.76430805      -1.11750640       0.16105431       0.28467354       0.84994763      -0.01075520      -0.23307344
C       12.72125994       1.80758739      11.61258576       1.39701514      -0.33780660      -0.68709603      -0.98205000      -0.88573313      -1.47234201       0.02339627      -0.07424910
F       13.72127130       1.96456474      10.75718850       0.94095960       0.16413454       1.10817090       0.21203814       0.66072929      -0.98473299      -0.01193662      -0.19605303
F       12.08719913       0.67165132      11.10946668       0.73863345      -1.08660847       0.08017936       0.23229381       1.36087060       1.29492509      -0.01763341      -0.23883328
F       13.29031317       1.56793010      12.75798986       1.07144083       0.38241854      -0.72520673      -0.05670541      -0.77079642       1.51549530      -0.00788902      -0.23271097
H       11.52031240       3.05992185       9.84226484       0.11525617       0.12543996      -0.18715884      -0.71308881       0.17020142       0.23441067       0.02117926      -0.04647724
H       11.10166814       2.79933866      12.59470798       0.05627045      -0.26979276      -0.19545649      -0.40980285      -0.31930482       0.26674363       0.01131262      -0.04800276
O        6.31041748       7.07357045       7.79037191       0.03949212       0.70472287       0.26715235       0.10144069      -0.18680160      -0.90722078      -0.02643701      -0.10415301
C        6.91366215       7.46008174       6.58127324      -0.75674813      -0.63435014      -0.54873096       0.45512438       0.83448756       0.40478837       0.01399362      -0.18646136
C        6.14395330       8.73649508       6.02093876       0.62905955       0.50307302      -0.21450259       0.62724072      -1.05085254       1.10858786       0.02338736      -0.10680361
F        6.13608806       9.55323134       7.07717901       0.90910179      -0.52197313      -0.15316329      -0.22635664       0.60887665       0.18988802      -0.01361844      -0.24054393
F        4.87444960       8.51894194       5.67546360       0.14450530       0.05484921       0.44017878       0.01872385      -0.32360399      -0.08390741      -0.01044638      -0.26276827
F        6.76610077       9.36146351       5.04270398      -0.55968983      -0.17641480       0.18880571       0.27587104      -0.01988288      -0.59015352      -0.01005070      -0.26430827
C        7.12265724       6.27571580       5.65964150      -0.27944476      -0.82660713      -0.14210262      -0.32817823      -0.32466862      -0.88399190       0.02456079      -0.12816246
F        5.94703276       5.68886807       5.40736818      -1.42835189       0.03085720      -0.61027667      -0.42738128      -0.58580011       0.42195418      -0.00758691      -0.26462579
F        7.97498199       5.32614940       6.14219373      -1.68499025      -1.19842839      -0.31427485      -0.78714770       1.07810688      -0.24246925      -0.01171472      -0.27195275
F        7.55305815       6.68071441       4.46019044      -1.41482197      -0.02786300       0.98108375       0.71278751       0.10313828       0.08415340      -0.01079589      -0.25321776
H        5.51197137       6.58723774       7.53641671       0.08390578       0.04288696      -0.14282378      -0.07096571      -0.02414731       0.34649199       0.02519953      -0.03528722
H        7.92413689       7.84356579       6.79330304       0.07544635      -0.01750364       0.12608199      -0.30533007      -0.03634616       0.15036726       0.01308432      -0.03717034
192
Lattice="14.50514906688301 0.0 0.0 0.0 14.50514906688301 0.0 0.0 0.0 14.50514906688301" Properties=species:S:1:pos:R:3:momenta:R:3:forces:R:3:charge:R:1:energies:R:1 Built=T with=T Packmol=T charge=0 spin=1 external_field="_JSON [0.0, 0.0, 0.0]" energy=-19.095624923706055 stress="-0.0038996448274701834 -0.0023110981564968824 0.0002461894473526627 -0.0023110981564968824 0.0020872242748737335 0.0021717066410928965 0.0002461894473526627 0.0021717066410928965 -0.0018274630419909954" dipole="0.002247542142868042 -0.900411069393158 -0.1306016892194748" free_energy=-19.095624923706055 pbc="T T T"
O       13.51146324       5.92294440       7.06842008      -0.05314031       0.08353112       0.53003120       0.57589263       1.02401602       0.92682904      -0.02529301      -0.13116214
C       12.79227443       4.79856725       6.83186185      -0.60384105       0.05400300      -0.54400439      -1.28501201      -0.92263919      -0.06172636       0.01270824      -0.17334744
C       11.28042445       5.03487234       7.15651913       0.16237941       0.03052859      -0.07489569       0.29543427       0.14445770      -0.88309687       0.02278630      -0.13493541
F       10.79755843       6.09899039       6.47858161       0.56166356      -0.76407924      -1.10703472       0.51745784      -0.21525294      -0.12656751      -0.01380042      -0.27224642
F       11.09538054       5.31737154       8.43295067       0.51534391      -0.99276182      -0.16542326      -0.06116876      -0.19751006       1.07279813      -0.00886037      -0.27705014
F       10.51807420       3.99393091       6.81377110       0.75256502       0.08533962      -0.50950852       0.08695459      -0.27469316       0.16238809      -0.01049056      -0.27581918
C       13.48623508       3.54070684       7.49687032       0.08108112       0.30434633       0.11316162      -0.53643221       1.02660489      -0.71329451       0.02373988      -0.08375297
F       13.99233091       3.72895573       8.71713222       0.15942634       0.39797260      -2.51904263       0.15916373       0.75679964      -0.14103679      -0.00966074      -0.26144153
F       14.45642518       3.22478455       6.65419443       0.36049205      -0.09751060      -0.04624548       0.96113724      -0.35775980      -0.06232581      -0.00957033      -0.24737667
F       12.69866069       2.49027166       7.61328071      -0.45319900       0.57991121      -0.37750126      -1.07193577      -0.89863801      -0.11372714      -0.00868607      -0.27121878
H       13.42434899       6.12884303       8.01554842      -0.03624311      -0.06573176      -0.02716232       0.25431684       0.24875173      -0.21665749       0.02297690      -0.04352861
H       12.80748790       4.63101742       5.75356427      -0.08122795       0.04474900       0.06634006       0.09005359      -0.29657933       0.00964190       0.01363464      -0.03068928
O        2.07057401       9.38900555       2.28428538      -0.23597275       0.26832042       0.43007076      -0.69656605      -0.73894173      -0.20194592      -0.02646316      -0.21211472
C        3.06507653      10.27779651       2.58530412       0.23504778       0.60753090      -0.16072880       1.01082456       0.87705219       0.78247273       0.01200242      -0.23342703
C        2.78887984      11.68741666       1.97542495       0.23833264      -0.39488622       0.43443449       0.63240308       0.30169860      -0.59477556       0.02294296      -0.13863085
F        1.51544176      12.00453330       2.20260371       0.72259883       0.56183341      -0.00694391       0.20163314       0.06832468       0.23392773      -0.01081230      -0.25904453
F        3.00829826      11.83317411       0.66428663       0.94789929      -0.20532707      -0.84804418      -0.31324399      -0.91634107      -0.55361921      -0.01180974      -0.23550016
F        3.59342437      12.62677668       2.48846456      -0.59328740      -0.56568622       0.46700712      -0.24482991       0.01280987       0.87837225      -0.01018721      -0.20146371
C        4.45288910       9.70139087       2.19828150       0.31373080       0.68837978       0.06963122      -0.68016523       1.24149954      -1.83592069       0.02458793      -0.10077898
F        4.35096456       9.08833951       0.97522194      -0.90225225       0.76509564       1.02190191      -0.01209886       0.02241392       0.81779176      -0.01178661      -0.24736162
F        4.91274576       8.83118271       3.04109767      -0.35614295       0.54206794      -0.25428022       0.22910888      -0.86553502       0.83019298      -0.00681474      -0.23586178
F        5.34157302      10.67838043       2.03887061      -0.19288235       0.74781640      -1.29428715       0.18417396       0.00664745       0.18288091      -0.01072896      -0.23768738
H        2.37827531       8.76965901       1.60507520      -0.10598442       0.02768878       0.13640425      -0.18835445       0.17287917      -0.05309302       0.02224681      -0.04035523
H        3.08202574      10.45016098       3.68337037       0.07484909       0.01109575       0.00068837       0.03995695      -0.03126842      -0.50633544       0.01143990      -0.04517496
O        7.58462718      12.96236186      13.85992305      -0.36014114      -0.14643617      -0.09370797       0.07777834       0.06754707      -0.49494925      -0.02834972      -0.08908171
C        7.97146591      13.23649222      12.55407864       0.48128595       0.28465007       0.07198889      -0.44056076      -0.27513066      -0.86448151       0.01200619      -0.21629760
C        9.44683371      13.76772628      12.45087139      -0.46974113       0.29876850      -0.37101498      -0.10740435      -1.09475660      -0.95629662       0.02272713      -0.12438881
F       10.14370444      13.20542741      13.42488767      -1.33323743       0.55693006      -0.40704713       0.27525273       0.06574886       0.24976356      -0.01191678      -0.24663118
F        9.59424221      15.08899044      12.51719495      -0.31724071      -0.01544604      -0.42431720      -0.17667612      -0.00018305       0.15450521      -0.01023528      -0.26619151
F       10.02277273      13.34558641      11.27130003      -1.01363316       0.24778266      -0.24503449      -0.71607476       0.40835622       0.95641643      -0.01592331      -0.23719141
C        6.90376070      14.09837789      11.82845920      -0.45590095       0.40966974      -0.13959619       0.49271324      -0.71452320      -0.58368284       0.02403953      -0.11040866
F        6.44828135      15.07176779      12.62829366      -0.55222776       0.24282143       0.29247296       0.34349027       0.38273627      -0.41373545      -0.00727826      -0.26216465
F        5.82818708      13.35142249      11.51702793       0.07698130       0.61907717      -1.25683193      -0.18673730      -0.22375236       0.29404679      -0.01247294      -0.27089724
F        7.34710349      14.54886384      10.63375327      -0.41352347       1.23038324       0.95887346      -0.00331050       0.38213509       1.07685709      -0.01243628      -0.23689507
H        7.17369948      13.72801275      14.28175183       0.09547861      -0.03633514       0.01307068       0.14940512       0.02911401      -0.07273462       0.02522570      -0.03797623
H        7.93464244      12.27991796      11.97701381       0.01528897      -0.00897958       0.01458554       0.35002124       0.57292521       0.51914024       0.01203521      -0.03446070
O       13.75318454       8.96608315       1.66289334      -0.40277270       0.06581415       0.74592619      -0.18231452      -0.70057482      -0.69516480      -0.03483838      -0.11687142
C       12.73106884       9.22640924       2.56178119       0.70814292       0.73140892      -0.38199292      -0.55455005       1.00264466      -1.39340460       0.00946156      -0.18864010
C       13.19063841      10.44929306       3.37440039       0.09230780       0.30952772      -1.00865526      -2.18853974       1.15269065      -1.95838916       0.02440577      -0.05203215
F       13.62126726      11.44762514       2.48552004      -0.12997471       0.36940622      -0.69341029      -0.76063561      -1.54770553       1.47167397      -0.01498151      -0.22627033
F       14.15772560      10.11821049       4.14688741       1.78824078      -0.13596378      -1.67840326       1.84462440       0.10226331       1.48367846      -0.00646139      -0.23933141
F       12.18271095      10.99731439       4.09369639       1.43096363       0.55103040      -0.87737161       0.57800007      -0.36965567      -0.14159420      -0.01027525      -0.25619549
C       12.34765422       7.92609921       3.29869403      -0.03415852      -0.52183019      -0.57161934       0.78696096       0.92001045      -0.72137916       0.02420235      -0.14116041
F       13.22693976       7.60428203       4.24035812       0.61861689       0.21160507      -1.68488361      -0.01294923      -0.25521967       0.33997154      -0.00978836      -0.28401381
F       12.30268549       6.92700562       2.41100627       0.44053096       0.18090808      -0.30292558       0.18317829      -0.40900925      -0.31798241      -0.01151884      -0.27054238
F       11.14203888       8.02388967       3.79930785       0.31998923       2.07015845      -1.03210227      -1.11006236       0.18134642       1.02966142      -0.01075849      -0.26127353
H       14.59004682       9.28742141       1.99394275       0.33685201      -0.10272417       0.07808232       0.77794206       0.12266877       0.17795381       0.01942700      -0.06641846
H       11.83917512       9.55465856       1.96167687      -0.07161106      -0.22710587      -0.00927075       0.54320091      -0.36835185       0.62398601       0.01170545      -0.04658043
O       11.07865391       4.39816531       0.70301416      -0.09851363      -1.53998015       0.72314596       0.04677508       0.00396105       0.12762876      -0.02500208      -0.11354605
C       10.83925870       3.26279790       1.46113522      -0.55223430       0.05247297       0.42151381      -0.44737616      -0.97449088       0.38848209       0.01192824      -0.19398524
C        9.66586262       3.41381936       2.43099034      -0.28129815      -0.76068632      -0.15856689       0.62100273       1.64294159      -1.02644408       0.02323509      -0.13946143
F        8.63289432       3.98912005       1.78842791       0.40015777      -0.54936926       0.51959053       0.01991855      -0.10287496       0.08755723      -0.01116871      -0.27446592
F        9.98155896       4.20823915       3.45600483       0.41578899      -1.30637341      -0.61119297      -0.00303512       0.20831577       0.58298260      -0.01150317      -0.29207355
F        9.28770689       2.25166431       2.86489120       0.39193797      -2.01336554      -0.69009757      -0.65357894      -1.42516899       0.85214746      -0.00675730      -0.23888916
C       12.11552439       2.69189518       2.12904101      -1.13741046      -0.22639135      -0.28953794      -0.55856377       1.69408679       0.31583634       0.02275391      -0.14437996
F       12.75385400       3.66072714       2.81821995      -0.53279140      -0.28731582       0.64854938       0.02896886       0.33447281       0.21462110      -0.01238686      -0.29379278
F       12.93335223       2.27989370       1.20756164       0.64626777      -0.50742781       1.87994290       1.01046526      -0.61339086      -1.28785312      -0.00858255      -0.24489015
F       11.89670947       1.70407936       2.96700263       0.71853558       0.27200526       0.31294635      -0.44126880      -0.63358784       0.54047537      -0.00881965      -0.24550454
H       11.24787369       5.17272573       1.27105205       0.30031176      -0.05194414      -0.05528980      -0.00451021      -0.42362460      -0.12613921       0.02345835      -0.06850377
H       10.46753942       2.41920696       0.86015184       0.04627108      -0.07687185       0.19063887       0.32762745       0.44188881      -0.59660721       0.01252637      -0.01704805
O        9.03661133       7.29391728      12.12110515       0.27300529      -0.26735965      -0.83996911      -0.31021783      -0.35960802       0.34417546      -0.03035140      -0.12204640
C        8.82017514       8.54896850      12.67046743       0.12732624      -0.92988994       0.58725227       0.06597115       0.50051111      -0.20356417       0.01061404      -0.23382324
C        9.53396935       8.71151888      14.05345639      -0.51945619      -0.14183588       0.04715351      -1.52245975       1.22150147       0.22887072       0.02294125      -0.13826823
F       10.66107428       8.05692456      14.08077215      -0.00654874      -0.32241289       0.84712972       1.18798816      -0.45206460      -0.23718002      -0.01043258      -0.26691514
F        8.80061095       8.24862912      15.08431106      -0.96261924       0.60415082       1.20046314      -0.12277795       0.08506389      -0.17655358      -0.01122877      -0.27936000
F        9.78926302      10.03345162      14.31574261       1.01671462      -1.50953220       1.01984467      -0.33077070      -0.99558365      -0.22775698      -0.01534475      -0.25025555
C        7.30742520       8.84710702      12.64051802       0.56719314       0.13739539       0.63265123       0.58400947       0.65773177       0.56486273       0.02460101      -0.13693039
F        6.65085520       7.94372142      13.37779273       0.54762215      -0.46481099       0.05385064      -0.26742503      -0.20820720      -0.30470616      -0.00933123      -0.27777651
F        6.87163243       8.81822050      11.37733571       1.26328639      -0.37062402       0.67602991      -0.08134495      -0.26542845       0.20423150      -0.01210699      -0.27537346
F        7.01850454      10.06288677      13.12766201       0.50571275      -0.85082890       1.30707730       0.13529773      -0.07591645       0.06936037      -0.01194263      -0.27675092
H        8.31096662       6.72102641      12.41782630      -0.08081920      -0.18092664       0.11680923       0.38709491      -0.18557230      -0.13415605       0.02306560      -0.03671365
H        9.26934446       9.28258167      11.99813631      -0.00824197      -0.00308949       0.05591148       0.14745347       0.06497411       0.13676374       0.01065238      -0.04687420
O        3.75283674       1.31015864      12.18592707      -0.14805921       0.03928052      -0.75490927       0.18192500      -0.17701063      -0.16592787      -0.02912252      -0.16513151
C        2.60180874       1.75768417      11.54119920      -0.15301072       0.00350252      -1.13382996       0.46067002       0.47355574      -0.11152705       0.00998798      -0.16972758
C        2.88066225       1.70774939       9.99637340       0.02600006       0.36968038       0.07477286      -0.08098022      -1.10166359       0.05812024       0.02548572      -0.05764022
F        3.37000426       0.43394019       9.74615195      -0.16339355       0.00950236       0.51072502       0.41146216       1.26025522       0.50473690      -0.01346876      -0.16768458
F        3.82416303       2.57305797       9.59769439       0.23333770       0.88266853      -0.32719734      -0.73398936      -0.40358961      -0.06319348      -0.00884276      -0.24726990
F        1.78717224       1.77780647       9.22663975       0.62797665       0.33170110       0.54491426       0.39174795       0.81035334       0.41551715      -0.01201810      -0.25424421
C        2.28925923       3.12342319      12.19530364      -0.16259504      -0.68740539      -0.16286678      -0.69143027      -0.76388723      -1.44530237       0.02374064      -0.07859246
F        2.87815014       4.11397998      11.47518914       0.23977091      -0.07473038       0.26096619      -0.41314563      -0.01180005       0.96416223      -0.01010093      -0.27936977
F        2.61180356       3.16632050      13.46614920       0.67724759      -1.11452456      -0.33889762       0.89799291       0.25540668       0.18813413      -0.00752305      -0.24036087
F        0.95665906       3.25867062      12.17534655      -0.18065564      -0.95088401      -0.19056638       0.19089957       0.85702693      -0.38828233      -0.01230423      -0.17991795
H        4.18983544       0.70115524      11.58185449      -0.02246072       0.18569318       0.11658075       0.17722777      -0.37875184       0.22656928       0.02166515      -0.02944183
H        1.70500082       1.17823594      11.73311527      -0.02811025      -0.16062658      -0.03592906      -0.03041690      -0.60666245      -0.03618135       0.01267114      -0.04248861
O        2.39538759       6.96960947      11.45707077       0.01570277      -1.35731476       1.64018109       0.54508030      -0.28951880      -0.02014678      -0.02989814      -0.16286168
C        1.97271441       7.61664858      12.58731317       0.11693334      -0.63234172       0.68638137       1.66743040       0.19247414       2.05549717       0.00893069      -0.20890526
C        2.68398624       8.96146511      12.84425302      -0.77924668      -0.44514298      -0.07754186      -0.11387388       0.17320716       0.16358338       0.02180134      -0.16341756
F        2.60338028       9.82353451      11.84309800       0.08744551      -0.44425828       0.41459853      -0.52091497       0.10160901      -0.69788110      -0.01278382      -0.24684072
F        3.98300080       8.81641813      13.06922479       0.10818445       0.04034014       0.58611774       0.59635437      -0.60259330       0.04991940      -0.01123114      -0.23173413
F        2.14644905       9.56683427      13.92105905      -0.72624669       0.26323030      -0.03766766      -0.24327846      -0.07322606      -0.06945514      -0.01181514      -0.24775612
C        2.13230628       6.68129811      13.83962295      -0.51083503      -0.66669764       0.29734348      -0.54015648       0.74396402      -0.06101152       0.02500174      -0.06266619
F        3.25293741       6.00566630      13.84219650      -0.80096117       0.12944323       0.21088929       1.63244152      -0.00791777       0.05015147      -0.00592255      -0.23805575
F        1.18987715       5.78105015      13.77528909       0.00751359       0.50325660      -0.54373583      -1.61388445      -1.04730725      -0.17141834      -0.01091058      -0.21401925
F        1.97909926       7.27089604      15.06361614      -0.21803813       0.31840751       0.19942820       0.29544556       0.02992158      -0.61518115      -0.00631759      -0.24247460
H        3.19668534       6.48987567      11.72502959      -0.03175231      -0.09028571      -0.01714668       0.03864814      -0.06026424      -0.57844228       0.02165292      -0.03664244
H        0.94687431       7.78864132      12.55781065      -0.21948404      -0.07295097       0.08118812      -1.59075046       0.48082012      -0.27405861       0.00916577      -0.01728633
O        4.13412087      15.15556662       7.11025384       0.04671909       1.31387778      -0.10111642       0.28491408       0.02937645      -0.15564215      -0.02714472      -0.06703563
C        4.66336603      13.93356347       6.66708921      -0.21999900       1.35323329      -0.26653390       0.86872566       1.35379159      -0.58953476       0.00956918      -0.18894656
C        6.17410167      13.83179526       7.04164406      -0.51045117       0.37205599       0.44921116       0.60344487       0.16033588      -1.14085507       0.02346736      -0.11594786
F        6.26265908      13.60058632       8.34410150      -1.56516541       1.09344343       0.46436015      -0.22841312      -0.67223912       0.48119769      -0.01234495      -0.24041590
F        6.96845374      14.88999517       6.84552164      -0.22999214       1.45218349      -0.11443147      -0.59374911       0.11693615      -0.65472519      -0.01091215      -0.25736609
F        6.72310690      12.78867258       6.34493240      -0.70125618       1.01469335      -0.19909704      -0.52018136       0.55421513       0.67789114      -0.01389102      -0.26545271
C        4.29724013      13.67661526       5.18191704       0.43764131       1.11982036       0.54516869       0.49167836       0.11719159       0.66167641       0.02425850      -0.12857121
F        5.07102361      14.38148320       4.34289720      -0.13257478       0.80075774      -0.07805566      -0.24276429      -0.16875325       0.16863015      -0.00848268      -0.27864134
F        3.01986381      14.09474428       5.00820365       1.38557173       2.59425374       0.27007648       0.41957033      -0.43470046      -0.29953009      -0.00904813      -0.25586295
F        4.40501836      12.37588817       4.87448298       0.14616514       2.70798543       1.17310248      -0.24186382       0.44142452       0.24945910      -0.01167823      -0.24370074
H        3.48288587      15.51291886       6.48502949      -0.13212045       0.14316968       0.15716960       0.25439999      -0.35860127       0.17742728       0.02484628      -0.04234513
H        4.32918719      13.12958533       7.26185086       0.01614870       0.26005166      -0.13136523      -1.12066782      -1.12395966       0.40641853       0.00990988      -0.00815545
O       11.86988364      13.40041456       8.90600738      -0.59239742       0.43381280      -0.22808927       0.27063921      -0.65686172      -0.17879178      -0.02903629      -0.01595629
C       11.08978491      12.33286543       8.44687921       0.73243795       0.41902012      -0.52292371       0.04587334      -0.20978184      -0.35897732       0.01264467      -0.24369676
C       11.71840169      11.66951910       7.17392018      -0.50235543       1.00990301      -1.11518536       0.48722959       0.20174177      -0.91934413       0.02314905      -0.09424677
F       12.77874841      10.89267509       7.39459044       0.33055864       1.18271105      -0.31539835       0.22043940      -0.04194319       0.91198498      -0.01447655      -0.21860488
F       12.21238393      12.66504133       6.38714631      -0.73818538       1.08762107      -0.58245190      -0.45603839       0.17465451       0.00771610      -0.01235085      -0.27694374
F       10.90988061      10.90938313       6.42230914      -0.14897850       1.17137874      -1.62193887      -0.49928141       0.46968794       0.70807290      -0.01217403      -0.22516063
C        9.66711634      12.85650554       8.16051952       0.08999347      -0.32111637       0.11900865      -0.21634483      -0.16700107      -1.00030422       0.02288750      -0.12685022
F        9.41720736      13.10153350       6.85433318      -1.61045867       0.31180351       0.53107620       0.39380330       0.02655239       0.30870420      -0.01134366      -0.23451646
F        9.45789976      14.00506208       8.79367425      -0.32391231      -0.22404226       0.25695048      -0.44116741      -0.41887510       0.15143056      -0.01112661      -0.22601113
F        8.78991072      11.90234301       8.52569624       0.54556685       1.02453032       0.05149754      -0.21650028       0.37943277       0.35850358      -0.01353725      -0.27422950
H       12.18547134      13.93518597       8.15622289       0.09631029       0.14511212      -0.09377805      -0.22850522      -0.29068547       0.22589023       0.02455311      -0.03963279
H       10.95353724      11.53588513       9.21440879      -0.14383277       0.15911298       0.07588960       0.49322015       0.75700265      -0.28834873       0.01099986      -0.05154154
O       14.47599677       8.72455813      10.95127445      -0.17226163      -1.38903226       0.86908991      -0.36728191       1.03137910      -0.21435998      -0.02650420      -0.05675130
C       13.14960859       8.82807396      11.43193620       0.24301070      -0.30475435       0.35141190       0.70769393      -0.22916484      -0.74494404       0.01380328      -0.22913162
C       12.24736791       8.35747443      10.27211480       0.46955675      -0.26077704      -0.24031653      -0.43510777      -0.18718240      -1.10991037       0.02402960      -0.12611209
F       12.41497643       7.02297350      10.12866185      -1.08960767       0.50970264      -0.46740762       0.21461420       0.67170405      -0.05981780      -0.01170520      -0.24983203
F       12.60966185       8.93207708       9.06750980      -0.18303316       0.75677915       0.03618751      -0.58927631      -0.54705548       1.64253259      -0.01429537      -0.27199784
F       10.91968708       8.53936871      10.44949448       0.22299105       1.22780031       0.79235604       0.89975339       0.42751783      -0.04402591      -0.01078570      -0.25022987
C       12.91799615      10.21690800      12.04132078      -0.20491391      -0.46280423      -0.03893400      -0.59115046       0.31900269      -0.22785351       0.02473566      -0.12553461
F       12.82172925      11.15680049      11.05600473       0.13137130      -0.94672500      -0.28646305       0.22435939      -0.49598265       0.57257944      -0.01183602      -0.27764890
F       13.93951896      10.51605341      12.84324959      -1.28468291      -0.93734320      -0.03051685      -0.08681566       0.11444607      -0.28959242      -0.00920142      -0.26703748
F       11.79748081      10.30256202      12.77191016      -0.93524998      -1.06511329       0.12831940       0.25296515      -0.21451524      -0.42179054      -0.01045524      -0.26237267
H       14.71256297       9.57677343      10.53001310       0.03852590       0.19810285       0.16627439       0.04542997      -0.61631167       0.07854252       0.02118084      -0.06353591
H       13.08035901       8.06866479      12.19667771       0.01243264      -0.05337671       0.05990937      -0.43400759      -0.09616941       0.48922825       0.01384253      -0.03879840
O        1.83229280      12.59042110       7.23955590      -1.23755584      -0.35867550       0.92693096       0.12280688       0.54219484      -0.66672570      -0.02466029      -0.11545109
C        2.07953104      11.89565161       8.40236087      -0.02685037       0.22674033       0.33335421      -0.08671726      -0.74889493      -0.35851619       0.01349864      -0.19447000
C        2.13954883      10.34366807       8.06185906      -0.27264353       0.37182973       0.30939853      -0.70769578       0.95186466      -0.50925177       0.02472360      -0.07605575
F        2.99543443      10.06348004       7.06829318      -0.65965387       1.33691666      -0.48276639      -0.01183815       0.65875304       0.27456278      -0.01129642      -0.26725829
F        0.93886958       9.85224617       7.62546780      -0.33184351       0.63950315       0.68446941       0.51372951       0.50191540       0.75865090      -0.01295069      -0.28447869
F        2.54399270       9.71042204       9.13115769       0.33050211       0.58464214      -0.09234501      -0.04012845      -0.91940743       0.80125999      -0.00870009      -0.24595188
C        1.06164753      12.38630056       9.47566581       0.31562008      -0.52447043      -0.05073459       0.74657589      -0.15335645      -0.06097966       0.02373617      -0.12534983
F       -0.16945851      12.48277788       8.99851475       0.25999737       0.09590573      -0.51492813      -0.02666952       0.09259786      -0.36328694      -0.00977287      -0.25037089
F        1.43798523      13.59044147       9.94052456      -0.03956888      -0.66631881      -0.37868584      -0.50506133      -0.47626942      -0.35704306      -0.01178745      -0.22061650
F        1.01703236      11.58043719      10.52661770       1.64283115      -0.91629973      -1.22517942       0.06891175      -0.72900474       0.66355586      -0.00845232      -0.25841606
H        0.95829083      12.35195839       6.90509928      -0.16385825       0.02342925      -0.00008394      -0.06117037       0.02921858      -0.06772280       0.02463054      -0.04525707
H        3.08095340      12.16278903       8.77153992      -0.01105846      -0.23622102      -0.11831015      -0.26040098      -0.09820637      -0.06644579       0.01345938      -0.04203782
O        9.33665538      11.94722706       4.34779411       0.76627344       1.13722323      -0.25799554      -0.08155239       0.20134746      -0.03007292      -0.02936985      -0.09271368
C        9.12386352      12.96480038       3.41715287      -0.20031044       0.22472728       0.13314578       0.33107054      -0.10125778       0.41497287       0.01187278      -0.28866893
C        7.89015879      12.68651647       2.56826247       0.54743209      -0.04026999       0.74695697       0.30152968       0.02596723      -0.87655514       0.02412654      -0.16556469
F        6.81674499      12.37395629       3.28124237       0.98815494       0.38424780       0.81150970       0.32619745       0.23370804       0.11613680      -0.01086624      -0.23974687
F        8.13897786      11.68551471       1.71068765      -0.13253628       0.70428824       0.37808832      -0.25896841      -0.12202877       0.22975321      -0.01267777      -0.25235465
F        7.60822714      13.78879843       1.82273872       0.01817767      -0.17039764       0.83601931      -0.36356878      -0.08832876       0.51088464      -0.01081549      -0.22851610
C       10.38140944      13.20319005       2.55783110       0.20064368      -0.17004463      -0.70093942      -0.28074476      -0.39446568      -0.16876222       0.02282624      -0.16320260
F       10.76009833      12.03439372       1.99319177      -0.56713480       0.16182819       0.00749404       0.22605661       0.22665910       0.13376850      -0.01078573      -0.26712382
F       11.39860326      13.68026675       3.28184884       0.75079320       0.08430512      -0.77763936      -0.31981099      -0.35087648      -0.05289234      -0.01116425      -0.25208268
F       10.14539903      14.05930499       1.56140237      -0.21674355       0.12162893      -0.64360836       0.14983822       0.26457745      -0.02025356      -0.01093332      -0.25309625
H        9.74669977      11.18173267       3.93103867       0.03371447       0.11433566       0.00819413       0.02305268      -0.05227036      -0.17120016       0.02329936      -0.04980813
H        8.94115876      13.88221327       3.96293869      -0.01325199      -0.18507312      -0.22913731      -0.09536182       0.23031600       0.23871298       0.01366394      -0.04461776
O        6.75927056       3.48592814       9.24406208      -1.08258012      -0.49456095       0.70130121       0.11432584       0.42490542       1.17002678      -0.02646562      -0.13443536
C        6.40809530       3.81801559      10.56675653       0.13713687      -0.32503143      -0.13568718      -0.74041027      -0.97634661       0.50564456       0.01197962      -0.21862017
C        5.81466747       5.22184671      10.65964135       0.23525486      -0.55982242       0.56898541       0.04580942      -0.17434856       0.34036285       0.02284724      -0.15700062
F        4.82362822       5.37662697       9.80623734       0.35564693      -2.00648294      -0.23091253      -0.93433541      -0.22683400      -0.68408698      -0.01078233      -0.26223779
F        6.71215784       6.12078067      10.36128875      -0.93750313      -0.08612356       0.14016180       1.20959842       1.10730755      -0.11643801      -0.01009067      -0.22805667
F        5.32113682       5.53105903      11.88155255      -0.34420627      -2.04930174       1.04346493       0.12873358      -0.29799503       0.09999157      -0.01132859      -0.29314932
C        7.49702646       3.57575763      11.62621895      -0.95881196      -0.23459137      -0.52624421      -0.27107644       0.41952783       0.52210647       0.02410211      -0.12290962
F        8.44576849       4.51637048      11.59542400      -1.61097914      -0.34686352       0.68919244      -0.01219681       0.81637818       0.37647691      -0.01057465      -0.25480878
F        8.15725412       2.45380387      11.47317668       0.23071064       0.88333531      -0.63536782      -0.19213136      -0.92449814      -0.36946428      -0.01027483      -0.20969389
F        6.90963366       3.54351008      12.86289110      -0.03177459      -1.60315912       0.56210770       0.56841868       0.30186594      -0.81856918      -0.01276372      -0.27059776
H        7.64819401       3.83493175       9.14827366       0.05042358      -0.05200089       0.15800897       0.41843402       0.06132855      -0.65698594       0.02417798      -0.03386437
H        5.61591314       3.15441182      10.89599630       0.19403427      -0.13156262       0.04551750      -0.24842378      -0.24079050      -0.18913680       0.01081838      -0.03534994
O       11.00061531       3.13290083      10.67697482       1.57597181      -0.96048818       0.65813648       0.13304833       0.04385463       1.08842373      -0.02954194      -0.10150775
C       11.83977755       2.98732282      11.80841497       0.96788328      -0.79981959      -0.10689047      -1.22293365      -1.00807679      -0.49987572       0.01117658      -0.25197518
C       12.55477291       4.29912209      12.17505460       0.67347824      -1.49213230       0.14577874      -1.65799248      -0.07429298      -1.41847992       0.02106515      -0.14347611
F       11.67724634       5.34224632      12.22287724       0.99255850      -1.25219827       0.72545884       0.44670492      -0.71838987       0.16458152      -0.01597563      -0.29206100
F       13.43284710       4.56721199      11.21987440      -0.34415594      -0.88445466      -0.04700060       0.49710619       0.69560879      -0.86835837      -0.01230890      -0.24325836
F       13.19341888       4.21340696      13.28537540       1.51688541      -0.65695875      -0.32553483       0.78043491       0.08218184       1.97479653      -0.00838823      -0.21373950
C       12.83283878       1.79543588      11.63896475       0.58201373      -0.71197743      -0.95249824      -1.87895548      -0.59718657       0.47117424       0.02269422      -0.07939497
F       13.82392348       1.98318301      10.83526708       1.26735517       0.42023566       0.28963144       1.01065421       0.36695477      -2.11408091      -0.00916591      -0.18123020
F       12.17484158       0.65671881      11.17996716       0.96820446      -0.33578841       0.65352534       0.68362212       1.52829981       1.00149572      -0.01679186      -0.25719318
F       13.39017103       1.58091233      12.81860237       1.02277083      -0.05210882      -0.01010006      -0.18378823      -0.91664898       1.10072029      -0.00969191      -0.23388496
H       11.53014901       3.15640260       9.89107167      -0.21321911       0.18841855       0.06641463       0.53002620       0.08927070      -0.79122758       0.02048837      -0.05810950
H       11.15377886       2.66348668      12.61484133      -0.00399544      -0.28564826      -0.05369100       0.49365622       0.39196065      -0.15536465       0.01129982      -0.04534699
O        6.34598711       7.13171094       7.83257150      -0.00638806       0.53700756      -0.31596400      -0.35760903      -0.49831274      -1.23701310      -0.02729296      -0.10950261
C        6.93234270       7.48602049       6.60247228      -0.13867989      -0.09852650      -0.13147902       0.89415860       0.72157884       0.86805964       0.01339320      -0.14646290
C        6.20461257       8.79022728       6.05704057       0.58330896      -0.26221268       0.36130206      -0.67881805      -1.69738126       0.98723918       0.02371578      -0.10562783
F        6.19179464       9.59617742       7.11325024       0.81502431      -0.18358138      -0.04261903      -0.09463772       0.67683154       0.21953467      -0.01284546      -0.23932253
F        4.90607268       8.56534071       5.71748485       0.29156792      -0.04815826       0.42527606       0.61247349      -0.14048342       0.08614581      -0.01275369      -0.27077064
F        6.79139487       9.40880431       5.07022712      -0.31320636      -0.09824693      -0.20697032       0.58404738       0.16998909      -0.79692644      -0.00876071      -0.25862634
C        7.14342972       6.27599637       5.67869081      -0.68300755      -0.74972244      -0.35926625      -1.27763164       0.64415801       0.01807295       0.02503347      -0.10259659
F        5.94087511       5.71692771       5.42399413      -1.51879432      -0.26033238      -0.38335758      -0.03406094      -0.56584704       0.44583690      -0.00853199      -0.27016568
F        7.97068496       5.33071564       6.16603775      -1.98483760      -0.71867152      -0.43473371      -0.54904091       0.78163230      -0.26117244      -0.01033862      -0.27653068
F        7.56327564       6.71694966       4.50869231      -0.95250400       0.00059983       0.81917559       1.03077257      -0.00229693      -0.66468424      -0.00935449      -0.24410462
H        5.55762587       6.63307604       7.56673406      -0.02695671      -0.00189480       0.11920038      -0.16186577      -0.02314517       0.59250236       0.02463400      -0.02906863
H        7.92581797       7.85352389       6.87659545      -0.21054710      -0.11266799       0.02838480       0.08896039       0.00342770      -0.25586563       0.01268083      -0.02678773
192
Lattice="14.592803403709198 0.0 0.0 0.0 14.592803403709198 0.0 0.0 0.0 14.592803403709198" Properties=species:S:1:pos:R:3:momenta:R:3:forces:R:3:charge:R:1:energies:R:1 Built=T with=T Packmol=T charge=0 spin=1 external_field="_JSON [0.0, 0.0, 0.0]" energy=-19.50264549255371 stress="0.003168168943375349 -0.002345325890928507 -0.00020727900846395642 -0.002345325890928507 0.005325634032487869 0.0018151582917198539 -0.00020727900846395642 0.0018151582917198539 0.001453364617191255" dipole="-0.1521308273077011 -1.1069751977920532 -0.44737547636032104" free_energy=-19.50264549255371 pbc="T T T"
O       13.59419914       5.96587727       7.12984624       0.06121976       0.28608675       0.59540957      -0.16643134      -0.06300964      -0.05265767      -0.02582083      -0.11428050
C       12.83751877       4.82348928       6.85619671      -0.80798723      -0.17606220      -0.22126389       0.51227647      -0.03668179       0.65476894       0.01367135      -0.20258000
C       11.35729044       5.06704923       7.18772076       0.22913595       0.03001893      -0.49024560      -0.08426269      -0.15870497      -0.63131034       0.02333189      -0.15380438
F       10.88031883       6.11500611       6.48944951       0.78039445      -0.83504320      -1.04021137       0.41727144      -0.11429282       0.28541392      -0.01263946      -0.27283037
F       11.17516530       5.32313213       8.48536565       0.46668796      -1.02932932       0.21569461      -0.06911261      -0.05041320       0.34473911      -0.00877954      -0.29222158
F       10.60139332       4.01862609       6.84305822       0.76661804      -0.03579256      -0.40252228       0.02683571      -0.20435648       0.22232282      -0.01058880      -0.26763350
C       13.56393792       3.58192756       7.53312095      -0.29249430       0.57062886      -0.67512850      -0.84908551      -0.04774847      -2.13660312       0.02407436      -0.08107895
F       14.08283264       3.76703913       8.70771929       0.31970167       0.81888679      -2.15518117       0.39599404       0.97181302       1.21977282      -0.00733647      -0.23888697
F       14.55743184       3.24009977       6.69319823       0.61686761      -0.19713927      -0.03298193       0.06871288      -0.03824146       0.09415108      -0.01107633      -0.26060143
F       12.75796647       2.51549543       7.64893329      -0.84298653       0.25723106      -0.42179925      -0.50511426      -0.28545001      -0.12651239      -0.01038397      -0.28270981
H       13.51115844       6.17041020       8.07144645       0.04434246       0.07339787       0.08457518       0.08543527       0.10888863       0.02483292       0.02255322      -0.05684882
H       12.86201562       4.64446572       5.78158885      -0.00685525      -0.08504185      -0.09597555       0.15541920      -0.07096837      -0.01066386       0.01426340      -0.04276077
O        2.07140974       9.45281532       2.31310613      -0.44550775       0.25414038       0.56351391       0.20657744       0.03246567       0.03726960      -0.02579485      -0.18000805
C        3.10125683      10.36877794       2.60056027       0.55426954       0.67803931       0.03712038       0.16798520      -0.54723477      -0.33564913       0.01371662      -0.26128760
C        2.82009981      11.74831135       1.99443454       0.41305319      -0.01814936      -0.16804904       0.05789949       1.03207767      -1.54859865       0.02355908      -0.14312646
F        1.54485830      12.09121050       2.21680128       0.85564038       0.50215234       0.05561339       0.38451228      -0.24451785      -0.00463781      -0.01113117      -0.25421000
F        3.04848216      11.89337113       0.64646407       0.73998207      -0.66759599      -0.72152113      -0.43267408      -0.93139964       0.83353114      -0.01390908      -0.24453335
F        3.59900489      12.68856145       2.52075158      -0.62198839      -0.54956767       0.84418810       0.10717191       0.07117455       0.65581620      -0.00927857      -0.20547830
C        4.48429383       9.79734635       2.19717776      -0.10529931       1.03024034      -0.69289279      -0.83363718       0.06197605      -0.92849302       0.02480048      -0.12195905
F        4.35420403       9.16288161       1.01149566      -0.86900499       0.73948677       1.26562978       0.07181627      -0.09136302       0.14488897      -0.01080182      -0.24083234
F        4.93460547       8.89469696       3.05747256      -0.26525195       0.32803685       0.04853288       0.03404966       0.15870696       0.24206518      -0.00900977      -0.25195768
F        5.37048422      10.76217470       2.01951213      -0.05097020       0.74080186      -1.13949342       0.37388554       0.03301355       0.30488819      -0.00962660      -0.23984011
H        2.34931010       8.81963197       1.63095037      -0.05125728      -0.02355991      -0.05948956       0.06443619       0.34809291       0.04782141       0.02209367      -0.05847444
H        3.13525965      10.52073287       3.66796271       0.05798180       0.03649151      -0.05914747      -0.06651294       0.15656975       0.49863106       0.01240936      -0.04500417
O        7.62150560      13.03573253      13.93536719      -0.21012596      -0.14798951      -0.46356646       0.24213573       0.38228652      -0.72593576      -0.02874869      -0.09261741
C        8.03033599      13.32742253      12.62560510      -0.03547744       0.35201168      -0.20627343      -1.37456512       0.79856628      -0.04845494       0.01216233      -0.20919332
C        9.48469761      13.85300347      12.50354740      -0.44931378      -0.14520049      -0.65844923       0.10422211      -0.49196103      -0.11742465       0.02267396      -0.14101547
F       10.17280940      13.29985714      13.49687443      -1.14202221       0.56530871      -0.31269517       0.37626475      -0.00842553       0.07742927      -0.01248706      -0.24442706
F        9.64285317      15.17974191      12.58263956      -0.40917619      -0.02916660      -0.37391996      -0.22489394      -0.12668909       0.01453384      -0.01114518      -0.26924258
F       10.05301318      13.43512611      11.33888797      -1.30829657       0.42796739       0.17928785      -0.51635242       0.29245466       0.66306233      -0.01412712      -0.24335340
C        6.93334551      14.19247314      11.89087263      -0.11849456       0.02807900      -0.23867806       0.70807916      -0.68861347       0.17110105       0.02427352      -0.10000464
F        6.47525304      15.17057235      12.70905622      -0.36745485       0.30814290       0.03184647       0.40967694      -0.15071070      -0.64109862      -0.00833120      -0.27158344
F        5.86437934      13.44676825      11.55658381       0.00558980       0.51740756      -1.04763957      -0.09444185      -0.15738308       0.45337647      -0.01177453      -0.27504399
F        7.38113461      14.67111877      10.72840780      -0.37261724       1.42651412       1.33737014       0.16140135       0.48919111       0.51056194      -0.01146936      -0.23588724
H        7.26932872      13.82085180      14.37952368       0.12345571       0.06669021       0.03090099       0.18616854      -0.06806930      -0.09588215       0.02469286      -0.04440540
H        8.02732989      12.39453731      12.09873988       0.14668243       0.05866005       0.10503073       0.10966815      -0.64369345      -0.36488709       0.01235368      -0.03045527
O       13.83642494       9.02073321       1.69139145       0.57379818      -0.01023033       0.39084823       1.68877900      -0.34424776      -1.42303061      -0.03498494      -0.07729018
C       12.82941612       9.31380589       2.55255384       0.36323191       0.61715795      -0.67564998      -0.38188601      -1.26124132       0.23420738       0.00893520      -0.16334228
C       13.25945725      10.53525715       3.34052701      -0.41391938       0.74767923      -1.45752324       0.24524732       0.49768159       0.14979003       0.02393286      -0.11806593
F       13.69572339      11.51707636       2.49122602      -0.46096483      -0.30910662      -0.07376646      -0.57971740      -1.08760607       0.89378428      -0.01234589      -0.23992530
F       14.29664035      10.17764827       4.13497221       2.14518895       0.04864798      -1.31011276      -0.28390995       0.62586248      -0.10959625      -0.01183467      -0.27417862
F       12.29624318      11.07561608       4.09532405       1.61476543       0.36786038      -0.88995086       0.19569312      -0.31299749       0.04329817      -0.00904544      -0.25700217
C       12.43047998       7.96827998       3.28982581       0.44503121       0.34630989      -0.77154437       0.92353082       2.17228365      -0.01613185       0.02417097      -0.10543899
F       13.32218599       7.65351754       4.22527778       0.53952803       0.03204844      -1.44951929      -0.29078561      -0.37146014       0.41092813      -0.01024137      -0.28155869
F       12.38878304       6.97063332       2.41550066       0.44018259      -0.03595124      -0.47487152      -0.12574658      -0.30178943      -0.32473215      -0.01032713      -0.27658707
F       11.21162623       8.12557658       3.80173454      -0.07723442       1.99277581      -0.58706963      -0.29989746      -0.30313766       0.61880773      -0.01189990      -0.27828184
H       14.73950855       9.25370245       2.01067544      -0.21494731      -0.27427934      -0.06832418      -0.69564033      -0.05430627       0.05930449       0.02003180      -0.08777162
H       11.92176436       9.50023241       2.01003965       0.01975535      -0.14015211       0.04733525      -0.44918218       0.66899252      -0.58625686       0.01153960      -0.03406740
O       11.14294470       4.37947324       0.72841804      -0.09114793      -1.39732856       0.57423890      -0.12605406       0.18871805      -0.69975752      -0.02439339      -0.10489551
C       10.88066524       3.27305405       1.49076493      -0.55060829      -0.54342012       0.53622305       0.40438020      -1.39059663      -0.30437341       0.01328846      -0.21724480
C        9.71845201       3.41756840       2.43247871      -0.04100263      -0.16744205      -0.38157475       0.18930167       0.43526900       0.18706785       0.02412424      -0.15294789
F        8.69486272       3.99816897       1.81295649       0.33418213      -0.61812795       0.52974854      -0.24296726      -0.18151869      -0.01808617      -0.00896297      -0.26363155
F       10.05211724       4.20089259       3.46497236       0.36084864      -1.24150510      -0.31309086      -0.16431163      -0.02904692       0.53557676      -0.01123947      -0.28146714
F        9.35034659       2.20738834       2.86886064       0.14230006      -2.31321347      -0.38852419      -0.29187205       0.19072205       0.28097767      -0.00877588      -0.25602120
C       12.14506882       2.71442528       2.13781517      -0.79021785       0.44158067       0.18017838       1.83869302       0.65523726       1.40614140       0.02311171      -0.13053915
F       12.81592842       3.67718124       2.85203176      -0.67608094      -0.15821753       0.60244756      -0.59909523       0.23530321      -0.30590028      -0.01415990      -0.27866387
F       13.03229020       2.27786529       1.25514698       0.85394259      -0.65534571       1.25500037      -0.19514465       0.04906789      -0.99146456      -0.01015067      -0.24590917
F       11.98311320       1.71766663       2.99594051       0.36320590       0.01263850       0.50802050      -0.90214109      -0.28481376       0.22244449      -0.00995541      -0.22707930
H       11.45705074       5.12627538       1.24489902       0.29004127      -0.21020467      -0.03546141       0.11415759       0.09887180       0.34790182       0.02365107      -0.06813853
H       10.57307097       2.43419196       0.86467076       0.09146448       0.05272875      -0.19531370      -0.07560295       0.17684428      -0.60056669       0.01289114      -0.01187301
O        9.09282551       7.32445737      12.17419759      -0.10329082      -0.51820351      -0.46442869       0.33665305       0.70016259       0.42491654      -0.02961610      -0.11897004
C        8.87938359       8.57044516      12.76680713       0.15253511      -0.51800084       0.35920753      -0.03191450       0.79255575      -0.41207504       0.01199231      -0.23959558
C        9.56088947       8.76614745      14.14662505      -0.82450712       0.11007090       0.43624703       0.26727557      -0.29898447       1.20203471       0.02341177      -0.14108515
F       10.72984815       8.09522571      14.18610429       0.21699825      -0.44411390       0.71362550      -0.28226316      -0.05842345      -0.24145374      -0.01376493      -0.27811992
F        8.82913545       8.31475094      15.20360922      -0.91207788       0.65746339       0.91752109       0.20689584       0.15857035      -0.81469101      -0.01156318      -0.27373815
F        9.87168727      10.04997415      14.42645510       0.75081508      -1.83949584       0.83034451      -0.65936130      -0.36214709      -0.42927322      -0.01360349      -0.23609471
C        7.37851691       8.90853806      12.74643334       0.68792848       0.14227287       0.75290593      -0.10151086      -0.63325685      -0.07909304       0.02469764      -0.14134564
F        6.70377932       7.97908123      13.45799997       0.45415871      -0.48254294      -0.10519698      -0.03872712       0.11892026      -0.33343229      -0.01060220      -0.27730590
F        6.94545617       8.86094894      11.46573913       1.24245205      -0.41714577       0.87713766       0.08915906       0.05363324       0.65383732      -0.01340284      -0.27363321
F        7.07495550      10.10179657      13.24095357       0.58417694      -0.81760760       1.31213284       0.22347876       0.16599847       0.06458681      -0.01015534      -0.27529681
H        8.43591191       6.71466963      12.50360558       0.31839627      -0.04752917      -0.04362186      -0.29049703      -0.56390488       0.19706033       0.02274831      -0.04708121
H        9.33488756       9.32748668      12.12216084       0.04891010      -0.05725127       0.14556139       0.17077063      -0.10173195       0.02595680       0.01096595      -0.04047754
O        3.76894587       1.32269247      12.23872434      -0.22010317       0.21224262      -0.66415684       0.67507595      -0.46959570      -0.64642364      -0.02973501      -0.11512034
C        2.61360330       1.76785757      11.56890041      -0.04608662      -0.13988384      -0.82570276       0.42303300      -0.80862510       0.96422529       0.01083293      -0.20317057
C        2.90071367       1.72228339      10.05840742       0.15461789      -0.13324926      -0.03149025       0.54295921      -0.74706280      -0.37112996       0.02531818      -0.08510509
F        3.38863039       0.44549309       9.82112440       0.02624703       0.68524207       0.71124858       0.38068530       1.34979558       0.29255438      -0.01363296      -0.17431775
F        3.84774575       2.60752232       9.64753019      -0.22190779       0.53458906      -0.28098366      -1.04404557      -0.91212714       0.19548398      -0.01009372      -0.24824159
F        1.81596924       1.80217870       9.29838398       0.73145748       0.71212590       0.65857182       0.04914716       0.73209006       0.06221723      -0.01106157      -0.25349575
C        2.29058336       3.10976192      12.24978340      -0.41238638      -0.81824331      -0.69721187      -0.27140620       0.19506375      -0.55999815       0.02469618      -0.09663689
F        2.89821581       4.13536101      11.55771789      -0.06274309      -0.24771489       0.75884576      -0.77241254      -0.66610986       1.01294124      -0.01140565      -0.26525795
F        2.64955352       3.15796182      13.53796582       0.96708585      -1.02707274      -0.48766920       0.30756608       0.00559848      -0.86922872      -0.00874351      -0.24673840
F        0.96009319       3.25924846      12.24190433       0.03494457      -0.53225543      -0.33960226       0.61764985       0.76201260      -0.25686279      -0.01170477      -0.17951709
H        4.26412477       0.69163211      11.66944705       0.13814843      -0.15221291       0.01183741      -0.61736202       0.39174393       0.59496874       0.02150132      -0.04409692
H        1.74896080       1.09207216      11.76431234       0.21080282      -0.13283790      -0.14638893       0.44966561       0.38145995      -0.25542316       0.01288589      -0.05113552
O        2.41182456       6.96997370      11.57499738       0.06277657      -1.31259118       1.50902341      -0.01516846       0.18919678      -0.20251012      -0.02984523      -0.13002656
C        1.98942715       7.64071537      12.70882715      -0.13607783      -0.42131976       1.41292121      -1.16236889       0.40634647       0.69773567       0.00961063      -0.23805390
C        2.67253801       9.00115546      12.92324380      -0.45565331      -0.22097050       0.20172959       1.26583588       0.63415992       0.85502774       0.02278560      -0.14496662
F        2.61769313       9.87122825      11.92117717      -0.20817700      -0.49562933       0.10717719      -0.66243672      -0.37460428      -0.47332272      -0.01228388      -0.24138992
F        4.01047097       8.86704222      13.16312363       0.04319614      -0.23619444       0.54925741      -0.74048847      -0.50385541      -0.13592152      -0.01405984      -0.23415512
F        2.13959962       9.63004248      14.00267603      -0.78718825       0.12540843      -0.19124650      -0.06201256      -0.40574905      -0.49546522      -0.01225628      -0.24582702
C        2.12249860       6.70619431      13.93496026      -0.51295193      -0.04398571       0.28436088       0.44347924       1.28011107       0.07483113       0.02527978      -0.09737018
F        3.26204493       6.04477144      13.93199402      -0.05635678       0.08727249       0.27707646       1.13486183      -0.01643639       0.21681887      -0.00685894      -0.24941187
F        1.18594294       5.82085775      13.84410237      -0.87435898      -0.15110982      -0.54433527      -1.73405612      -1.33712208       0.13081601      -0.00961980      -0.21036695
F        1.98698109       7.32234801      15.15553360      -0.11203454       0.23030502      -0.13779705       0.11079989      -0.34391928      -0.70453495      -0.00634476      -0.25279087
H        3.22551010       6.47080572      11.74694612       0.06231477      -0.13016679      -0.12911310      -0.06978052       0.16394557       0.06422832       0.02145043      -0.06470616
H        0.86805118       7.82368668      12.64785287       0.16490885      -0.02663798      -0.00500115       1.67830992      -0.08746272      -0.08293176       0.00902320      -0.01253624
O        4.16395084      15.28799753       7.15033276       0.34081903       1.33827412      -0.02904383       1.00621343       0.11174887       0.41828409      -0.02646017      -0.05855959
C        4.69066458      14.08329632       6.69389071       0.07173739       1.60452880      -0.20029815      -0.16982444      -1.00492370       1.31051373       0.01008023      -0.19406705
C        6.19766905      13.93487686       7.09030798      -0.16969184       0.61902840      -0.12843117       0.51387984       0.67618036      -0.90292913       0.02418941      -0.12642932
F        6.25927886      13.70689317       8.40809949      -1.59432974       0.78436200       0.51491056       0.01164516      -0.47237748      -0.32383999      -0.01260148      -0.25095475
F        6.99974075      15.01582291       6.88081502      -0.63728536       1.24243190      -0.31889244      -0.99806374      -0.73960340      -0.23442507      -0.01227890      -0.26136655
F        6.74206361      12.89618175       6.38337265      -0.97589418       1.33507669       0.23124119      -0.59507877       0.78099746       0.98615414      -0.01284964      -0.25758934
C        4.34464106      13.80824581       5.23899884       0.57130344       1.31698890       0.62922468       0.06951228       0.69556230      -0.30630976       0.02381076      -0.15094233
F        5.09763937      14.48834017       4.36816249      -0.13827919       0.75824635      -0.00374607       0.23758022       0.07716938       0.09551451      -0.00910002      -0.27325845
F        3.07560837      14.24370041       5.04386629       1.47583137       2.32364011       0.16296443       0.04599844      -0.45657000      -0.10533037      -0.00998341      -0.25760975
F        4.43393808      12.52148628       4.93557493       0.03665095       2.69610609       1.26628664      -0.18147196      -0.25119168       0.24080484      -0.01106007      -0.24381167
H        3.46017676      15.63134519       6.60160462      -0.10128468      -0.02286034       0.10045365      -0.24527626      -0.21611397      -0.40230846       0.02481756      -0.04556935
H        4.24567342      13.21818504       7.28056792      -0.32760860      -0.01868118      -0.10409075       0.28513283       0.81080467      -0.80142927       0.00952656      -0.02052335
O       11.92803807      13.49270782       8.94849800      -0.29349479       0.27343921      -0.44306869       0.28814542      -0.88459080       0.44431123      -0.02880725      -0.03117155
C       11.18187188      12.42467021       8.47195366       0.39768166       0.51384290      -0.80836717      -1.09080112       0.75086731      -1.03302979       0.01212449      -0.22500874
C       11.77703560      11.77910531       7.16686343      -0.03325370       0.81359190      -1.23240948       1.19476640      -0.77700382       0.40047753       0.02401142      -0.08845127
F       12.86358498      10.99003191       7.43551544       0.18112101       1.29502716      -0.03097743      -0.69476783       0.51151896       0.24079387      -0.01663056      -0.23725924
F       12.26452024      12.77083942       6.41025569      -0.91926887       1.17874021      -0.63826142      -0.29608530       0.28796953      -0.30997533      -0.00971497      -0.27603367
F       10.96956018      11.00883397       6.42430306      -0.30341970       1.42629784      -1.20881899      -0.14416876       0.61851501       0.82698089      -0.01102766      -0.23149730
C        9.72749917      12.92398954       8.20386854       0.01710674      -0.08091459      -0.40503301      -0.08996635       0.97029072      -0.94403094       0.02257954      -0.11984229
F        9.43569907      13.18869477       6.91123483      -1.33834466       0.29965336       0.64622386       0.57198423      -0.02894610       0.10799383      -0.01148094      -0.23393114
F        9.50455192      14.08059444       8.85408554      -0.46118614      -0.49823504       0.29115079      -0.14482355      -0.66405326       0.00114198      -0.01335627      -0.23360924
F        8.85512140      12.00134683       8.58142824       0.36936832       1.00176533       0.29246995      -0.42997491      -0.36341950       0.59129763      -0.01216156      -0.27034968
H       12.25688108      14.02208493       8.23115982      -0.06469592      -0.06270849       0.11340521       0.19586602       0.45267993      -0.64205575       0.02400482      -0.03987762
H       11.02338315      11.73177919       9.27661763       0.15854706       0.22596577       0.00606665       0.51700401      -0.68928760       0.25223511       0.01100446      -0.03655630
O       14.55702320       8.74717258      11.04067144      -0.26265872      -0.68215839       0.70006631      -0.51316762      -0.17651165       0.39983392      -0.02465886      -0.07025965
C       13.24274216       8.86309737      11.50952473       0.32430763      -0.64068715       0.10255183      -0.46441394      -0.77071029      -0.36750734       0.01337364      -0.20940527
C       12.33393518       8.39915568      10.31659524       0.11088072      -0.08533586      -0.51710041      -0.83067912       0.82048976       0.08255345       0.02383160      -0.12040450
F       12.46362025       7.08176135      10.17706260      -0.93795413       0.70351315      -0.53908617       0.30212528       0.10919290      -0.28465578      -0.01023986      -0.25620219
F       12.67773325       9.00152851       9.13366850      -0.42825420       0.42657557       0.82004442      -0.40664253      -0.67610818       1.42036176      -0.01338943      -0.27964166
F       10.99822888       8.62474927      10.53232779       0.77103623       1.35980619       0.71249352       1.22293401       0.21969165      -0.20896713      -0.01308306      -0.25427201
C       12.98043061      10.26214989      12.11047475      -0.56534288      -0.37378559      -0.13844959      -0.69756854      -0.06529679      -0.24374002       0.02467473      -0.11332820
F       12.90374144      11.19660366      11.11955375       0.20380534      -1.17994090       0.04525455       0.05414022      -0.46270913       0.70680332      -0.01182372      -0.28276896
F       13.99074567      10.55665756      12.91868947      -1.24460032      -0.81839171      -0.12067489       0.11462083       0.28383291      -0.09605495      -0.00851755      -0.26297820
F       11.84757601      10.33621615      12.84852876      -0.66490256      -1.13532543      -0.20877353       0.67715132      -0.14595473      -0.87776911      -0.01138048      -0.26444724
H       14.81685768       9.59625823      10.70361623       0.07068502      -0.23036159       0.21901229       0.56107658       0.69800377      -0.57275462       0.02121455      -0.05568270
H       13.11644394       8.11307594      12.31805817      -0.16696037       0.08578403       0.05731584      -0.19614899       0.42390090      -0.35438323       0.01340154      -0.04761717
O        1.80456658      12.65990733       7.30461494      -1.23734489      -0.04674340       0.45151372       0.64074188       0.81364757      -0.76011127      -0.02439349      -0.09102044
C        2.08551516      11.96572901       8.45980901      -0.33974682      -0.35312688      -0.06091716      -0.55152249      -1.20448673      -0.97569281       0.01374921      -0.20614345
C        2.13480906      10.42907481       8.11714356      -0.55760072       0.67796685       0.01240462      -0.33144754       0.17125590      -0.50689411       0.02477831      -0.10101005
F        2.99567181      10.16289857       7.10148376      -0.74950250       1.64313208      -0.21193109      -0.39030695       0.69233871       0.75741458      -0.01208742      -0.26836202
F        0.93961070       9.93131078       7.69403674      -0.04549913       0.86086101       1.04745884       0.55389386       0.43498436       0.73571187      -0.01208768      -0.27989292
F        2.56738838       9.77879923       9.18804232       0.27168381       0.19887009       0.16703483      -0.23729047      -0.50937986       0.13518515      -0.00958610      -0.25397098
C        1.08677848      12.44071241       9.52911016       0.54437477      -0.43148838      -0.14962756       0.12856114       0.33560264      -0.23949848       0.02393757      -0.12805243
F       -0.16245636      12.56047146       9.03841488       0.41646463       0.04789423      -0.56161668       0.65867299      -0.27594933       0.11765015      -0.01122388      -0.25719118
F        1.44266072      13.65230236       9.98892172      -0.25614952      -0.89732041      -0.50927419      -0.34281921      -0.48805583      -0.20940983      -0.01178411      -0.22525087
F        1.06511089      11.62215200      10.56355597       1.56644635      -1.25577039      -0.82486320      -0.23524748      -0.64000577       0.76382893      -0.00761006      -0.26105562
H        0.92817837      12.44632751       6.96883101       0.00460762       0.04191167       0.10007462      -0.18354617      -0.14102079       0.06065685       0.02483785      -0.04961158
H        3.10703766      12.14680951       8.78192691       0.07437795      -0.07951741      -0.03356102       0.04854957       0.49707854       0.18303005       0.01373161      -0.03776195
O        9.41571496      12.05511974       4.36726328       0.72643972       1.11849148      -0.17233453       0.13731070      -0.46172637       0.15395485      -0.02859742      -0.10235614
C        9.17876547      13.04623983       3.44081276       0.23331710       0.02720987      -0.01256362       0.89724201       0.95263076      -0.00336309       0.01180139      -0.27301389
C        7.96013975      12.76221197       2.60294088       0.47093536       0.00965320       0.16198131      -0.51701570       0.23116016      -1.18928981       0.02396064      -0.16780663
F        6.88534953      12.45976423       3.32287659       1.12719118       0.45417453       0.87418347       0.33954191       0.08355936       0.16646594      -0.01108052      -0.24666874
F        8.18340002      11.77317972       1.73235997      -0.22279158       0.59472994       0.49255177      -0.11799935      -0.31706765       0.19001645      -0.01223493      -0.25494063
F        7.65286509      13.86698827       1.85874947      -0.10310511      -0.22914062       1.09337137      -0.14923456      -0.12737836       0.53134394      -0.01174178      -0.23378265
C       10.44832644      13.27518604       2.54627265      -0.01646978      -0.12423886      -0.54260460      -0.52021480       0.61699110       0.71253538       0.02291990      -0.14056258
F       10.81234637      12.11216725       2.00568701      -0.40463240       0.20134160       0.00210893       0.38856870      -0.07936808      -0.16389270      -0.00873778      -0.26584575
F       11.48344904      13.76227731       3.28024992       0.43597616      -0.15652904      -0.91416133      -0.86277097      -0.61045265      -0.52172971      -0.01257025      -0.25373065
F       10.20249331      14.14825014       1.55466872      -0.09529218       0.15071040      -0.58242779       0.30881745      -0.15305735       0.23436671      -0.01156157      -0.25694007
H        9.82781782      11.28934226       3.93700713       0.03988850       0.07328896      -0.05568727      -0.13666435       0.14391191       0.08353782       0.02380039      -0.04317424
H        8.96662861      13.99078136       3.96159460      -0.07869391       0.23428302       0.10098166       0.17600495      -0.23088568       0.05364234       0.01340224      -0.04494639
O        6.77451364       3.49693385       9.32773182      -0.49237660      -0.15384909       1.02656325       1.06242549       0.46499074       0.26652342      -0.02553507      -0.12745021
C        6.44347411       3.81839475      10.63246061      -0.33912574      -0.77640831       0.27425986      -1.17624652      -0.88990295       1.07950628       0.01250215      -0.22795002
C        5.85670551       5.22948453      10.74849421       0.03927622      -0.58695051       0.56786642      -0.69556135       0.05046740      -0.31473374       0.02375391      -0.15631698
F        4.85736563       5.35626061       9.85712629       0.05515495      -2.06124037      -0.33997041      -0.26671073      -0.11744966       0.20672458      -0.01179371      -0.26905137
F        6.73522793       6.16127147      10.42764322      -0.46846843       0.28895208       0.18487734       0.54259855       0.31371090       0.32253966      -0.01015379      -0.23837745
F        5.34589048       5.51008216      11.97914406      -0.20491791      -2.13790686       0.88380667       0.39151910      -0.19452655      -0.64801025      -0.01054622      -0.28980356
C        7.50578880       3.59114555      11.68463847      -0.70733110      -0.10443815       0.03162246       1.10397661       0.00137773       1.51835167       0.02395194      -0.11348641
F        8.45497857       4.54031587      11.68527982      -1.63003695       0.09791198       0.82458913      -0.18595554       0.94153023       0.23406565      -0.01107447      -0.24746932
F        8.21064253       2.48539494      11.52356290       0.06110748       0.42029435      -0.83208014      -0.47577062      -0.81846434      -0.44764435      -0.01153717      -0.20598298
F        6.95382755       3.52574844      12.94825286       0.20403988      -1.41472675      -0.01760172       0.38431144       0.34795001      -1.36125004      -0.01329586      -0.26454246
H        7.68732117       3.80821051       9.20352073      -0.14210426      -0.16979788      -0.14247751      -0.21599464      -0.12379359      -0.49679339       0.02463570      -0.03249303
H        5.69173230       3.09460798      10.96333100      -0.02966910      -0.14033709      -0.04125420      -0.37740347       0.33011389      -0.19691996       0.01114764      -0.02406178
O       11.11338555       3.12312101      10.76840567       1.46358946      -0.87361990       0.79374309       0.04647861       0.37406829      -1.63831246      -0.02879686      -0.04425539
C       11.93907563       2.96099594      11.87046734       0.48260020      -1.34194672      -0.38265822      -0.15562735      -0.77355105      -0.85289669       0.01134017      -0.28281158
C       12.64278898       4.26821655      12.24337346       0.00638602      -1.18919508      -0.30018648      -0.65865088       1.04477489      -0.24525680       0.02163929      -0.15731457
F       11.77636590       5.33642228      12.31625070       1.20634440      -1.72915568       0.77070025       0.41263241      -1.23959422       0.06347881      -0.01702495      -0.28021476
F       13.50822758       4.57584164      11.28100664      -0.12015402      -0.60729008      -0.45303622       0.30200365       0.36032346      -0.71050894      -0.01245958      -0.24546966
F       13.31613793       4.22200166      13.36819194       1.73736637      -0.66318842       0.41595396       0.06733330      -0.15254921       0.77027768      -0.00986218      -0.23504333
C       12.91925875       1.77386566      11.68060838       0.00488599      -0.79236481      -0.35464820      -0.07100184       0.31893551       1.60282934       0.02267095      -0.10805336
F       13.94530469       2.00724344      10.89506027       1.56689548       0.46496083      -0.67919717       0.03017454      -0.18676351      -1.57251060      -0.01001102      -0.20405622
F       12.27770720       0.66079558      11.26953515       1.28068121       0.28676686       0.99505535       0.56589085       0.84693903       0.41993168      -0.01241212      -0.26807773
F       13.49529779       1.58349378      12.90031910       0.81011338      -0.47562226       0.24248978      -0.59745020      -0.80635929      -0.03657551      -0.01271609      -0.23863211
H       11.57565340       3.27827435       9.90058948       0.00696714       0.20477232      -0.01176173      -0.25531381      -0.19711107       1.51025438       0.02125862      -0.06066698
H       11.28273607       2.60164449      12.64867374       0.19605878      -0.04601619      -0.05266800      -0.14736572       0.27353287       0.57224268       0.01160632      -0.03397117
O        6.38116764       7.18718786       7.86299479      -0.17715029       0.27773306      -0.69138362      -0.12012898      -0.39485490      -0.17694563      -0.02683988      -0.08115847
C        6.97007088       7.52904507       6.64320669      -0.12958601      -0.10001942       0.13310590       0.18596527      -0.33471233       0.42466354       0.01415852      -0.18545158
C        6.25709628       8.81916496       6.11446878       0.12657146      -0.79525032       0.55167720      -0.94972104      -0.27334812      -0.21656761       0.02379984      -0.12930143
F        6.24976812       9.65314707       7.15619758       0.77631331       0.07263341       0.02125862      -0.02508704       0.29685119       0.00017309      -0.01293127      -0.24089175
F        4.94811053       8.61490468       5.76405558       0.69292364      -0.12885566       0.52237855       0.96440995      -0.23124295       0.33356023      -0.01325927      -0.26442063
F        6.82761747       9.46306104       5.09219801      -0.08576788      -0.16054604      -0.37906016       0.27197605      -0.51682830       0.16994345      -0.01101636      -0.26202071
C        7.14505119       6.29294220       5.70094388      -1.33614224      -0.21509525      -0.18911204      -1.20872939       1.34918606       0.49985531       0.02513110      -0.09525349
F        5.93828803       5.74163895       5.44961347      -1.42568159      -0.47734309      -0.17615820       0.25469196      -0.31809509       0.36092284      -0.00833946      -0.27943003
F        7.96475813       5.34881538       6.19055049      -2.17788546      -0.38694255      -0.54431168      -0.44203645       0.58694810      -0.21312954      -0.01052827      -0.27730390
F        7.59094915       6.75717089       4.55190066      -0.45477970      -0.04497662       0.39636794       0.84147012      -0.19442019      -0.86176020      -0.00904106      -0.24532875
H        5.57106413       6.67811970       7.72164404      -0.04382756       0.02964759       0.27066519      -0.00925574       0.07559391      -0.06503133       0.02457829      -0.05002137
H        7.96415262       7.87310858       6.91705169       0.19332950       0.00075452      -0.02924241       0.29934582       0.01821385      -0.23399028       0.01276275      -0.02635679
