192
Lattice="14.592803403709198 0.0 0.0 0.0 14.592803403709198 0.0 0.0 0.0 14.592803403709198" Properties=species:S:1:pos:R:3:momenta:R:3:forces:R:3:charge:R:1:energies:R:1 Built=T with=T Packmol=T charge=0 spin=1 external_field="_JSON [0.0, 0.0, 0.0]" energy=-19.50264549255371 stress="0.003168168943375349 -0.002345325890928507 -0.00020727900846395642 -0.002345325890928507 0.005325634032487869 0.0018151582917198539 -0.00020727900846395642 0.0018151582917198539 0.001453364617191255" dipole="-0.1521308273077011 -1.1069751977920532 -0.44737547636032104" free_energy=-19.50264549255371 pbc="T T T"
O       13.59419914       5.96587727       7.12984624       0.06121976       0.28608675       0.59540957      -0.16643134      -0.06300964      -0.05265767      -0.02582083      -0.11428050
C       12.83751877       4.82348928       6.85619671      -0.80798723      -0.17606220      -0.22126389       0.51227647      -0.03668179       0.65476894       0.01367135      -0.20258000
C       11.35729044       5.06704923       7.18772076       0.22913595       0.03001893      -0.49024560      -0.08426269      -0.15870497      -0.63131034       0.02333189      -0.15380438
F       10.88031883       6.11500611       6.48944951       0.78039445      -0.83504320      -1.04021137       0.41727144      -0.11429282       0.28541392      -0.01263946      -0.27283037
F       11.17516530       5.32313213       8.48536565       0.46668796      -1.02932932       0.21569461      -0.06911261      -0.05041320       0.34473911      -0.00877954      -0.29222158
F       10.60139332       4.01862609       6.84305822       0.76661804      -0.03579256      -0.40252228       0.02683571      -0.20435648       0.22232282      -0.01058880      -0.26763350
C       13.56393792       3.58192756       7.53312095      -0.29249430       0.57062886      -0.67512850      -0.84908551      -0.04774847      -2.13660312       0.02407436      -0.08107895
F       14.08283264       3.76703913       8.70771929       0.31970167       0.81888679      -2.15518117       0.39599404       0.97181302       1.21977282      -0.00733647      -0.23888697
F       14.55743184       3.24009977       6.69319823       0.61686761      -0.19713927      -0.03298193       0.06871288      -0.03824146       0.09415108      -0.01107633      -0.26060143
F       12.75796647       2.51549543       7.64893329      -0.84298653       0.25723106      -0.42179925      -0.50511426      -0.28545001      -0.12651239      -0.01038397      -0.28270981
H       13.51115844       6.17041020       8.07144645       0.04434246       0.07339787       0.08457518       0.08543527       0.10888863       0.02483292       0.02255322      -0.05684882
H       12.86201562       4.64446572       5.78158885      -0.00685525      -0.08504185      -0.09597555       0.15541920      -0.07096837      -0.01066386       0.01426340      -0.04276077
O        2.07140974       9.45281532       2.31310613      -0.44550775       0.25414038       0.56351391       0.20657744       0.03246567       0.03726960      -0.02579485      -0.18000805
C        3.10125683      10.36877794       2.60056027       0.55426954       0.67803931       0.03712038       0.16798520      -0.54723477      -0.33564913       0.01371662      -0.26128760
C        2.82009981      11.74831135       1.99443454       0.41305319      -0.01814936      -0.16804904       0.05789949       1.03207767      -1.54859865       0.02355908      -0.14312646
F        1.54485830      12.09121050       2.21680128       0.85564038       0.50215234       0.05561339       0.38451228      -0.24451785      -0.00463781      -0.01113117      -0.25421000
F        3.04848216      11.89337113       0.64646407       0.73998207      -0.66759599      -0.72152113      -0.43267408      -0.93139964       0.83353114      -0.01390908      -0.24453335
F        3.59900489      12.68856145       2.52075158      -0.62198839      -0.54956767       0.84418810       0.10717191       0.07117455       0.65581620      -0.00927857      -0.20547830
C        4.48429383       9.79734635       2.19717776      -0.10529931       1.03024034      -0.69289279      -0.83363718       0.06197605      -0.92849302       0.02480048      -0.12195905
F        4.35420403       9.16288161       1.01149566      -0.86900499       0.73948677       1.26562978       0.07181627      -0.09136302       0.14488897      -0.01080182      -0.24083234
F        4.93460547       8.89469696       3.05747256      -0.26525195       0.32803685       0.04853288       0.03404966       0.15870696       0.24206518      -0.00900977      -0.25195768
F        5.37048422      10.76217470       2.01951213      -0.05097020       0.74080186      -1.13949342       0.37388554       0.03301355       0.30488819      -0.00962660      -0.23984011
H        2.34931010       8.81963197       1.63095037      -0.05125728      -0.02355991      -0.05948956       0.06443619       0.34809291       0.04782141       0.02209367      -0.05847444
H        3.13525965      10.52073287       3.66796271       0.05798180       0.03649151      -0.05914747      -0.06651294       0.15656975       0.49863106       0.01240936      -0.04500417
O        7.62150560      13.03573253      13.93536719      -0.21012596      -0.14798951      -0.46356646       0.24213573       0.38228652      -0.72593576      -0.02874869      -0.09261741
C        8.03033599      13.32742253      12.62560510      -0.03547744       0.35201168      -0.20627343      -1.37456512       0.79856628      -0.04845494       0.01216233      -0.20919332
C        9.48469761      13.85300347      12.50354740      -0.44931378      -0.14520049      -0.65844923       0.10422211      -0.49196103      -0.11742465       0.02267396      -0.14101547
F       10.17280940      13.29985714      13.49687443      -1.14202221       0.56530871      -0.31269517       0.37626475      -0.00842553       0.07742927      -0.01248706      -0.24442706
F        9.64285317      15.17974191      12.58263956      -0.40917619      -0.02916660      -0.37391996      -0.22489394      -0.12668909       0.01453384      -0.01114518      -0.26924258
F       10.05301318      13.43512611      11.33888797      -1.30829657       0.42796739       0.17928785      -0.51635242       0.29245466       0.66306233      -0.01412712      -0.24335340
C        6.93334551      14.19247314      11.89087263      -0.11849456       0.02807900      -0.23867806       0.70807916      -0.68861347       0.17110105       0.02427352      -0.10000464
F        6.47525304      15.17057235      12.70905622      -0.36745485       0.30814290       0.03184647       0.40967694      -0.15071070      -0.64109862      -0.00833120      -0.27158344
F        5.86437934      13.44676825      11.55658381       0.00558980       0.51740756      -1.04763957      -0.09444185      -0.15738308       0.45337647      -0.01177453      -0.27504399
F        7.38113461      14.67111877      10.72840780      -0.37261724       1.42651412       1.33737014       0.16140135       0.48919111       0.51056194      -0.01146936      -0.23588724
H        7.26932872      13.82085180      14.37952368       0.12345571       0.06669021       0.03090099       0.18616854      -0.06806930      -0.09588215       0.02469286      -0.04440540
H        8.02732989      12.39453731      12.09873988       0.14668243       0.05866005       0.10503073       0.10966815      -0.64369345      -0.36488709       0.01235368      -0.03045527
O       13.83642494       9.02073321       1.69139145       0.57379818      -0.01023033       0.39084823       1.68877900      -0.34424776      -1.42303061      -0.03498494      -0.07729018
C       12.82941612       9.31380589       2.55255384       0.36323191       0.61715795      -0.67564998      -0.38188601      -1.26124132       0.23420738       0.00893520      -0.16334228
C       13.25945725      10.53525715       3.34052701      -0.41391938       0.74767923      -1.45752324       0.24524732       0.49768159       0.14979003       0.02393286      -0.11806593
F       13.69572339      11.51707636       2.49122602      -0.46096483      -0.30910662      -0.07376646      -0.57971740      -1.08760607       0.89378428      -0.01234589      -0.23992530
F       14.29664035      10.17764827       4.13497221       2.14518895       0.04864798      -1.31011276      -0.28390995       0.62586248      -0.10959625      -0.01183467      -0.27417862
F       12.29624318      11.07561608       4.09532405       1.61476543       0.36786038      -0.88995086       0.19569312      -0.31299749       0.04329817      -0.00904544      -0.25700217
C       12.43047998       7.96827998       3.28982581       0.44503121       0.34630989      -0.77154437       0.92353082       2.17228365      -0.01613185       0.02417097      -0.10543899
F       13.32218599       7.65351754       4.22527778       0.53952803       0.03204844      -1.44951929      -0.29078561      -0.37146014       0.41092813      -0.01024137      -0.28155869
F       12.38878304       6.97063332       2.41550066       0.44018259      -0.03595124      -0.47487152      -0.12574658      -0.30178943      -0.32473215      -0.01032713      -0.27658707
F       11.21162623       8.12557658       3.80173454      -0.07723442       1.99277581      -0.58706963      -0.29989746      -0.30313766       0.61880773      -0.01189990      -0.27828184
H       14.73950855       9.25370245       2.01067544      -0.21494731      -0.27427934      -0.06832418      -0.69564033      -0.05430627       0.05930449       0.02003180      -0.08777162
H       11.92176436       9.50023241       2.01003965       0.01975535      -0.14015211       0.04733525      -0.44918218       0.66899252      -0.58625686       0.01153960      -0.03406740
O       11.14294470       4.37947324       0.72841804      -0.09114793      -1.39732856       0.57423890      -0.12605406       0.18871805      -0.69975752      -0.02439339      -0.10489551
C       10.88066524       3.27305405       1.49076493      -0.55060829      -0.54342012       0.53622305       0.40438020      -1.39059663      -0.30437341       0.01328846      -0.21724480
C        9.71845201       3.41756840       2.43247871      -0.04100263      -0.16744205      -0.38157475       0.18930167       0.43526900       0.18706785       0.02412424      -0.15294789
F        8.69486272       3.99816897       1.81295649       0.33418213      -0.61812795       0.52974854      -0.24296726      -0.18151869      -0.01808617      -0.00896297      -0.26363155
F       10.05211724       4.20089259       3.46497236       0.36084864      -1.24150510      -0.31309086      -0.16431163      -0.02904692       0.53557676      -0.01123947      -0.28146714
F        9.35034659       2.20738834       2.86886064       0.14230006      -2.31321347      -0.38852419      -0.29187205       0.19072205       0.28097767      -0.00877588      -0.25602120
C       12.14506882       2.71442528       2.13781517      -0.79021785       0.44158067       0.18017838       1.83869302       0.65523726       1.40614140       0.02311171      -0.13053915
F       12.81592842       3.67718124       2.85203176      -0.67608094      -0.15821753       0.60244756      -0.59909523       0.23530321      -0.30590028      -0.01415990      -0.27866387
F       13.03229020       2.27786529       1.25514698       0.85394259      -0.65534571       1.25500037      -0.19514465       0.04906789      -0.99146456      -0.01015067      -0.24590917
F       11.98311320       1.71766663       2.99594051       0.36320590       0.01263850       0.50802050      -0.90214109      -0.28481376       0.22244449      -0.00995541      -0.22707930
H       11.45705074       5.12627538       1.24489902       0.29004127      -0.21020467      -0.03546141       0.11415759       0.09887180       0.34790182       0.02365107      -0.06813853
H       10.57307097       2.43419196       0.86467076       0.09146448       0.05272875      -0.19531370      -0.07560295       0.17684428      -0.60056669       0.01289114      -0.01187301
O        9.09282551       7.32445737      12.17419759      -0.10329082      -0.51820351      -0.46442869       0.33665305       0.70016259       0.42491654      -0.02961610      -0.11897004
C        8.87938359       8.57044516      12.76680713       0.15253511      -0.51800084       0.35920753      -0.03191450       0.79255575      -0.41207504       0.01199231      -0.23959558
C        9.56088947       8.76614745      14.14662505      -0.82450712       0.11007090       0.43624703       0.26727557      -0.29898447       1.20203471       0.02341177      -0.14108515
F       10.72984815       8.09522571      14.18610429       0.21699825      -0.44411390       0.71362550      -0.28226316      -0.05842345      -0.24145374      -0.01376493      -0.27811992
F        8.82913545       8.31475094      15.20360922      -0.91207788       0.65746339       0.91752109       0.20689584       0.15857035      -0.81469101      -0.01156318      -0.27373815
F        9.87168727      10.04997415      14.42645510       0.75081508      -1.83949584       0.83034451      -0.65936130      -0.36214709      -0.42927322      -0.01360349      -0.23609471
C        7.37851691       8.90853806      12.74643334       0.68792848       0.14227287       0.75290593      -0.10151086      -0.63325685      -0.07909304       0.02469764      -0.14134564
F        6.70377932       7.97908123      13.45799997       0.45415871      -0.48254294      -0.10519698      -0.03872712       0.11892026      -0.33343229      -0.01060220      -0.27730590
F        6.94545617       8.86094894      11.46573913       1.24245205      -0.41714577       0.87713766       0.08915906       0.05363324       0.65383732      -0.01340284      -0.27363321
F        7.07495550      10.10179657      13.24095357       0.58417694      -0.81760760       1.31213284       0.22347876       0.16599847       0.06458681      -0.01015534      -0.27529681
H        8.43591191       6.71466963      12.50360558       0.31839627      -0.04752917      -0.04362186      -0.29049703      -0.56390488       0.19706033       0.02274831      -0.04708121
H        9.33488756       9.32748668      12.12216084       0.04891010      -0.05725127       0.14556139       0.17077063      -0.10173195       0.02595680       0.01096595      -0.04047754
O        3.76894587       1.32269247      12.23872434      -0.22010317       0.21224262      -0.66415684       0.67507595      -0.46959570      -0.64642364      -0.02973501      -0.11512034
C        2.61360330       1.76785757      11.56890041      -0.04608662      -0.13988384      -0.82570276       0.42303300      -0.80862510       0.96422529       0.01083293      -0.20317057
C        2.90071367       1.72228339      10.05840742       0.15461789      -0.13324926      -0.03149025       0.54295921      -0.74706280      -0.37112996       0.02531818      -0.08510509
F        3.38863039       0.44549309       9.82112440       0.02624703       0.68524207       0.71124858       0.38068530       1.34979558       0.29255438      -0.01363296      -0.17431775
F        3.84774575       2.60752232       9.64753019      -0.22190779       0.53458906      -0.28098366      -1.04404557      -0.91212714       0.19548398      -0.01009372      -0.24824159
F        1.81596924       1.80217870       9.29838398       0.73145748       0.71212590       0.65857182       0.04914716       0.73209006       0.06221723      -0.01106157      -0.25349575
C        2.29058336       3.10976192      12.24978340      -0.41238638      -0.81824331      -0.69721187      -0.27140620       0.19506375      -0.55999815       0.02469618      -0.09663689
F        2.89821581       4.13536101      11.55771789      -0.06274309      -0.24771489       0.75884576      -0.77241254      -0.66610986       1.01294124      -0.01140565      -0.26525795
F        2.64955352       3.15796182      13.53796582       0.96708585      -1.02707274      -0.48766920       0.30756608       0.00559848      -0.86922872      -0.00874351      -0.24673840
F        0.96009319       3.25924846      12.24190433       0.03494457      -0.53225543      -0.33960226       0.61764985       0.76201260      -0.25686279      -0.01170477      -0.17951709
H        4.26412477       0.69163211      11.66944705       0.13814843      -0.15221291       0.01183741      -0.61736202       0.39174393       0.59496874       0.02150132      -0.04409692
H        1.74896080       1.09207216      11.76431234       0.21080282      -0.13283790      -0.14638893       0.44966561       0.38145995      -0.25542316       0.01288589      -0.05113552
O        2.41182456       6.96997370      11.57499738       0.06277657      -1.31259118       1.50902341      -0.01516846       0.18919678      -0.20251012      -0.02984523      -0.13002656
C        1.98942715       7.64071537      12.70882715      -0.13607783      -0.42131976       1.41292121      -1.16236889       0.40634647       0.69773567       0.00961063      -0.23805390
C        2.67253801       9.00115546      12.92324380      -0.45565331      -0.22097050       0.20172959       1.26583588       0.63415992       0.85502774       0.02278560      -0.14496662
F        2.61769313       9.87122825      11.92117717      -0.20817700      -0.49562933       0.10717719      -0.66243672      -0.37460428      -0.47332272      -0.01228388      -0.24138992
F        4.01047097       8.86704222      13.16312363       0.04319614      -0.23619444       0.54925741      -0.74048847      -0.50385541      -0.13592152      -0.01405984      -0.23415512
F        2.13959962       9.63004248      14.00267603      -0.78718825       0.12540843      -0.19124650      -0.06201256      -0.40574905      -0.49546522      -0.01225628      -0.24582702
C        2.12249860       6.70619431      13.93496026      -0.51295193      -0.04398571       0.28436088       0.44347924       1.28011107       0.07483113       0.02527978      -0.09737018
F        3.26204493       6.04477144      13.93199402      -0.05635678       0.08727249       0.27707646       1.13486183      -0.01643639       0.21681887      -0.00685894      -0.24941187
F        1.18594294       5.82085775      13.84410237      -0.87435898      -0.15110982      -0.54433527      -1.73405612      -1.33712208       0.13081601      -0.00961980      -0.21036695
F        1.98698109       7.32234801      15.15553360      -0.11203454       0.23030502      -0.13779705       0.11079989      -0.34391928      -0.70453495      -0.00634476      -0.25279087
H        3.22551010       6.47080572      11.74694612       0.06231477      -0.13016679      -0.12911310      -0.06978052       0.16394557       0.06422832       0.02145043      -0.06470616
H        0.86805118       7.82368668      12.64785287       0.16490885      -0.02663798      -0.00500115       1.67830992      -0.08746272      -0.08293176       0.00902320      -0.01253624
O        4.16395084      15.28799753       7.15033276       0.34081903       1.33827412      -0.02904383       1.00621343       0.11174887       0.41828409      -0.02646017      -0.05855959
C        4.69066458      14.08329632       6.69389071       0.07173739       1.60452880      -0.20029815      -0.16982444      -1.00492370       1.31051373       0.01008023      -0.19406705
C        6.19766905      13.93487686       7.09030798      -0.16969184       0.61902840      -0.12843117       0.51387984       0.67618036      -0.90292913       0.02418941      -0.12642932
F        6.25927886      13.70689317       8.40809949      -1.59432974       0.78436200       0.51491056       0.01164516      -0.47237748      -0.32383999      -0.01260148      -0.25095475
F        6.99974075      15.01582291       6.88081502      -0.63728536       1.24243190      -0.31889244      -0.99806374      -0.73960340      -0.23442507      -0.01227890      -0.26136655
F        6.74206361      12.89618175       6.38337265      -0.97589418       1.33507669       0.23124119      -0.59507877       0.78099746       0.98615414      -0.01284964      -0.25758934
C        4.34464106      13.80824581       5.23899884       0.57130344       1.31698890       0.62922468       0.06951228       0.69556230      -0.30630976       0.02381076      -0.15094233
F        5.09763937      14.48834017       4.36816249      -0.13827919       0.75824635      -0.00374607       0.23758022       0.07716938       0.09551451      -0.00910002      -0.27325845
F        3.07560837      14.24370041       5.04386629       1.47583137       2.32364011       0.16296443       0.04599844      -0.45657000      -0.10533037      -0.00998341      -0.25760975
F        4.43393808      12.52148628       4.93557493       0.03665095       2.69610609       1.26628664      -0.18147196      -0.25119168       0.24080484      -0.01106007      -0.24381167
H        3.46017676      15.63134519       6.60160462      -0.10128468      -0.02286034       0.10045365      -0.24527626      -0.21611397      -0.40230846       0.02481756      -0.04556935
H        4.24567342      13.21818504       7.28056792      -0.32760860      -0.01868118      -0.10409075       0.28513283       0.81080467      -0.80142927       0.00952656      -0.02052335
O       11.92803807      13.49270782       8.94849800      -0.29349479       0.27343921      -0.44306869       0.28814542      -0.88459080       0.44431123      -0.02880725      -0.03117155
C       11.18187188      12.42467021       8.47195366       0.39768166       0.51384290      -0.80836717      -1.09080112       0.75086731      -1.03302979       0.01212449      -0.22500874
C       11.77703560      11.77910531       7.16686343      -0.03325370       0.81359190      -1.23240948       1.19476640      -0.77700382       0.40047753       0.02401142      -0.08845127
F       12.86358498      10.99003191       7.43551544       0.18112101       1.29502716      -0.03097743      -0.69476783       0.51151896       0.24079387      -0.01663056      -0.23725924
F       12.26452024      12.77083942       6.41025569      -0.91926887       1.17874021      -0.63826142      -0.29608530       0.28796953      -0.30997533      -0.00971497      -0.27603367
F       10.96956018      11.00883397       6.42430306      -0.30341970       1.42629784      -1.20881899      -0.14416876       0.61851501       0.82698089      -0.01102766      -0.23149730
C        9.72749917      12.92398954       8.20386854       0.01710674      -0.08091459      -0.40503301      -0.08996635       0.97029072      -0.94403094       0.02257954      -0.11984229
F        9.43569907      13.18869477       6.91123483      -1.33834466       0.29965336       0.64622386       0.57198423      -0.02894610       0.10799383      -0.01148094      -0.23393114
F        9.50455192      14.08059444       8.85408554      -0.46118614      -0.49823504       0.29115079      -0.14482355      -0.66405326       0.00114198      -0.01335627      -0.23360924
F        8.85512140      12.00134683       8.58142824       0.36936832       1.00176533       0.29246995      -0.42997491      -0.36341950       0.59129763      -0.01216156      -0.27034968
H       12.25688108      14.02208493       8.23115982      -0.06469592      -0.06270849       0.11340521       0.19586602       0.45267993      -0.64205575       0.02400482      -0.03987762
H       11.02338315      11.73177919       9.27661763       0.15854706       0.22596577       0.00606665       0.51700401      -0.68928760       0.25223511       0.01100446      -0.03655630
O       14.55702320       8.74717258      11.04067144      -0.26265872      -0.68215839       0.70006631      -0.51316762      -0.17651165       0.39983392      -0.02465886      -0.07025965
C       13.24274216       8.86309737      11.50952473       0.32430763      -0.64068715       0.10255183      -0.46441394      -0.77071029      -0.36750734       0.01337364      -0.20940527
C       12.33393518       8.39915568      10.31659524       0.11088072      -0.08533586      -0.51710041      -0.83067912       0.82048976       0.08255345       0.02383160      -0.12040450
F       12.46362025       7.08176135      10.17706260      -0.93795413       0.70351315      -0.53908617       0.30212528       0.10919290      -0.28465578      -0.01023986      -0.25620219
F       12.67773325       9.00152851       9.13366850      -0.42825420       0.42657557       0.82004442      -0.40664253      -0.67610818       1.42036176      -0.01338943      -0.27964166
F       10.99822888       8.62474927      10.53232779       0.77103623       1.35980619       0.71249352       1.22293401       0.21969165      -0.20896713      -0.01308306      -0.25427201
C       12.98043061      10.26214989      12.11047475      -0.56534288      -0.37378559      -0.13844959      -0.69756854      -0.06529679      -0.24374002       0.02467473      -0.11332820
F       12.90374144      11.19660366      11.11955375       0.20380534      -1.17994090       0.04525455       0.05414022      -0.46270913       0.70680332      -0.01182372      -0.28276896
F       13.99074567      10.55665756      12.91868947      -1.24460032      -0.81839171      -0.12067489       0.11462083       0.28383291      -0.09605495      -0.00851755      -0.26297820
F       11.84757601      10.33621615      12.84852876      -0.66490256      -1.13532543      -0.20877353       0.67715132      -0.14595473      -0.87776911      -0.01138048      -0.26444724
H       14.81685768       9.59625823      10.70361623       0.07068502      -0.23036159       0.21901229       0.56107658       0.69800377      -0.57275462       0.02121455      -0.05568270
H       13.11644394       8.11307594      12.31805817      -0.16696037       0.08578403       0.05731584      -0.19614899       0.42390090      -0.35438323       0.01340154      -0.04761717
O        1.80456658      12.65990733       7.30461494      -1.23734489      -0.04674340       0.45151372       0.64074188       0.81364757      -0.76011127      -0.02439349      -0.09102044
C        2.08551516      11.96572901       8.45980901      -0.33974682      -0.35312688      -0.06091716      -0.55152249      -1.20448673      -0.97569281       0.01374921      -0.20614345
C        2.13480906      10.42907481       8.11714356      -0.55760072       0.67796685       0.01240462      -0.33144754       0.17125590      -0.50689411       0.02477831      -0.10101005
F        2.99567181      10.16289857       7.10148376      -0.74950250       1.64313208      -0.21193109      -0.39030695       0.69233871       0.75741458      -0.01208742      -0.26836202
F        0.93961070       9.93131078       7.69403674      -0.04549913       0.86086101       1.04745884       0.55389386       0.43498436       0.73571187      -0.01208768      -0.27989292
F        2.56738838       9.77879923       9.18804232       0.27168381       0.19887009       0.16703483      -0.23729047      -0.50937986       0.13518515      -0.00958610      -0.25397098
C        1.08677848      12.44071241       9.52911016       0.54437477      -0.43148838      -0.14962756       0.12856114       0.33560264      -0.23949848       0.02393757      -0.12805243
F       -0.16245636      12.56047146       9.03841488       0.41646463       0.04789423      -0.56161668       0.65867299      -0.27594933       0.11765015      -0.01122388      -0.25719118
F        1.44266072      13.65230236       9.98892172      -0.25614952      -0.89732041      -0.50927419      -0.34281921      -0.48805583      -0.20940983      -0.01178411      -0.22525087
F        1.06511089      11.62215200      10.56355597       1.56644635      -1.25577039      -0.82486320      -0.23524748      -0.64000577       0.76382893      -0.00761006      -0.26105562
H        0.92817837      12.44632751       6.96883101       0.00460762       0.04191167       0.10007462      -0.18354617      -0.14102079       0.06065685       0.02483785      -0.04961158
H        3.10703766      12.14680951       8.78192691       0.07437795      -0.07951741      -0.03356102       0.04854957       0.49707854       0.18303005       0.01373161      -0.03776195
O        9.41571496      12.05511974       4.36726328       0.72643972       1.11849148      -0.17233453       0.13731070      -0.46172637       0.15395485      -0.02859742      -0.10235614
C        9.17876547      13.04623983       3.44081276       0.23331710       0.02720987      -0.01256362       0.89724201       0.95263076      -0.00336309       0.01180139      -0.27301389
C        7.96013975      12.76221197       2.60294088       0.47093536       0.00965320       0.16198131      -0.51701570       0.23116016      -1.18928981       0.02396064      -0.16780663
F        6.88534953      12.45976423       3.32287659       1.12719118       0.45417453       0.87418347       0.33954191       0.08355936       0.16646594      -0.01108052      -0.24666874
F        8.18340002      11.77317972       1.73235997      -0.22279158       0.59472994       0.49255177      -0.11799935      -0.31706765       0.19001645      -0.01223493      -0.25494063
F        7.65286509      13.86698827       1.85874947      -0.10310511      -0.22914062       1.09337137      -0.14923456      -0.12737836       0.53134394      -0.01174178      -0.23378265
C       10.44832644      13.27518604       2.54627265      -0.01646978      -0.12423886      -0.54260460      -0.52021480       0.61699110       0.71253538       0.02291990      -0.14056258
F       10.81234637      12.11216725       2.00568701      -0.40463240       0.20134160       0.00210893       0.38856870      -0.07936808      -0.16389270      -0.00873778      -0.26584575
F       11.48344904      13.76227731       3.28024992       0.43597616      -0.15652904      -0.91416133      -0.86277097      -0.61045265      -0.52172971      -0.01257025      -0.25373065
F       10.20249331      14.14825014       1.55466872      -0.09529218       0.15071040      -0.58242779       0.30881745      -0.15305735       0.23436671      -0.01156157      -0.25694007
H        9.82781782      11.28934226       3.93700713       0.03988850       0.07328896      -0.05568727      -0.13666435       0.14391191       0.08353782       0.02380039      -0.04317424
H        8.96662861      13.99078136       3.96159460      -0.07869391       0.23428302       0.10098166       0.17600495      -0.23088568       0.05364234       0.01340224      -0.04494639
O        6.77451364       3.49693385       9.32773182      -0.49237660      -0.15384909       1.02656325       1.06242549       0.46499074       0.26652342      -0.02553507      -0.12745021
C        6.44347411       3.81839475      10.63246061      -0.33912574      -0.77640831       0.27425986      -1.17624652      -0.88990295       1.07950628       0.01250215      -0.22795002
C        5.85670551       5.22948453      10.74849421       0.03927622      -0.58695051       0.56786642      -0.69556135       0.05046740      -0.31473374       0.02375391      -0.15631698
F        4.85736563       5.35626061       9.85712629       0.05515495      -2.06124037      -0.33997041      -0.26671073      -0.11744966       0.20672458      -0.01179371      -0.26905137
F        6.73522793       6.16127147      10.42764322      -0.46846843       0.28895208       0.18487734       0.54259855       0.31371090       0.32253966      -0.01015379      -0.23837745
F        5.34589048       5.51008216      11.97914406      -0.20491791      -2.13790686       0.88380667       0.39151910      -0.19452655      -0.64801025      -0.01054622      -0.28980356
C        7.50578880       3.59114555      11.68463847      -0.70733110      -0.10443815       0.03162246       1.10397661       0.00137773       1.51835167       0.02395194      -0.11348641
F        8.45497857       4.54031587      11.68527982      -1.63003695       0.09791198       0.82458913      -0.18595554       0.94153023       0.23406565      -0.01107447      -0.24746932
F        8.21064253       2.48539494      11.52356290       0.06110748       0.42029435      -0.83208014      -0.47577062      -0.81846434      -0.44764435      -0.01153717      -0.20598298
F        6.95382755       3.52574844      12.94825286       0.20403988      -1.41472675      -0.01760172       0.38431144       0.34795001      -1.36125004      -0.01329586      -0.26454246
H        7.68732117       3.80821051       9.20352073      -0.14210426      -0.16979788      -0.14247751      -0.21599464      -0.12379359      -0.49679339       0.02463570      -0.03249303
H        5.69173230       3.09460798      10.96333100      -0.02966910      -0.14033709      -0.04125420      -0.37740347       0.33011389      -0.19691996       0.01114764      -0.02406178
O       11.11338555       3.12312101      10.76840567       1.46358946      -0.87361990       0.79374309       0.04647861       0.37406829      -1.63831246      -0.02879686      -0.04425539
C       11.93907563       2.96099594      11.87046734       0.48260020      -1.34194672      -0.38265822      -0.15562735      -0.77355105      -0.85289669       0.01134017      -0.28281158
C       12.64278898       4.26821655      12.24337346       0.00638602      -1.18919508      -0.30018648      -0.65865088       1.04477489      -0.24525680       0.02163929      -0.15731457
F       11.77636590       5.33642228      12.31625070       1.20634440      -1.72915568       0.77070025       0.41263241      -1.23959422       0.06347881      -0.01702495      -0.28021476
F       13.50822758       4.57584164      11.28100664      -0.12015402      -0.60729008      -0.45303622       0.30200365       0.36032346      -0.71050894      -0.01245958      -0.24546966
F       13.31613793       4.22200166      13.36819194       1.73736637      -0.66318842       0.41595396       0.06733330      -0.15254921       0.77027768      -0.00986218      -0.23504333
C       12.91925875       1.77386566      11.68060838       0.00488599      -0.79236481      -0.35464820      -0.07100184       0.31893551       1.60282934       0.02267095      -0.10805336
F       13.94530469       2.00724344      10.89506027       1.56689548       0.46496083      -0.67919717       0.03017454      -0.18676351      -1.57251060      -0.01001102      -0.20405622
F       12.27770720       0.66079558      11.26953515       1.28068121       0.28676686       0.99505535       0.56589085       0.84693903       0.41993168      -0.01241212      -0.26807773
F       13.49529779       1.58349378      12.90031910       0.81011338      -0.47562226       0.24248978      -0.59745020      -0.80635929      -0.03657551      -0.01271609      -0.23863211
H       11.57565340       3.27827435       9.90058948       0.00696714       0.20477232      -0.01176173      -0.25531381      -0.19711107       1.51025438       0.02125862      -0.06066698
H       11.28273607       2.60164449      12.64867374       0.19605878      -0.04601619      -0.05266800      -0.14736572       0.27353287       0.57224268       0.01160632      -0.03397117
O        6.38116764       7.18718786       7.86299479      -0.17715029       0.27773306      -0.69138362      -0.12012898      -0.39485490      -0.17694563      -0.02683988      -0.08115847
C        6.97007088       7.52904507       6.64320669      -0.12958601      -0.10001942       0.13310590       0.18596527      -0.33471233       0.42466354       0.01415852      -0.18545158
C        6.25709628       8.81916496       6.11446878       0.12657146      -0.79525032       0.55167720      -0.94972104      -0.27334812      -0.21656761       0.02379984      -0.12930143
F        6.24976812       9.65314707       7.15619758       0.77631331       0.07263341       0.02125862      -0.02508704       0.29685119       0.00017309      -0.01293127      -0.24089175
F        4.94811053       8.61490468       5.76405558       0.69292364      -0.12885566       0.52237855       0.96440995      -0.23124295       0.33356023      -0.01325927      -0.26442063
F        6.82761747       9.46306104       5.09219801      -0.08576788      -0.16054604      -0.37906016       0.27197605      -0.51682830       0.16994345      -0.01101636      -0.26202071
C        7.14505119       6.29294220       5.70094388      -1.33614224      -0.21509525      -0.18911204      -1.20872939       1.34918606       0.49985531       0.02513110      -0.09525349
F        5.93828803       5.74163895       5.44961347      -1.42568159      -0.47734309      -0.17615820       0.25469196      -0.31809509       0.36092284      -0.00833946      -0.27943003
F        7.96475813       5.34881538       6.19055049      -2.17788546      -0.38694255      -0.54431168      -0.44203645       0.58694810      -0.21312954      -0.01052827      -0.27730390
F        7.59094915       6.75717089       4.55190066      -0.45477970      -0.04497662       0.39636794       0.84147012      -0.19442019      -0.86176020      -0.00904106      -0.24532875
H        5.57106413       6.67811970       7.72164404      -0.04382756       0.02964759       0.27066519      -0.00925574       0.07559391      -0.06503133       0.02457829      -0.05002137
H        7.96415262       7.87310858       6.91705169       0.19332950       0.00075452      -0.02924241       0.29934582       0.01821385      -0.23399028       0.01276275      -0.02635679
