448
Properties=species:S:1:pos:R:3 pbc="F F F"
C        0.00000000       0.00000000      19.00000000
C        1.41800000       0.00000000      19.00000000
C        2.12700000       1.22802402      19.00000000
C        3.54500000       1.22802402      19.00000000
C        0.00000000       2.45604805      19.00000000
C        1.41800000       2.45604805      19.00000000
C        2.12700000       3.68407207      19.00000000
C        3.54500000       3.68407207      19.00000000
C        0.00000000       4.91209609      19.00000000
C        1.41800000       4.91209609      19.00000000
C        2.12700000       6.14012011      19.00000000
C        3.54500000       6.14012011      19.00000000
C        0.00000000       7.36814414      19.00000000
C        1.41800000       7.36814414      19.00000000
C        2.12700000       8.59616816      19.00000000
C        3.54500000       8.59616816      19.00000000
C        0.00000000       9.82419218      19.00000000
C        1.41800000       9.82419218      19.00000000
C        2.12700000      11.05221620      19.00000000
C        3.54500000      11.05221620      19.00000000
C        0.00000000      12.28024023      19.00000000
C        1.41800000      12.28024023      19.00000000
C        2.12700000      13.50826425      19.00000000
C        3.54500000      13.50826425      19.00000000
C        0.00000000      14.73628827      19.00000000
C        1.41800000      14.73628827      19.00000000
C        2.12700000      15.96431229      19.00000000
C        3.54500000      15.96431229      19.00000000
C        0.00000000      17.19233632      19.00000000
C        1.41800000      17.19233632      19.00000000
C        2.12700000      18.42036034      19.00000000
C        3.54500000      18.42036034      19.00000000
C        0.00000000      19.64838436      19.00000000
C        1.41800000      19.64838436      19.00000000
C        2.12700000      20.87640838      19.00000000
C        3.54500000      20.87640838      19.00000000
C        0.00000000      22.10443241      19.00000000
C        1.41800000      22.10443241      19.00000000
C        2.12700000      23.33245643      19.00000000
C        3.54500000      23.33245643      19.00000000
C        0.00000000      24.56048045      19.00000000
C        1.41800000      24.56048045      19.00000000
C        2.12700000      25.78850447      19.00000000
C        3.54500000      25.78850447      19.00000000
C        0.00000000      27.01652850      19.00000000
C        1.41800000      27.01652850      19.00000000
C        2.12700000      28.24455252      19.00000000
C        3.54500000      28.24455252      19.00000000
C        0.00000000      29.47257654      19.00000000
C        1.41800000      29.47257654      19.00000000
C        2.12700000      30.70060056      19.00000000
C        3.54500000      30.70060056      19.00000000
C        0.00000000      31.92862459      19.00000000
C        1.41800000      31.92862459      19.00000000
C        2.12700000      33.15664861      19.00000000
C        3.54500000      33.15664861      19.00000000
C        4.25400000       0.00000000      19.00000000
C        5.67200000       0.00000000      19.00000000
C        6.38100000       1.22802402      19.00000000
C        7.79900000       1.22802402      19.00000000
C        4.25400000       2.45604805      19.00000000
C        5.67200000       2.45604805      19.00000000
C        6.38100000       3.68407207      19.00000000
C        7.79900000       3.68407207      19.00000000
C        4.25400000       4.91209609      19.00000000
C        5.67200000       4.91209609      19.00000000
C        6.38100000       6.14012011      19.00000000
C        7.79900000       6.14012011      19.00000000
C        4.25400000       7.36814414      19.00000000
C        5.67200000       7.36814414      19.00000000
C        6.38100000       8.59616816      19.00000000
C        7.79900000       8.59616816      19.00000000
C        4.25400000       9.82419218      19.00000000
C        5.67200000       9.82419218      19.00000000
C        6.38100000      11.05221620      19.00000000
C        7.79900000      11.05221620      19.00000000
C        4.25400000      12.28024023      19.00000000
C        5.67200000      12.28024023      19.00000000
C        6.38100000      13.50826425      19.00000000
C        7.79900000      13.50826425      19.00000000
C        4.25400000      14.73628827      19.00000000
C        5.67200000      14.73628827      19.00000000
C        6.38100000      15.96431229      19.00000000
C        7.79900000      15.96431229      19.00000000
C        4.25400000      17.19233632      19.00000000
C        5.67200000      17.19233632      19.00000000
C        6.38100000      18.42036034      19.00000000
C        7.79900000      18.42036034      19.00000000
C        4.25400000      19.64838436      19.00000000
C        5.67200000      19.64838436      19.00000000
C        6.38100000      20.87640838      19.00000000
C        7.79900000      20.87640838      19.00000000
C        4.25400000      22.10443241      19.00000000
C        5.67200000      22.10443241      19.00000000
C        6.38100000      23.33245643      19.00000000
C        7.79900000      23.33245643      19.00000000
C        4.25400000      24.56048045      19.00000000
C        5.67200000      24.56048045      19.00000000
C        6.38100000      25.78850447      19.00000000
C        7.79900000      25.78850447      19.00000000
C        4.25400000      27.01652850      19.00000000
C        5.67200000      27.01652850      19.00000000
C        6.38100000      28.24455252      19.00000000
C        7.79900000      28.24455252      19.00000000
C        4.25400000      29.47257654      19.00000000
C        5.67200000      29.47257654      19.00000000
C        6.38100000      30.70060056      19.00000000
C        7.79900000      30.70060056      19.00000000
C        4.25400000      31.92862459      19.00000000
C        5.67200000      31.92862459      19.00000000
C        6.38100000      33.15664861      19.00000000
C        7.79900000      33.15664861      19.00000000
C        8.50800000       0.00000000      19.00000000
C        9.92600000       0.00000000      19.00000000
C       10.63500000       1.22802402      19.00000000
C       12.05300000       1.22802402      19.00000000
C        8.50800000       2.45604805      19.00000000
C        9.92600000       2.45604805      19.00000000
C       10.63500000       3.68407207      19.00000000
C       12.05300000       3.68407207      19.00000000
C        8.50800000       4.91209609      19.00000000
C        9.92600000       4.91209609      19.00000000
C       10.63500000       6.14012011      19.00000000
C       12.05300000       6.14012011      19.00000000
C        8.50800000       7.36814414      19.00000000
C        9.92600000       7.36814414      19.00000000
C       10.63500000       8.59616816      19.00000000
C       12.05300000       8.59616816      19.00000000
C        8.50800000       9.82419218      19.00000000
C        9.92600000       9.82419218      19.00000000
C       10.63500000      11.05221620      19.00000000
C       12.05300000      11.05221620      19.00000000
C        8.50800000      12.28024023      19.00000000
C        9.92600000      12.28024023      19.00000000
C       10.63500000      13.50826425      19.00000000
C       12.05300000      13.50826425      19.00000000
C        8.50800000      14.73628827      19.00000000
C        9.92600000      14.73628827      19.00000000
C       10.63500000      15.96431229      19.00000000
C       12.05300000      15.96431229      19.00000000
C        8.50800000      17.19233632      19.00000000
C        9.92600000      17.19233632      19.00000000
C       10.63500000      18.42036034      19.00000000
C       12.05300000      18.42036034      19.00000000
C        8.50800000      19.64838436      19.00000000
C        9.92600000      19.64838436      19.00000000
C       10.63500000      20.87640838      19.00000000
C       12.05300000      20.87640838      19.00000000
C        8.50800000      22.10443241      19.00000000
C        9.92600000      22.10443241      19.00000000
C       10.63500000      23.33245643      19.00000000
C       12.05300000      23.33245643      19.00000000
C        8.50800000      24.56048045      19.00000000
C        9.92600000      24.56048045      19.00000000
C       10.63500000      25.78850447      19.00000000
C       12.05300000      25.78850447      19.00000000
C        8.50800000      27.01652850      19.00000000
C        9.92600000      27.01652850      19.00000000
C       10.63500000      28.24455252      19.00000000
C       12.05300000      28.24455252      19.00000000
C        8.50800000      29.47257654      19.00000000
C        9.92600000      29.47257654      19.00000000
C       10.63500000      30.70060056      19.00000000
C       12.05300000      30.70060056      19.00000000
C        8.50800000      31.92862459      19.00000000
C        9.92600000      31.92862459      19.00000000
C       10.63500000      33.15664861      19.00000000
C       12.05300000      33.15664861      19.00000000
C       12.76200000       0.00000000      19.00000000
C       14.18000000       0.00000000      19.00000000
C       14.88900000       1.22802402      19.00000000
C       16.30700000       1.22802402      19.00000000
C       12.76200000       2.45604805      19.00000000
C       14.18000000       2.45604805      19.00000000
C       14.88900000       3.68407207      19.00000000
C       16.30700000       3.68407207      19.00000000
C       12.76200000       4.91209609      19.00000000
C       14.18000000       4.91209609      19.00000000
C       14.88900000       6.14012011      19.00000000
C       16.30700000       6.14012011      19.00000000
C       12.76200000       7.36814414      19.00000000
C       14.18000000       7.36814414      19.00000000
C       14.88900000       8.59616816      19.00000000
C       16.30700000       8.59616816      19.00000000
C       12.76200000       9.82419218      19.00000000
C       14.18000000       9.82419218      19.00000000
C       14.88900000      11.05221620      19.00000000
C       16.30700000      11.05221620      19.00000000
C       12.76200000      12.28024023      19.00000000
C       14.18000000      12.28024023      19.00000000
C       14.88900000      13.50826425      19.00000000
C       16.30700000      13.50826425      19.00000000
C       12.76200000      14.73628827      19.00000000
C       14.18000000      14.73628827      19.00000000
C       14.88900000      15.96431229      19.00000000
C       16.30700000      15.96431229      19.00000000
C       12.76200000      17.19233632      19.00000000
C       14.18000000      17.19233632      19.00000000
C       14.88900000      18.42036034      19.00000000
C       16.30700000      18.42036034      19.00000000
C       12.76200000      19.64838436      19.00000000
C       14.18000000      19.64838436      19.00000000
C       14.88900000      20.87640838      19.00000000
C       16.30700000      20.87640838      19.00000000
C       12.76200000      22.10443241      19.00000000
C       14.18000000      22.10443241      19.00000000
C       14.88900000      23.33245643      19.00000000
C       16.30700000      23.33245643      19.00000000
C       12.76200000      24.56048045      19.00000000
C       14.18000000      24.56048045      19.00000000
C       14.88900000      25.78850447      19.00000000
C       16.30700000      25.78850447      19.00000000
C       12.76200000      27.01652850      19.00000000
C       14.18000000      27.01652850      19.00000000
C       14.88900000      28.24455252      19.00000000
C       16.30700000      28.24455252      19.00000000
C       12.76200000      29.47257654      19.00000000
C       14.18000000      29.47257654      19.00000000
C       14.88900000      30.70060056      19.00000000
C       16.30700000      30.70060056      19.00000000
C       12.76200000      31.92862459      19.00000000
C       14.18000000      31.92862459      19.00000000
C       14.88900000      33.15664861      19.00000000
C       16.30700000      33.15664861      19.00000000
C       17.01600000       0.00000000      19.00000000
C       18.43400000       0.00000000      19.00000000
C       19.14300000       1.22802402      19.00000000
C       20.56100000       1.22802402      19.00000000
C       17.01600000       2.45604805      19.00000000
C       18.43400000       2.45604805      19.00000000
C       19.14300000       3.68407207      19.00000000
C       20.56100000       3.68407207      19.00000000
C       17.01600000       4.91209609      19.00000000
C       18.43400000       4.91209609      19.00000000
C       19.14300000       6.14012011      19.00000000
C       20.56100000       6.14012011      19.00000000
C       17.01600000       7.36814414      19.00000000
C       18.43400000       7.36814414      19.00000000
C       19.14300000       8.59616816      19.00000000
C       20.56100000       8.59616816      19.00000000
C       17.01600000       9.82419218      19.00000000
C       18.43400000       9.82419218      19.00000000
C       19.14300000      11.05221620      19.00000000
C       20.56100000      11.05221620      19.00000000
C       17.01600000      12.28024023      19.00000000
C       18.43400000      12.28024023      19.00000000
C       19.14300000      13.50826425      19.00000000
C       20.56100000      13.50826425      19.00000000
C       17.01600000      14.73628827      19.00000000
C       18.43400000      14.73628827      19.00000000
C       19.14300000      15.96431229      19.00000000
C       20.56100000      15.96431229      19.00000000
C       17.01600000      17.19233632      19.00000000
C       18.43400000      17.19233632      19.00000000
C       19.14300000      18.42036034      19.00000000
C       20.56100000      18.42036034      19.00000000
C       17.01600000      19.64838436      19.00000000
C       18.43400000      19.64838436      19.00000000
C       19.14300000      20.87640838      19.00000000
C       20.56100000      20.87640838      19.00000000
C       17.01600000      22.10443241      19.00000000
C       18.43400000      22.10443241      19.00000000
C       19.14300000      23.33245643      19.00000000
C       20.56100000      23.33245643      19.00000000
C       17.01600000      24.56048045      19.00000000
C       18.43400000      24.56048045      19.00000000
C       19.14300000      25.78850447      19.00000000
C       20.56100000      25.78850447      19.00000000
C       17.01600000      27.01652850      19.00000000
C       18.43400000      27.01652850      19.00000000
C       19.14300000      28.24455252      19.00000000
C       20.56100000      28.24455252      19.00000000
C       17.01600000      29.47257654      19.00000000
C       18.43400000      29.47257654      19.00000000
C       19.14300000      30.70060056      19.00000000
C       20.56100000      30.70060056      19.00000000
C       17.01600000      31.92862459      19.00000000
C       18.43400000      31.92862459      19.00000000
C       19.14300000      33.15664861      19.00000000
C       20.56100000      33.15664861      19.00000000
C       21.27000000       0.00000000      19.00000000
C       22.68800000       0.00000000      19.00000000
C       23.39700000       1.22802402      19.00000000
C       24.81500000       1.22802402      19.00000000
C       21.27000000       2.45604805      19.00000000
C       22.68800000       2.45604805      19.00000000
C       23.39700000       3.68407207      19.00000000
C       24.81500000       3.68407207      19.00000000
C       21.27000000       4.91209609      19.00000000
C       22.68800000       4.91209609      19.00000000
C       23.39700000       6.14012011      19.00000000
C       24.81500000       6.14012011      19.00000000
C       21.27000000       7.36814414      19.00000000
C       22.68800000       7.36814414      19.00000000
C       23.39700000       8.59616816      19.00000000
C       24.81500000       8.59616816      19.00000000
C       21.27000000       9.82419218      19.00000000
C       22.68800000       9.82419218      19.00000000
C       23.39700000      11.05221620      19.00000000
C       24.81500000      11.05221620      19.00000000
C       21.27000000      12.28024023      19.00000000
C       22.68800000      12.28024023      19.00000000
C       23.39700000      13.50826425      19.00000000
C       24.81500000      13.50826425      19.00000000
C       21.27000000      14.73628827      19.00000000
C       22.68800000      14.73628827      19.00000000
C       23.39700000      15.96431229      19.00000000
C       24.81500000      15.96431229      19.00000000
C       21.27000000      17.19233632      19.00000000
C       22.68800000      17.19233632      19.00000000
C       23.39700000      18.42036034      19.00000000
C       24.81500000      18.42036034      19.00000000
C       21.27000000      19.64838436      19.00000000
C       22.68800000      19.64838436      19.00000000
C       23.39700000      20.87640838      19.00000000
C       24.81500000      20.87640838      19.00000000
C       21.27000000      22.10443241      19.00000000
C       22.68800000      22.10443241      19.00000000
C       23.39700000      23.33245643      19.00000000
C       24.81500000      23.33245643      19.00000000
C       21.27000000      24.56048045      19.00000000
C       22.68800000      24.56048045      19.00000000
C       23.39700000      25.78850447      19.00000000
C       24.81500000      25.78850447      19.00000000
C       21.27000000      27.01652850      19.00000000
C       22.68800000      27.01652850      19.00000000
C       23.39700000      28.24455252      19.00000000
C       24.81500000      28.24455252      19.00000000
C       21.27000000      29.47257654      19.00000000
C       22.68800000      29.47257654      19.00000000
C       23.39700000      30.70060056      19.00000000
C       24.81500000      30.70060056      19.00000000
C       21.27000000      31.92862459      19.00000000
C       22.68800000      31.92862459      19.00000000
C       23.39700000      33.15664861      19.00000000
C       24.81500000      33.15664861      19.00000000
C       25.52400000       0.00000000      19.00000000
C       26.94200000       0.00000000      19.00000000
C       27.65100000       1.22802402      19.00000000
C       29.06900000       1.22802402      19.00000000
C       25.52400000       2.45604805      19.00000000
C       26.94200000       2.45604805      19.00000000
C       27.65100000       3.68407207      19.00000000
C       29.06900000       3.68407207      19.00000000
C       25.52400000       4.91209609      19.00000000
C       26.94200000       4.91209609      19.00000000
C       27.65100000       6.14012011      19.00000000
C       29.06900000       6.14012011      19.00000000
C       25.52400000       7.36814414      19.00000000
C       26.94200000       7.36814414      19.00000000
C       27.65100000       8.59616816      19.00000000
C       29.06900000       8.59616816      19.00000000
C       25.52400000       9.82419218      19.00000000
C       26.94200000       9.82419218      19.00000000
C       27.65100000      11.05221620      19.00000000
C       29.06900000      11.05221620      19.00000000
C       25.52400000      12.28024023      19.00000000
C       26.94200000      12.28024023      19.00000000
C       27.65100000      13.50826425      19.00000000
C       29.06900000      13.50826425      19.00000000
C       25.52400000      14.73628827      19.00000000
C       26.94200000      14.73628827      19.00000000
C       27.65100000      15.96431229      19.00000000
C       29.06900000      15.96431229      19.00000000
C       25.52400000      17.19233632      19.00000000
C       26.94200000      17.19233632      19.00000000
C       27.65100000      18.42036034      19.00000000
C       29.06900000      18.42036034      19.00000000
C       25.52400000      19.64838436      19.00000000
C       26.94200000      19.64838436      19.00000000
C       27.65100000      20.87640838      19.00000000
C       29.06900000      20.87640838      19.00000000
C       25.52400000      22.10443241      19.00000000
C       26.94200000      22.10443241      19.00000000
C       27.65100000      23.33245643      19.00000000
C       29.06900000      23.33245643      19.00000000
C       25.52400000      24.56048045      19.00000000
C       26.94200000      24.56048045      19.00000000
C       27.65100000      25.78850447      19.00000000
C       29.06900000      25.78850447      19.00000000
C       25.52400000      27.01652850      19.00000000
C       26.94200000      27.01652850      19.00000000
C       27.65100000      28.24455252      19.00000000
C       29.06900000      28.24455252      19.00000000
C       25.52400000      29.47257654      19.00000000
C       26.94200000      29.47257654      19.00000000
C       27.65100000      30.70060056      19.00000000
C       29.06900000      30.70060056      19.00000000
C       25.52400000      31.92862459      19.00000000
C       26.94200000      31.92862459      19.00000000
C       27.65100000      33.15664861      19.00000000
C       29.06900000      33.15664861      19.00000000
C       29.77800000       0.00000000      19.00000000
C       31.19600000       0.00000000      19.00000000
C       31.90500000       1.22802402      19.00000000
C       33.32300000       1.22802402      19.00000000
C       29.77800000       2.45604805      19.00000000
C       31.19600000       2.45604805      19.00000000
C       31.90500000       3.68407207      19.00000000
C       33.32300000       3.68407207      19.00000000
C       29.77800000       4.91209609      19.00000000
C       31.19600000       4.91209609      19.00000000
C       31.90500000       6.14012011      19.00000000
C       33.32300000       6.14012011      19.00000000
C       29.77800000       7.36814414      19.00000000
C       31.19600000       7.36814414      19.00000000
C       31.90500000       8.59616816      19.00000000
C       33.32300000       8.59616816      19.00000000
C       29.77800000       9.82419218      19.00000000
C       31.19600000       9.82419218      19.00000000
C       31.90500000      11.05221620      19.00000000
C       33.32300000      11.05221620      19.00000000
C       29.77800000      12.28024023      19.00000000
C       31.19600000      12.28024023      19.00000000
C       31.90500000      13.50826425      19.00000000
C       33.32300000      13.50826425      19.00000000
C       29.77800000      14.73628827      19.00000000
C       31.19600000      14.73628827      19.00000000
C       31.90500000      15.96431229      19.00000000
C       33.32300000      15.96431229      19.00000000
C       29.77800000      17.19233632      19.00000000
C       31.19600000      17.19233632      19.00000000
C       31.90500000      18.42036034      19.00000000
C       33.32300000      18.42036034      19.00000000
C       29.77800000      19.64838436      19.00000000
C       31.19600000      19.64838436      19.00000000
C       31.90500000      20.87640838      19.00000000
C       33.32300000      20.87640838      19.00000000
C       29.77800000      22.10443241      19.00000000
C       31.19600000      22.10443241      19.00000000
C       31.90500000      23.33245643      19.00000000
C       33.32300000      23.33245643      19.00000000
C       29.77800000      24.56048045      19.00000000
C       31.19600000      24.56048045      19.00000000
C       31.90500000      25.78850447      19.00000000
C       33.32300000      25.78850447      19.00000000
C       29.77800000      27.01652850      19.00000000
C       31.19600000      27.01652850      19.00000000
C       31.90500000      28.24455252      19.00000000
C       33.32300000      28.24455252      19.00000000
C       29.77800000      29.47257654      19.00000000
C       31.19600000      29.47257654      19.00000000
C       31.90500000      30.70060056      19.00000000
C       33.32300000      30.70060056      19.00000000
C       29.77800000      31.92862459      19.00000000
C       31.19600000      31.92862459      19.00000000
C       31.90500000      33.15664861      19.00000000
C       33.32300000      33.15664861      19.00000000
