        3969
  Built with Packmol                                             
  C            0.000000        0.000000       19.000000
  C            1.418000        0.000000       19.000000
  C            2.127000        1.228024       19.000000
  C            3.545000        1.228024       19.000000
  C            0.000000        2.456048       19.000000
  C            1.418000        2.456048       19.000000
  C            2.127000        3.684072       19.000000
  C            3.545000        3.684072       19.000000
  C            0.000000        4.912096       19.000000
  C            1.418000        4.912096       19.000000
  C            2.127000        6.140120       19.000000
  C            3.545000        6.140120       19.000000
  C            0.000000        7.368144       19.000000
  C            1.418000        7.368144       19.000000
  C            2.127000        8.596168       19.000000
  C            3.545000        8.596168       19.000000
  C            0.000000        9.824192       19.000000
  C            1.418000        9.824192       19.000000
  C            2.127000       11.052216       19.000000
  C            3.545000       11.052216       19.000000
  C            0.000000       12.280240       19.000000
  C            1.418000       12.280240       19.000000
  C            2.127000       13.508264       19.000000
  C            3.545000       13.508264       19.000000
  C            0.000000       14.736288       19.000000
  C            1.418000       14.736288       19.000000
  C            2.127000       15.964312       19.000000
  C            3.545000       15.964312       19.000000
  C            0.000000       17.192336       19.000000
  C            1.418000       17.192336       19.000000
  C            2.127000       18.420360       19.000000
  C            3.545000       18.420360       19.000000
  C            0.000000       19.648384       19.000000
  C            1.418000       19.648384       19.000000
  C            2.127000       20.876408       19.000000
  C            3.545000       20.876408       19.000000
  C            0.000000       22.104432       19.000000
  C            1.418000       22.104432       19.000000
  C            2.127000       23.332456       19.000000
  C            3.545000       23.332456       19.000000
  C            0.000000       24.560480       19.000000
  C            1.418000       24.560480       19.000000
  C            2.127000       25.788504       19.000000
  C            3.545000       25.788504       19.000000
  C            0.000000       27.016528       19.000000
  C            1.418000       27.016528       19.000000
  C            2.127000       28.244553       19.000000
  C            3.545000       28.244553       19.000000
  C            0.000000       29.472577       19.000000
  C            1.418000       29.472577       19.000000
  C            2.127000       30.700601       19.000000
  C            3.545000       30.700601       19.000000
  C            0.000000       31.928625       19.000000
  C            1.418000       31.928625       19.000000
  C            2.127000       33.156649       19.000000
  C            3.545000       33.156649       19.000000
  C            4.254000        0.000000       19.000000
  C            5.672000        0.000000       19.000000
  C            6.381000        1.228024       19.000000
  C            7.799000        1.228024       19.000000
  C            4.254000        2.456048       19.000000
  C            5.672000        2.456048       19.000000
  C            6.381000        3.684072       19.000000
  C            7.799000        3.684072       19.000000
  C            4.254000        4.912096       19.000000
  C            5.672000        4.912096       19.000000
  C            6.381000        6.140120       19.000000
  C            7.799000        6.140120       19.000000
  C            4.254000        7.368144       19.000000
  C            5.672000        7.368144       19.000000
  C            6.381000        8.596168       19.000000
  C            7.799000        8.596168       19.000000
  C            4.254000        9.824192       19.000000
  C            5.672000        9.824192       19.000000
  C            6.381000       11.052216       19.000000
  C            7.799000       11.052216       19.000000
  C            4.254000       12.280240       19.000000
  C            5.672000       12.280240       19.000000
  C            6.381000       13.508264       19.000000
  C            7.799000       13.508264       19.000000
  C            4.254000       14.736288       19.000000
  C            5.672000       14.736288       19.000000
  C            6.381000       15.964312       19.000000
  C            7.799000       15.964312       19.000000
  C            4.254000       17.192336       19.000000
  C            5.672000       17.192336       19.000000
  C            6.381000       18.420360       19.000000
  C            7.799000       18.420360       19.000000
  C            4.254000       19.648384       19.000000
  C            5.672000       19.648384       19.000000
  C            6.381000       20.876408       19.000000
  C            7.799000       20.876408       19.000000
  C            4.254000       22.104432       19.000000
  C            5.672000       22.104432       19.000000
  C            6.381000       23.332456       19.000000
  C            7.799000       23.332456       19.000000
  C            4.254000       24.560480       19.000000
  C            5.672000       24.560480       19.000000
  C            6.381000       25.788504       19.000000
  C            7.799000       25.788504       19.000000
  C            4.254000       27.016528       19.000000
  C            5.672000       27.016528       19.000000
  C            6.381000       28.244553       19.000000
  C            7.799000       28.244553       19.000000
  C            4.254000       29.472577       19.000000
  C            5.672000       29.472577       19.000000
  C            6.381000       30.700601       19.000000
  C            7.799000       30.700601       19.000000
  C            4.254000       31.928625       19.000000
  C            5.672000       31.928625       19.000000
  C            6.381000       33.156649       19.000000
  C            7.799000       33.156649       19.000000
  C            8.508000        0.000000       19.000000
  C            9.926000        0.000000       19.000000
  C           10.635000        1.228024       19.000000
  C           12.053000        1.228024       19.000000
  C            8.508000        2.456048       19.000000
  C            9.926000        2.456048       19.000000
  C           10.635000        3.684072       19.000000
  C           12.053000        3.684072       19.000000
  C            8.508000        4.912096       19.000000
  C            9.926000        4.912096       19.000000
  C           10.635000        6.140120       19.000000
  C           12.053000        6.140120       19.000000
  C            8.508000        7.368144       19.000000
  C            9.926000        7.368144       19.000000
  C           10.635000        8.596168       19.000000
  C           12.053000        8.596168       19.000000
  C            8.508000        9.824192       19.000000
  C            9.926000        9.824192       19.000000
  C           10.635000       11.052216       19.000000
  C           12.053000       11.052216       19.000000
  C            8.508000       12.280240       19.000000
  C            9.926000       12.280240       19.000000
  C           10.635000       13.508264       19.000000
  C           12.053000       13.508264       19.000000
  C            8.508000       14.736288       19.000000
  C            9.926000       14.736288       19.000000
  C           10.635000       15.964312       19.000000
  C           12.053000       15.964312       19.000000
  C            8.508000       17.192336       19.000000
  C            9.926000       17.192336       19.000000
  C           10.635000       18.420360       19.000000
  C           12.053000       18.420360       19.000000
  C            8.508000       19.648384       19.000000
  C            9.926000       19.648384       19.000000
  C           10.635000       20.876408       19.000000
  C           12.053000       20.876408       19.000000
  C            8.508000       22.104432       19.000000
  C            9.926000       22.104432       19.000000
  C           10.635000       23.332456       19.000000
  C           12.053000       23.332456       19.000000
  C            8.508000       24.560480       19.000000
  C            9.926000       24.560480       19.000000
  C           10.635000       25.788504       19.000000
  C           12.053000       25.788504       19.000000
  C            8.508000       27.016528       19.000000
  C            9.926000       27.016528       19.000000
  C           10.635000       28.244553       19.000000
  C           12.053000       28.244553       19.000000
  C            8.508000       29.472577       19.000000
  C            9.926000       29.472577       19.000000
  C           10.635000       30.700601       19.000000
  C           12.053000       30.700601       19.000000
  C            8.508000       31.928625       19.000000
  C            9.926000       31.928625       19.000000
  C           10.635000       33.156649       19.000000
  C           12.053000       33.156649       19.000000
  C           12.762000        0.000000       19.000000
  C           14.180000        0.000000       19.000000
  C           14.889000        1.228024       19.000000
  C           16.307000        1.228024       19.000000
  C           12.762000        2.456048       19.000000
  C           14.180000        2.456048       19.000000
  C           14.889000        3.684072       19.000000
  C           16.307000        3.684072       19.000000
  C           12.762000        4.912096       19.000000
  C           14.180000        4.912096       19.000000
  C           14.889000        6.140120       19.000000
  C           16.307000        6.140120       19.000000
  C           12.762000        7.368144       19.000000
  C           14.180000        7.368144       19.000000
  C           14.889000        8.596168       19.000000
  C           16.307000        8.596168       19.000000
  C           12.762000        9.824192       19.000000
  C           14.180000        9.824192       19.000000
  C           14.889000       11.052216       19.000000
  C           16.307000       11.052216       19.000000
  C           12.762000       12.280240       19.000000
  C           14.180000       12.280240       19.000000
  C           14.889000       13.508264       19.000000
  C           16.307000       13.508264       19.000000
  C           12.762000       14.736288       19.000000
  C           14.180000       14.736288       19.000000
  C           14.889000       15.964312       19.000000
  C           16.307000       15.964312       19.000000
  C           12.762000       17.192336       19.000000
  C           14.180000       17.192336       19.000000
  C           14.889000       18.420360       19.000000
  C           16.307000       18.420360       19.000000
  C           12.762000       19.648384       19.000000
  C           14.180000       19.648384       19.000000
  C           14.889000       20.876408       19.000000
  C           16.307000       20.876408       19.000000
  C           12.762000       22.104432       19.000000
  C           14.180000       22.104432       19.000000
  C           14.889000       23.332456       19.000000
  C           16.307000       23.332456       19.000000
  C           12.762000       24.560480       19.000000
  C           14.180000       24.560480       19.000000
  C           14.889000       25.788504       19.000000
  C           16.307000       25.788504       19.000000
  C           12.762000       27.016528       19.000000
  C           14.180000       27.016528       19.000000
  C           14.889000       28.244553       19.000000
  C           16.307000       28.244553       19.000000
  C           12.762000       29.472577       19.000000
  C           14.180000       29.472577       19.000000
  C           14.889000       30.700601       19.000000
  C           16.307000       30.700601       19.000000
  C           12.762000       31.928625       19.000000
  C           14.180000       31.928625       19.000000
  C           14.889000       33.156649       19.000000
  C           16.307000       33.156649       19.000000
  C           17.016000        0.000000       19.000000
  C           18.434000        0.000000       19.000000
  C           19.143000        1.228024       19.000000
  C           20.561000        1.228024       19.000000
  C           17.016000        2.456048       19.000000
  C           18.434000        2.456048       19.000000
  C           19.143000        3.684072       19.000000
  C           20.561000        3.684072       19.000000
  C           17.016000        4.912096       19.000000
  C           18.434000        4.912096       19.000000
  C           19.143000        6.140120       19.000000
  C           20.561000        6.140120       19.000000
  C           17.016000        7.368144       19.000000
  C           18.434000        7.368144       19.000000
  C           19.143000        8.596168       19.000000
  C           20.561000        8.596168       19.000000
  C           17.016000        9.824192       19.000000
  C           18.434000        9.824192       19.000000
  C           19.143000       11.052216       19.000000
  C           20.561000       11.052216       19.000000
  C           17.016000       12.280240       19.000000
  C           18.434000       12.280240       19.000000
  C           19.143000       13.508264       19.000000
  C           20.561000       13.508264       19.000000
  C           17.016000       14.736288       19.000000
  C           18.434000       14.736288       19.000000
  C           19.143000       15.964312       19.000000
  C           20.561000       15.964312       19.000000
  C           17.016000       17.192336       19.000000
  C           18.434000       17.192336       19.000000
  C           19.143000       18.420360       19.000000
  C           20.561000       18.420360       19.000000
  C           17.016000       19.648384       19.000000
  C           18.434000       19.648384       19.000000
  C           19.143000       20.876408       19.000000
  C           20.561000       20.876408       19.000000
  C           17.016000       22.104432       19.000000
  C           18.434000       22.104432       19.000000
  C           19.143000       23.332456       19.000000
  C           20.561000       23.332456       19.000000
  C           17.016000       24.560480       19.000000
  C           18.434000       24.560480       19.000000
  C           19.143000       25.788504       19.000000
  C           20.561000       25.788504       19.000000
  C           17.016000       27.016528       19.000000
  C           18.434000       27.016528       19.000000
  C           19.143000       28.244553       19.000000
  C           20.561000       28.244553       19.000000
  C           17.016000       29.472577       19.000000
  C           18.434000       29.472577       19.000000
  C           19.143000       30.700601       19.000000
  C           20.561000       30.700601       19.000000
  C           17.016000       31.928625       19.000000
  C           18.434000       31.928625       19.000000
  C           19.143000       33.156649       19.000000
  C           20.561000       33.156649       19.000000
  C           21.270000        0.000000       19.000000
  C           22.688000        0.000000       19.000000
  C           23.397000        1.228024       19.000000
  C           24.815000        1.228024       19.000000
  C           21.270000        2.456048       19.000000
  C           22.688000        2.456048       19.000000
  C           23.397000        3.684072       19.000000
  C           24.815000        3.684072       19.000000
  C           21.270000        4.912096       19.000000
  C           22.688000        4.912096       19.000000
  C           23.397000        6.140120       19.000000
  C           24.815000        6.140120       19.000000
  C           21.270000        7.368144       19.000000
  C           22.688000        7.368144       19.000000
  C           23.397000        8.596168       19.000000
  C           24.815000        8.596168       19.000000
  C           21.270000        9.824192       19.000000
  C           22.688000        9.824192       19.000000
  C           23.397000       11.052216       19.000000
  C           24.815000       11.052216       19.000000
  C           21.270000       12.280240       19.000000
  C           22.688000       12.280240       19.000000
  C           23.397000       13.508264       19.000000
  C           24.815000       13.508264       19.000000
  C           21.270000       14.736288       19.000000
  C           22.688000       14.736288       19.000000
  C           23.397000       15.964312       19.000000
  C           24.815000       15.964312       19.000000
  C           21.270000       17.192336       19.000000
  C           22.688000       17.192336       19.000000
  C           23.397000       18.420360       19.000000
  C           24.815000       18.420360       19.000000
  C           21.270000       19.648384       19.000000
  C           22.688000       19.648384       19.000000
  C           23.397000       20.876408       19.000000
  C           24.815000       20.876408       19.000000
  C           21.270000       22.104432       19.000000
  C           22.688000       22.104432       19.000000
  C           23.397000       23.332456       19.000000
  C           24.815000       23.332456       19.000000
  C           21.270000       24.560480       19.000000
  C           22.688000       24.560480       19.000000
  C           23.397000       25.788504       19.000000
  C           24.815000       25.788504       19.000000
  C           21.270000       27.016528       19.000000
  C           22.688000       27.016528       19.000000
  C           23.397000       28.244553       19.000000
  C           24.815000       28.244553       19.000000
  C           21.270000       29.472577       19.000000
  C           22.688000       29.472577       19.000000
  C           23.397000       30.700601       19.000000
  C           24.815000       30.700601       19.000000
  C           21.270000       31.928625       19.000000
  C           22.688000       31.928625       19.000000
  C           23.397000       33.156649       19.000000
  C           24.815000       33.156649       19.000000
  C           25.524000        0.000000       19.000000
  C           26.942000        0.000000       19.000000
  C           27.651000        1.228024       19.000000
  C           29.069000        1.228024       19.000000
  C           25.524000        2.456048       19.000000
  C           26.942000        2.456048       19.000000
  C           27.651000        3.684072       19.000000
  C           29.069000        3.684072       19.000000
  C           25.524000        4.912096       19.000000
  C           26.942000        4.912096       19.000000
  C           27.651000        6.140120       19.000000
  C           29.069000        6.140120       19.000000
  C           25.524000        7.368144       19.000000
  C           26.942000        7.368144       19.000000
  C           27.651000        8.596168       19.000000
  C           29.069000        8.596168       19.000000
  C           25.524000        9.824192       19.000000
  C           26.942000        9.824192       19.000000
  C           27.651000       11.052216       19.000000
  C           29.069000       11.052216       19.000000
  C           25.524000       12.280240       19.000000
  C           26.942000       12.280240       19.000000
  C           27.651000       13.508264       19.000000
  C           29.069000       13.508264       19.000000
  C           25.524000       14.736288       19.000000
  C           26.942000       14.736288       19.000000
  C           27.651000       15.964312       19.000000
  C           29.069000       15.964312       19.000000
  C           25.524000       17.192336       19.000000
  C           26.942000       17.192336       19.000000
  C           27.651000       18.420360       19.000000
  C           29.069000       18.420360       19.000000
  C           25.524000       19.648384       19.000000
  C           26.942000       19.648384       19.000000
  C           27.651000       20.876408       19.000000
  C           29.069000       20.876408       19.000000
  C           25.524000       22.104432       19.000000
  C           26.942000       22.104432       19.000000
  C           27.651000       23.332456       19.000000
  C           29.069000       23.332456       19.000000
  C           25.524000       24.560480       19.000000
  C           26.942000       24.560480       19.000000
  C           27.651000       25.788504       19.000000
  C           29.069000       25.788504       19.000000
  C           25.524000       27.016528       19.000000
  C           26.942000       27.016528       19.000000
  C           27.651000       28.244553       19.000000
  C           29.069000       28.244553       19.000000
  C           25.524000       29.472577       19.000000
  C           26.942000       29.472577       19.000000
  C           27.651000       30.700601       19.000000
  C           29.069000       30.700601       19.000000
  C           25.524000       31.928625       19.000000
  C           26.942000       31.928625       19.000000
  C           27.651000       33.156649       19.000000
  C           29.069000       33.156649       19.000000
  C           29.778000        0.000000       19.000000
  C           31.196000        0.000000       19.000000
  C           31.905000        1.228024       19.000000
  C           33.323000        1.228024       19.000000
  C           29.778000        2.456048       19.000000
  C           31.196000        2.456048       19.000000
  C           31.905000        3.684072       19.000000
  C           33.323000        3.684072       19.000000
  C           29.778000        4.912096       19.000000
  C           31.196000        4.912096       19.000000
  C           31.905000        6.140120       19.000000
  C           33.323000        6.140120       19.000000
  C           29.778000        7.368144       19.000000
  C           31.196000        7.368144       19.000000
  C           31.905000        8.596168       19.000000
  C           33.323000        8.596168       19.000000
  C           29.778000        9.824192       19.000000
  C           31.196000        9.824192       19.000000
  C           31.905000       11.052216       19.000000
  C           33.323000       11.052216       19.000000
  C           29.778000       12.280240       19.000000
  C           31.196000       12.280240       19.000000
  C           31.905000       13.508264       19.000000
  C           33.323000       13.508264       19.000000
  C           29.778000       14.736288       19.000000
  C           31.196000       14.736288       19.000000
  C           31.905000       15.964312       19.000000
  C           33.323000       15.964312       19.000000
  C           29.778000       17.192336       19.000000
  C           31.196000       17.192336       19.000000
  C           31.905000       18.420360       19.000000
  C           33.323000       18.420360       19.000000
  C           29.778000       19.648384       19.000000
  C           31.196000       19.648384       19.000000
  C           31.905000       20.876408       19.000000
  C           33.323000       20.876408       19.000000
  C           29.778000       22.104432       19.000000
  C           31.196000       22.104432       19.000000
  C           31.905000       23.332456       19.000000
  C           33.323000       23.332456       19.000000
  C           29.778000       24.560480       19.000000
  C           31.196000       24.560480       19.000000
  C           31.905000       25.788504       19.000000
  C           33.323000       25.788504       19.000000
  C           29.778000       27.016528       19.000000
  C           31.196000       27.016528       19.000000
  C           31.905000       28.244553       19.000000
  C           33.323000       28.244553       19.000000
  C           29.778000       29.472577       19.000000
  C           31.196000       29.472577       19.000000
  C           31.905000       30.700601       19.000000
  C           33.323000       30.700601       19.000000
  C           29.778000       31.928625       19.000000
  C           31.196000       31.928625       19.000000
  C           31.905000       33.156649       19.000000
  C           33.323000       33.156649       19.000000
  C           12.001857       18.439189       24.913646
  C           13.540489       18.299965       24.978743
  C           14.111145       18.863438       23.670802
  C           13.959620       19.110988       26.214004
  O           13.808771       18.723511       27.366643
  O           14.493326       20.316309       25.877801
  C           14.918161       21.103143       26.991774
  C           13.875199       16.787735       25.181910
  C           15.348082       16.224805       25.076451
  C           15.768993       16.139318       23.599095
  C           15.220468       14.778702       25.610191
  O           15.163222       13.778347       24.905984
  O           15.120192       14.765677       26.967926
  C           14.941673       13.472268       27.545490
  C           16.347026       17.058269       25.941529
  C           17.901360       16.790053       25.993965
  C           18.412468       17.612266       27.205706
  C           18.183842       15.311554       26.302970
  O           18.295265       14.846450       27.429859
  O           18.271989       14.574022       25.164451
  C           18.547123       13.186393       25.367719
  C           18.594263       17.285720       24.674515
  C           20.137919       17.537103       24.608686
  C           20.955334       16.327037       25.085262
  C           20.499047       18.840791       25.334965
  O           19.852361       19.877119       25.229684
  O           21.628975       18.718003       26.081388
  C           22.008663       19.907744       26.774544
  C           20.514939       17.793100       23.130169
  H           11.525399       18.030307       25.812538
  H           11.700722       19.491022       24.840076
  H           11.590936       17.910564       24.046176
  H           15.195628       18.996172       23.720455
  H           13.690838       19.851522       23.446257
  H           13.873670       18.214452       22.821186
  H           14.066388       21.349825       27.633119
  H           15.342947       22.033998       26.606183
  H           15.693261       20.577500       27.558463
  H           13.475409       16.502159       26.166372
  H           13.260144       16.211863       24.473087
  H           14.937345       15.805637       22.967069
  H           16.115240       17.097397       23.207020
  H           16.569397       15.410779       23.441094
  H           14.015267       13.016378       27.182740
  H           14.866699       13.593407       28.629576
  H           15.799980       12.830912       27.327770
  H           16.249053       18.106933       25.639896
  H           15.974634       17.027724       26.975009
  H           18.257828       18.685465       27.052829
  H           19.470442       17.432973       27.414534
  H           17.878159       17.341372       28.125118
  H           17.760172       12.717504       25.964154
  H           19.523153       13.059478       25.846086
  H           18.574871       12.701110       24.388359
  H           18.365945       16.578998       23.870579
  H           18.099388       18.220525       24.374506
  H           22.029052       16.484264       24.925414
  H           20.824224       16.130377       26.152642
  H           20.684247       15.422762       24.530886
  H           22.230064       20.710406       26.064271
  H           22.915102       19.691498       27.346592
  H           21.222626       20.211747       27.472926
  H           20.315003       16.912318       22.509577
  H           19.946652       18.632557       22.712368
  H           21.578342       18.040937       23.029200
  C           20.442950        1.711877       13.650865
  O           19.588616        1.992143       12.569758
  C           20.105602        1.969045       11.308145
  C           21.430397        1.686474       10.996502
  C           21.842320        1.692369        9.673450
  C           20.952580        1.976007        8.655215
  C           19.630778        2.257969        8.965807
  C           19.207881        2.255420       10.278295
  H           21.260650        2.437205       13.716515
  H           19.823871        1.786771       14.543684
  H           20.859180        0.701288       13.583754
  H           22.149469        1.461125       11.768636
  H           22.874537        1.471168        9.444169
  H           21.283212        1.978107        7.627657
  H           18.925301        2.481278        8.179248
  H           18.183476        2.472502       10.537847
  C           21.568323        9.714743        8.750192
  O           22.788103        9.656101        9.447273
  C           23.020859       10.571567       10.430747
  C           22.136882       11.575677       10.808104
  C           22.483399       12.451083       11.824850
  C           23.699159       12.340548       12.471843
  C           24.581316       11.338867       12.095591
  C           24.248783       10.461181       11.085361
  H           21.452468       10.666137        8.220596
  H           21.602743        8.902314        8.025783
  H           20.714478        9.565940        9.419407
  H           21.180063       11.688336       10.322469
  H           21.787787       13.227220       12.108940
  H           23.959860       13.027397       13.262710
  H           25.534754       11.241670       12.593334
  H           24.922913        9.676219       10.779943
  C            6.139533       19.768222       21.981642
  O            7.474708       19.327222       21.974414
  C            8.468553       20.260181       21.937882
  C            8.267894       21.635249       21.906638
  C            9.358677       22.489113       21.870748
  C           10.647918       21.992403       21.865528
  C           10.848450       20.620561       21.896691
  C            9.771691       19.759876       21.932559
  H            5.898152       20.336321       21.077185
  H            5.530580       18.865871       22.012211
  H            5.922400       20.380461       22.863152
  H            7.273716       22.054339       21.909773
  H            9.189604       23.555793       21.846693
  H           11.491091       22.665802       21.837457
  H           11.851128       20.219486       21.892994
  H            9.909385       18.690141       21.957113
  C            5.444800       12.299188       25.959981
  O            6.670264       12.938525       26.218268
  C            7.075041       13.934127       25.378978
  C            6.364329       14.377351       24.269702
  C            6.877017       15.399975       23.487671
  C            8.088834       15.988114       23.795052
  C            8.798148       15.546140       24.901698
  C            8.299214       14.529330       25.688232
  H            5.448333       11.800528       24.985112
  H            5.329822       11.552898       26.744726
  H            4.606501       13.002257       26.004611
  H            5.415349       13.938676       24.003177
  H            6.315166       15.735547       22.628202
  H            8.479762       16.784108       23.179615
  H            9.746555       15.997465       25.152836
  H            8.837663       14.173202       26.552605
  C           30.278836        3.897208       35.493862
  O           29.497043        4.494186       34.489053
  C           29.157541        5.808120       34.622434
  C           29.526605        6.620771       35.688005
  C           29.121297        7.945591       35.715536
  C           28.352782        8.473161       34.695758
  C           27.984403        7.662649       33.632510
  C           28.381078        6.342590       33.592895
  H           29.769610        3.913186       36.463128
  H           30.423304        2.864124       35.181038
  H           31.254299        4.385608       35.588640
  H           30.126165        6.238806       36.499588
  H           29.414594        8.566934       36.549130
  H           28.042050        9.506459       34.726377
  H           27.383867        8.062771       32.829080
  H           28.103573        5.697964       32.773539
  C           20.497714       25.473339       15.806210
  O           19.697329       24.649851       14.994744
  C           19.769485       23.298940       15.165939
  C           20.582895       22.656921       16.092343
  C           20.572006       21.273766       16.175690
  C           19.761611       20.520084       15.348578
  C           18.949965       21.160319       14.424206
  C           18.951289       22.536103       14.330990
  H           21.563665       25.272130       15.656852
  H           20.278353       26.494571       15.498057
  H           20.251527       25.355331       16.866639
  H           21.226915       23.217012       16.752323
  H           21.208688       20.786601       16.899760
  H           19.760270       19.443090       15.421220
  H           18.311878       20.582801       13.771858
  H           18.326312       23.050474       13.617742
  C            4.080672       18.121279       35.707886
  O            5.199116       18.884641       35.328956
  C            4.998184       20.157951       34.884229
  C            3.757666       20.774920       34.772370
  C            3.676512       22.077337       34.306207
  C            4.814561       22.774811       33.949463
  C            6.052364       22.159548       34.060945
  C            6.147058       20.863927       34.523410
  H            3.391259       17.973655       34.870055
  H            4.474770       17.156213       36.023050
  H            3.542914       18.581965       36.543128
  H            2.850530       20.257234       35.042817
  H            2.706598       22.545790       34.223814
  H            4.740879       23.789047       33.587399
  H            6.949558       22.693735       33.785399
  H            7.101683       20.370030       34.616438
  C           28.426895       26.360716       36.435364
  O           29.084296       26.725020       35.246948
  C           28.477262       27.618208       34.414362
  C           27.240734       28.208933       34.646941
  C           26.722356       29.105356       33.726132
  C           27.418763       29.422174       32.575682
  C           28.652459       28.832983       32.343345
  C           29.179645       27.939307       33.251581
  H           27.464768       25.879059       36.231990
  H           29.086327       25.650352       36.931879
  H           28.268841       27.224692       37.089281
  H           26.672365       27.982408       35.535580
  H           25.760391       29.557752       33.918310
  H           27.006441       30.121700       31.864450
  H           29.206912       29.072096       31.447999
  H           30.137824       27.471729       33.086779
  C           15.365379       30.592108       15.347645
  O           14.381426       31.499952       15.777622
  C           13.080608       31.253455       15.451150
  C           12.638634       30.159978       14.715611
  C           11.287593       30.013816       14.444492
  C           10.369437       30.942256       14.896020
  C           10.810069       32.033320       15.629884
  C           12.151760       32.190619       15.906641
  H           15.403454       30.527004       14.255236
  H           16.311462       30.984958       15.717223
  H           15.201500       29.593084       15.764945
  H           13.330405       29.417657       14.348936
  H           10.956626       29.159692       13.871863
  H            9.319062       30.819500       14.679597
  H           10.102650       32.766195       15.988621
  H           12.511901       33.033221       16.476041
  C           31.321848       10.756910       33.380331
  O           30.774963        9.897575       32.410957
  C           30.936111        8.552599       32.567625
  C           31.607961        7.949815       33.624659
  C           31.708190        6.568775       33.678168
  C           31.148176        5.778644       32.692790
  C           30.477815        6.379729       31.638065
  C           30.370856        7.752966       31.572849
  H           32.410309       10.654177       33.441503
  H           31.074100       11.765952       33.054066
  H           30.884761       10.579348       34.368496
  H           32.056052        8.538946       34.409627
  H           32.232863        6.112292       34.504795
  H           31.231672        4.703630       32.743459
  H           30.035624        5.773482       30.861423
  H           29.852992        8.237150       30.759659
  C            1.766973       10.360201        5.693161
  O            2.745892       10.241850        6.695626
  C            2.744914       11.145545        7.716806
  C            1.840635       12.192534        7.851509
  C            1.937961       13.050614        8.935210
  C            2.924205       12.880589        9.887736
  C            3.826550       11.836118        9.753631
  C            3.740772       10.975074        8.679983
  H            1.845772       11.315691        5.164131
  H            1.958882        9.546417        4.995364
  H            0.756775       10.254459        6.102261
  H            1.059247       12.352002        7.124846
  H            1.229212       13.860498        9.028664
  H            2.991706       13.554391       10.728349
  H            4.602125       11.692271       10.491216
  H            4.434279       10.157420        8.560043
  C           19.058399        9.268014       15.860395
  O           20.099512        9.968867       15.226271
  C           20.156275       11.323449       15.372416
  C           19.254524       12.082436       16.109188
  C           19.413685       13.456814       16.186224
  C           20.459350       14.086744       15.539180
  C           21.359188       13.329794       14.804027
  C           21.212208       11.961333       14.719258
  H           18.076863        9.587172       15.494652
  H           19.211946        8.219632       15.608775
  H           19.096497        9.387650       16.948181
  H           18.427642       11.620489       16.625820
  H           18.706232       14.035613       16.761960
  H           20.574773       15.157960       15.605280
  H           22.180840       13.809954       14.293563
  H           21.902834       11.357200       14.151846
  C           26.741959       19.250990       11.370473
  O           27.103791       19.839164       10.145583
  C           26.145248       19.990907        9.187646
  C           24.816681       19.605652        9.323803
  C           23.930239       19.810780        8.278660
  C           24.348631       20.394804        7.098509
  C           25.674064       20.779278        6.962351
  C           26.566437       20.580824        7.994708
  H           26.379218       18.226880       11.233868
  H           27.651239       19.233039       11.969540
  H           25.978753       19.839729       11.890036
  H           24.458938       19.147113       10.232537
  H           22.900309       19.507021        8.396751
  H           23.650402       20.550338        6.290127
  H           26.013838       21.236838        6.045055
  H           27.600928       20.873802        7.905894
  C           15.093308       29.423599        1.291647
  O           15.339614       30.425828        2.246684
  C           15.131364       30.136523        3.562894
  C           14.687983       28.911532        4.047520
  C           14.512236       28.733636        5.410476
  C           14.772086       29.759569        6.298637
  C           15.214452       30.981851        5.815448
  C           15.393465       31.172071        4.461475
  H           14.045235       29.106603        1.301668
  H           15.323603       29.872329        0.326453
  H           15.737324       28.551817        1.447474
  H           14.476409       28.090799        3.379936
  H           14.167194       27.776942        5.774691
  H           14.632086       29.611085        7.358612
  H           15.421128       31.791873        6.499107
  H           15.736884       32.116228        4.068373
  C            1.802603       18.720009        5.393523
  O            2.472570       19.898820        5.021000
  C            2.332199       20.351398        3.742351
  C            1.568347       19.733334        2.759205
  C            1.500468       20.287359        1.490887
  C            2.183296       21.449499        1.187461
  C            2.945474       22.066377        2.168113
  C            3.021499       21.525471        3.434255
  H            2.136802       17.862286        4.800508
  H            2.056167       18.554120        6.439554
  H            0.716999       18.826294        5.297559
  H            1.023523       18.825020        2.964557
  H            0.903438       19.797556        0.735493
  H            2.124054       21.873258        0.196444
  H            3.484014       22.975180        1.943857
  H            3.609584       21.992090        4.209058
  C           31.740687       15.566739       24.833702
  O           32.168089       14.635940       23.870288
  C           31.256385       13.757183       23.364269
  C           29.915920       13.704142       23.728126
  C           29.081151       12.764747       23.144277
  C           29.562968       11.876425       22.202137
  C           30.900287       11.929084       21.838907
  C           31.741680       12.859024       22.412270
  H           31.364845       15.070260       25.734421
  H           32.621784       16.153934       25.088386
  H           30.966457       16.231187       24.436058
  H           29.509212       14.383842       24.460678
  H           28.041340       12.733608       23.435471
  H           28.904662       11.148307       21.753059
  H           31.289413       11.240387       21.103707
  H           32.784532       12.914015       22.141474
  C            7.545414       32.649151        5.113897
  O            7.928120       31.328113        4.821288
  C            8.621470       31.090445        3.671395
  C            8.987840       32.062758        2.748123
  C            9.693733       31.701346        1.611779
  C           10.040322       30.383850        1.381626
  C            9.674945       29.413545        2.302572
  C            8.972363       29.759787        3.437459
  H            6.877645       33.054346        4.346470
  H            7.013489       32.599261        6.062876
  H            8.414982       33.305914        5.221411
  H            8.732253       33.100044        2.898953
  H            9.972656       32.466252        0.901785
  H           10.590306       30.112380        0.493359
  H            9.939711       28.380159        2.134490
  H            8.680097       29.017993        4.164246
  C           24.186936        8.414760       23.150535
  O           25.314796        9.252792       23.204003
  C           26.552620        8.681298       23.178294
  C           26.796436        7.314980       23.102281
  C           28.101280        6.848945       23.082895
  C           29.167953        7.725325       23.138197
  C           28.925035        9.088545       23.214041
  C           27.631347        9.565457       23.234104
  H           24.150952        7.732848       24.006539
  H           23.324055        9.078346       23.183448
  H           24.160527        7.833773       22.222742
  H           25.985276        6.604998       23.057763
  H           28.277683        5.784831       23.023623
  H           30.180815        7.352416       23.122515
  H           29.749952        9.784128       23.257821
  H           27.424200       10.622594       23.292818
  C           28.549059       23.558897       13.593408
  O           27.705222       22.444666       13.747207
  C           26.381854       22.583857       13.449217
  C           25.787193       23.756419       12.998078
  C           24.428511       23.778558       12.726647
  C           23.652781       22.648223       12.898329
  C           24.245766       21.478212       13.348414
  C           25.596790       21.442689       13.622177
  H           28.245649       24.386565       14.242985
  H           29.542224       23.219637       13.884131
  H           28.575066       23.904029       12.554538
  H           26.365507       24.655753       12.853895
  H           23.978138       24.695942       12.376589
  H           22.595156       22.675598       12.684141
  H           23.650601       20.587777       13.486768
  H           26.074393       20.541186       13.973011
  C           18.316560        8.937111       34.018268
  O           19.133189       10.052656       33.761556
  C           18.916596       10.769963       32.622243
  C           17.938318       10.484989       31.676827
  C           17.811786       11.287510       30.554272
  C           18.646651       12.371036       30.359688
  C           19.622772       12.655616       31.302733
  C           19.759313       11.865009       32.424237
  H           18.416388        8.176577       33.236817
  H           18.665441        8.527255       34.964996
  H           17.263717        9.222315       34.114311
  H           17.270952        9.646213       31.799767
  H           17.047597       11.055635       29.826796
  H           18.540105       12.990186       29.481909
  H           20.281726       13.499627       31.162504
  H           20.513082       12.071868       33.167834
  C           29.496862       15.734481        4.327778
  O           30.380511       14.646433        4.215792
  C           30.773435       14.006701        5.354137
  C           30.365823       14.346804        6.638751
  C           30.832784       13.621721        7.723364
  C           31.700910       12.561537        7.546567
  C           32.107771       12.221970        6.265048
  C           31.650552       12.935328        5.177140
  H           29.931915       16.547473        4.918385
  H           29.325535       16.081831        3.309943
  H           28.542323       15.433964        4.772288
  H           29.688809       15.169213        6.810015
  H           30.508639       13.895884        8.716709
  H           32.059063       12.002852        8.397915
  H           32.786040       11.395443        6.113242
  H           31.956749       12.684927        4.173427
  C           30.485303       28.436337       23.336433
  O           31.225089       28.662896       24.510576
  C           31.933177       27.626928       25.044294
  C           31.985356       26.342832       24.514742
  C           32.741283       25.368276       25.146405
  C           33.446778       25.654746       26.299273
  C           33.394924       26.935778       26.827855
  C           32.646495       27.914803       26.209116
  H           29.713324       27.674587       23.487523
  H           30.010175       29.386965       23.098622
  H           31.131644       28.137567       22.504554
  H           31.445826       26.087484       23.615997
  H           32.773773       24.374121       24.725013
  H           34.032777       24.888653       26.783940
  H           33.941762       27.172679       27.728458
  H           32.594942       28.916450       26.606535
  C           23.414207       17.560331       34.329465
  O           24.450368       18.501542       34.462568
  C           24.390147       19.645448       33.722753
  C           23.371571       19.964027       32.832213
  C           23.417613       21.159724       32.133377
  C           24.464854       22.043643       32.309055
  C           25.481234       21.726092       33.197462
  C           25.447519       20.539513       33.899151
  H           23.347133       17.177279       33.305836
  H           23.669123       16.743199       35.002746
  H           22.447131       17.981804       34.623010
  H           22.540233       19.295082       32.672757
  H           22.619983       21.395839       31.444169
  H           24.491633       22.972612       31.759969
  H           26.305441       22.408349       33.343914
  H           26.229644       20.276560       34.594155
  C           16.720204       23.470683        0.884929
  O           17.894734       22.795951        0.507513
  C           19.084683       23.225348        1.016544
  C           19.235758       24.293533        1.893020
  C           20.499199       24.639165        2.345166
  C           21.615578       23.935281        1.936343
  C           21.465189       22.869515        1.061896
  C           20.213538       22.515178        0.604415
  H           16.743484       24.521750        0.578726
  H           15.908316       22.963285        0.365912
  H           16.551112       23.411362        1.965176
  H           18.383906       24.862959        2.230863
  H           20.603480       25.471294        3.026090
  H           22.595560       24.212324        2.294222
  H           22.329731       22.311175        0.734690
  H           20.078294       21.688996       -0.076047
  C           16.019587       23.197904        6.706742
  O           15.390274       23.046611        5.458423
  C           14.673303       21.910636        5.223929
  C           14.509970       20.871411        6.132436
  C           13.756582       19.762651        5.781380
  C           13.162881       19.674083        4.536966
  C           13.325649       20.710738        3.630332
  C           14.072857       21.819684        3.967069
  H           16.759449       22.410105        6.882869
  H           16.524047       24.162286        6.668272
  H           15.293095       23.202799        7.526028
  H           14.960687       20.910450        7.111908
  H           13.637078       18.961610        6.496238
  H           12.577879       18.806172        4.272963
  H           12.866823       20.653839        2.654380
  H           14.209799       22.635168        3.274157
  C           11.197962       21.914490       11.306390
  O           10.702408       21.654657       10.016375
  C            9.423280       21.199446        9.889530
  C            8.553163       20.966813       10.948222
  C            7.272031       20.502513       10.696611
  C            6.844681       20.266341        9.404138
  C            7.712548       20.498336        8.347673
  C            8.990054       20.960360        8.584288
  H           11.205699       21.010614       11.924446
  H           12.220388       22.262072       11.165587
  H           10.617823       22.694001       11.811211
  H            8.856681       21.141448       11.968720
  H            6.605233       20.325583       11.527904
  H            5.844724       19.904666        9.218473
  H            7.390847       20.317723        7.332721
  H            9.678184       21.146180        7.774446
  C           27.438625       32.436319        1.759033
  O           26.182407       33.060561        1.661741
  C           25.098048       32.428528        2.194821
  C           25.131921       31.196655        2.837776
  C           23.961928       30.650882        3.341195
  C           22.757321       31.315288        3.213228
  C           22.723190       32.544332        2.571809
  C           23.880246       33.098565        2.066317
  H           27.449578       31.470742        1.242714
  H           28.142186       33.111151        1.273649
  H           27.737280       32.292843        2.802710
  H           26.056567       30.652953        2.953768
  H           24.001352       29.692863        3.838805
  H           21.851337       30.881788        3.608787
  H           21.788081       33.073902        2.465193
  H           23.871933       34.053581        1.564550
  C            7.779336       18.685242        3.382179
  O            6.778578       17.788784        2.967362
  C            6.757485       16.538789        3.511918
  C            7.659016       16.068821        4.459769
  C            7.538244       14.775491        4.942360
  C            6.531230       13.942627        4.493861
  C            5.631623       14.411208        3.548202
  C            5.740627       15.696132        3.059774
  H            8.780256       18.307857        3.148123
  H            7.602455       19.603943        2.824778
  H            7.712589       18.895101        4.454815
  H            8.456254       16.694410        4.830020
  H            8.245101       14.421979        5.678806
  H            6.445542       12.936712        4.875945
  H            4.839965       13.770289        3.189398
  H            5.049590       16.076912        2.323996
  C           28.955076       21.562715        3.850186
  O           29.844116       22.485042        4.429968
  C           30.160458       22.343954        5.748868
  C           29.668397       21.346500        6.582541
  C           30.062183       21.303267        7.910413
  C           30.940057       22.240372        8.420376
  C           31.431160       23.235650        7.588889
  C           31.047311       23.290008        6.265567
  H           27.973068       21.591306        4.333805
  H           28.851831       21.866164        2.809392
  H           29.349974       20.542223        3.891352
  H           28.981562       20.600203        6.214661
  H           29.672757       20.523152        8.548174
  H           31.240795       22.198182        9.456220
  H           32.117951       23.974156        7.975110
  H           31.419517       24.057253        5.604739
  C           19.763236       13.262099       36.926585
  O           18.421602       13.224524       37.345910
  C           17.488707       12.704006       36.498419
  C           17.758573       12.198528       35.232040
  C           16.725816       11.693662       34.458279
  C           15.426645       11.685055       34.928355
  C           15.157073       12.189295       36.191765
  C           16.175622       12.694621       36.971942
  H           19.887794       13.878050       36.029851
  H           20.317603       13.710169       37.749934
  H           20.153050       12.257246       36.733302
  H           18.762288       12.191082       34.836394
  H           16.948410       11.303656       33.475773
  H           14.629024       11.289574       34.317953
  H           14.145901       12.188371       36.570935
  H           15.983860       13.090753       37.956931
  C           11.716793       23.730774       31.984001
  O           10.536601       24.081867       32.663049
  C            9.467898       24.510582       31.932604
  C            9.447870       24.631512       30.548037
  C            8.300578       25.079466       29.913023
  C            7.171677       25.409065       30.638170
  C            7.191338       25.288527       32.019552
  C            8.326562       24.843971       32.663842
  H           12.132230       24.580746       31.432635
  H           12.421486       23.424186       32.755626
  H           11.551471       22.896794       31.293936
  H           10.312965       24.382132       29.953516
  H            8.297569       25.169159       28.836493
  H            6.282807       25.757105       30.134210
  H            6.315588       25.542907       32.597992
  H            8.359333       24.744247       33.737563
  C           11.386748        9.314941       36.560925
  O           11.904853        8.923960       35.313556
  C           11.276369        9.355665       34.183020
  C           10.146112       10.164416       34.160809
  C            9.593101       10.540761       32.947251
  C           10.150382       10.122618       31.754152
  C           11.278028        9.315727       31.775971
  C           11.838241        8.934021       32.976777
  H           10.364171        8.950529       36.704392
  H           12.037763        8.860931       37.306611
  H           11.404066       10.403210       36.680985
  H            9.687378       10.507524       35.075072
  H            8.714685       11.169521       32.943266
  H            9.712161       10.421191       30.813933
  H           11.723316        8.982061       30.850431
  H           12.715269        8.306757       33.012228
  C            6.099036        7.870881       34.733781
  O            5.167960        8.734356       35.337713
  C            5.383881       10.078799       35.264746
  C            6.467070       10.677211       34.631772
  C            6.581461       12.058154       34.622153
  C            5.631326       12.852484       35.234667
  C            4.550521       12.255762       35.866266
  C            4.424773       10.882672       35.883136
  H            7.093653        7.975708       35.179642
  H            5.728385        6.863113       34.915480
  H            6.165705        8.041980       33.654279
  H            7.225740       10.084738       34.144503
  H            7.427885       12.511217       34.126904
  H            5.729380       13.927385       35.221693
  H            3.800931       12.865317       36.348756
  H            3.590561       10.401849       36.369753
  C           15.089806       24.239134       30.941706
  O           14.722780       25.368226       31.695146
  C           14.950194       26.605063       31.167898
  C           15.524851       26.846721       29.925553
  C           15.706927       28.150739       29.493619
  C           15.324385       29.218707       30.282286
  C           14.751029       28.977943       31.521814
  C           14.564229       27.685098       31.963549
  H           16.166884       24.218700       30.745418
  H           14.819183       23.377356       31.550060
  H           14.547179       24.195202       29.991617
  H           15.834155       26.034507       29.286275
  H           16.154634       28.325461       28.526148
  H           15.470432       30.230910       29.936873
  H           14.447654       29.803890       32.147925
  H           14.119823       27.479622       32.924892
  C            8.739373       29.151246       21.856073
  O            8.248820       29.512796       23.123300
  C            7.266405       30.455638       23.196669
  C            6.699579       31.100438       22.103512
  C            5.704585       32.044380       22.301356
  C            5.265594       32.355621       23.573876
  C            5.830910       31.712489       24.664716
  C            6.821822       30.771177       24.481693
  H            9.191360       30.005068       21.340573
  H            9.503165       28.396875       22.039214
  H            7.952295       28.722893       21.226736
  H            7.020451       30.879692       21.097357
  H            5.271980       32.538570       21.443684
  H            4.489925       33.092423       23.717591
  H            5.496725       31.946661       25.664578
  H            7.272525       30.261322       25.318838
  C           10.838654       17.514328        1.589058
  O           10.492726       16.669657        2.658680
  C           11.462813       16.316146        3.549429
  C           12.788686       16.728689        3.486815
  C           13.687836       16.303581        4.451695
  C           13.284815       15.472509        5.479208
  C           11.962076       15.060739        5.541958
  C           11.057162       15.476496        4.588150
  H           11.597235       17.057972        0.944592
  H            9.922370       17.658781        1.018486
  H           11.200323       18.485265        1.943345
  H           13.134567       17.377427        2.697168
  H           14.715517       16.631124        4.392043
  H           13.992863       15.146819        6.226062
  H           11.634259       14.411166        6.339976
  H           10.024550       15.165875        4.621656
  C           21.720028       17.703481        6.821210
  O           21.749921       19.031790        6.360854
  C           21.841624       19.253968        5.018579
  C           21.909206       18.258872        4.050454
  C           22.000482       18.606103        2.712066
  C           22.025435       19.931795        2.323728
  C           21.958028       20.924830        3.289374
  C           21.866946       20.592882        4.624660
  H           22.634478       17.163841        6.553606
  H           21.645612       17.768346        7.905760
  H           20.851985       17.161614        6.431433
  H           21.891949       17.214668        4.321335
  H           22.052363       17.823523        1.969201
  H           22.096726       20.192082        1.278566
  H           21.976623       21.964835        2.999058
  H           21.813625       21.352399        5.388980
  C            8.733560       31.572278       10.590516
  O            9.669345       31.674961        9.546012
  C           10.990386       31.500466        9.835629
  C           11.497789       31.224645       11.099953
  C           12.863461       31.066967       11.273904
  C           13.731954       31.180211       10.205360
  C           13.226039       31.455391        8.943830
  C           11.869113       31.614584        8.757056
  H            8.908477       32.327737       11.363646
  H            7.760379       31.744975       10.133253
  H            8.746736       30.576868       11.046616
  H           10.845919       31.130144       11.954454
  H           13.245471       30.852855       12.261424
  H           14.794232       31.055666       10.351130
  H           13.894177       31.546405        8.100297
  H           11.458466       31.828954        7.782731
  C           22.460035       24.481244       30.619668
  O           23.408488       25.173280       31.393456
  C           24.701282       25.208233       30.961094
  C           25.167685       24.605947       29.798438
  C           26.507436       24.709070       29.459891
  C           27.390278       25.404292       30.263724
  C           26.925267       26.005299       31.423762
  C           25.594460       25.910277       31.772187
  H           22.709540       23.418620       30.532373
  H           21.514039       24.585747       31.148974
  H           22.363539       24.914483       29.618651
  H           24.503673       24.056109       29.149745
  H           26.857646       24.236592       28.553752
  H           28.432120       25.478920       29.991343
  H           27.605005       26.551614       32.060735
  H           25.215717       26.371599       32.670870
  C           15.439553        1.039836       30.941059
  O           14.987732        2.227309       30.338571
  C           15.698230        2.738273       29.292826
  C           16.852432        2.172809       28.763565
  C           17.491051        2.783907       27.696368
  C           16.995936        3.951482       27.148171
  C           15.844420        4.515892       27.675984
  C           15.199240        3.917916       28.737888
  H           16.439382        1.161382       31.370725
  H           14.729720        0.824535       31.738414
  H           15.448878        0.206267       30.231045
  H           17.264162        1.261789       29.169221
  H           18.387262        2.334638       27.293957
  H           17.500677        4.419906       26.316901
  H           15.447097        5.428317       27.256632
  H           14.302511        4.343246       29.160815
  C            5.924858       12.008138        0.817489
  O            6.486895       10.719211        0.815004
  C            7.396181       10.403339        1.780870
  C            7.821166       11.264872        2.785460
  C            8.752931       10.831397        3.715028
  C            9.268034        9.550641        3.658244
  C            8.844237        8.690857        2.656097
  C            7.917524        9.109676        1.724824
  H            6.689194       12.781023        0.685268
  H            5.238977       12.032929       -0.028055
  H            5.368023       12.202893        1.740013
  H            7.437989       12.270906        2.856916
  H            9.075232       11.510404        4.490942
  H            9.993486        9.222385        4.387053
  H            9.239099        7.687242        2.600602
  H            7.576792        8.454115        0.938671
  C           31.334314       21.400726        1.791088
  O           30.732633       22.656358        1.987545
  C           31.361989       23.561755        2.789817
  C           32.570263       23.342708        3.441080
  C           33.115728       24.340362        4.233125
  C           32.474209       25.554442        4.385946
  C           31.268711       25.773295        3.736323
  C           30.715056       24.788881        2.945204
  H           31.437136       20.851650        2.732888
  H           30.666243       20.853640        1.127483
  H           32.316897       21.494746        1.317028
  H           33.095759       22.405653        3.341991
  H           34.055283       24.157926        4.734049
  H           32.907268       26.325317        5.005145
  H           30.757168       26.717861        3.847495
  H           29.778180       24.942117        2.432683
  C           19.743167        5.999186       27.972566
  O           18.868411        6.568232       28.915017
  C           18.338295        5.764022       29.880263
  C           18.595333        4.404409       30.012296
  C           17.997193        3.687343       31.036126
  C           17.145737        4.305818       31.931337
  C           16.889087        5.662277       31.799878
  C           17.477828        6.387450       30.785491
  H           19.249527        5.217865       27.385283
  H           20.036264        6.813885       27.311995
  H           20.635916        5.583469       28.451337
  H           19.255380        3.892377       29.329508
  H           18.204949        2.631246       31.128151
  H           16.684660        3.738518       32.725550
  H           16.225467        6.157660       32.493019
  H           17.289341        7.443236       30.668509
  C           12.250541        9.570534        5.024505
  O           13.598711        9.578988        5.423997
  C           14.054824       10.636072        6.154755
  C           13.284163       11.725230        6.544454
  C           13.858590       12.743705        7.288044
  C           15.191141       12.692807        7.649441
  C           15.960292       11.606302        7.260796
  C           15.400977       10.586094        6.520651
  H           12.016437       10.423497        4.378988
  H           12.114600        8.647296        4.463126
  H           11.575105        9.571905        5.886379
  H           12.240936       11.794523        6.278160
  H           13.249141       13.584820        7.584808
  H           15.629371       13.491219        8.228827
  H           17.003065       11.554413        7.536788
  H           15.984565        9.733600        6.209885
  C            5.374563       14.332565       28.421815
  O            4.329688       15.255021       28.607664
  C            3.585285       15.174980       29.747370
  C            3.776926       14.240751       30.758578
  C            2.955418       14.256303       31.874403
  C            1.944622       15.190117       31.997583
  C            1.753164       16.122321       30.988884
  C            2.563637       16.117788       29.873274
  H            5.002178       13.303318       28.389853
  H            5.821942       14.582649       27.460928
  H            6.132969       14.419573       29.206858
  H            4.557339       13.498735       30.692221
  H            3.114462       13.525019       32.653440
  H            1.309953       15.194016       32.870724
  H            0.966648       16.857551       31.072957
  H            2.428795       16.835549       29.079213
  C            5.590720       17.369426       32.995565
  O            6.180012       18.639246       32.863214
  C            5.877776       19.386028       31.763012
  C            5.020393       18.989290       30.743432
  C            4.788592       19.835673       29.671012
  C            5.399243       21.072963       29.599515
  C            6.254701       21.469078       30.616578
  C            6.493977       20.636377       31.689346
  H            5.875782       16.705431       32.172830
  H            5.970160       16.963888       33.932346
  H            4.498896       17.435477       33.046574
  H            4.528316       18.029501       30.769926
  H            4.120177       19.515849       28.884943
  H            5.212210       21.725114       28.759924
  H            6.738299       22.433675       30.572703
  H            7.156427       20.928468       32.489182
  C            5.338799       14.406097       10.115626
  O            6.582249       15.057924       10.194233
  C            7.714627       14.298861       10.226161
  C            7.742362       12.909714       10.186766
  C            8.957300       12.244420       10.225389
  C           10.146348       12.943752       10.302778
  C           10.119016       14.329696       10.342101
  C            8.916781       15.003996       10.304349
  H            5.166964       13.760510       10.983228
  H            4.590738       15.197449       10.103016
  H            5.252333       13.812783        9.199359
  H            6.831359       12.334860       10.126329
  H            8.965594       11.164640       10.194133
  H           11.087684       12.416297       10.332350
  H           11.041350       14.888157       10.402600
  H            8.877063       16.081696       10.334043
  C           19.967983       33.549837       35.300338
  O           19.936756       32.213566       35.736950
  C           21.053606       31.692964       36.320983
  C           22.241397       32.385725       36.524170
  C           23.313423       31.750410       37.130237
  C           23.219192       30.433471       37.537278
  C           22.034283       29.742034       37.334701
  C           20.959951       30.362489       36.732770
  H           20.731691       33.704388       34.530983
  H           18.984712       33.744526       34.874580
  H           20.145085       34.240906       36.131062
  H           22.346659       33.414816       36.217693
  H           24.231136       32.299567       37.282558
  H           24.059946       29.947398       38.008513
  H           21.947646       28.712261       37.648233
  H           20.030843       29.839693       36.567430
  C           28.498158       20.743481       33.136897
  O           29.740244       20.248774       32.701336
  C           30.792660       21.112021       32.619489
  C           30.738677       22.464305       32.936451
  C           31.876502       23.245667       32.813938
  C           33.068672       22.698766       32.379748
  C           33.122859       21.349639       32.063437
  C           31.997859       20.560944       32.180954
  H           28.116173       21.519904       32.465854
  H           27.819794       19.891638       33.123512
  H           28.557903       21.141588       34.155221
  H           29.823010       22.921249       33.278199
  H           31.821695       24.295317       33.063340
  H           33.949563       23.315805       32.287616
  H           34.048545       20.909877       31.722916
  H           32.022114       19.509817       31.939208
  C           30.280145       33.699947        3.660503
  O           30.687700       32.358372        3.554193
  C           31.564802       31.869113        4.476577
  C           32.098933       32.599295        5.531844
  C           32.984206       31.993620        6.409129
  C           33.345488       30.669571        6.250194
  C           32.812769       29.940802        5.197465
  C           31.930782       30.531502        4.317325
  H           31.127979       34.386860        3.569003
  H           29.592271       33.866166        2.832739
  H           29.760416       33.889273        4.605533
  H           31.836740       33.634878        5.683039
  H           33.392436       32.571735        7.225280
  H           34.035880       30.206781        6.938947
  H           33.087030       28.905088        5.062127
  H           31.506871       29.979497        3.493016
  C           16.104021       18.821887        4.950824
  O           16.862059       17.902158        4.204699
  C           17.679672       18.377322        3.222252
  C           17.828667       19.719060        2.891208
  C           18.691863       20.084160        1.870533
  C           19.409588       19.130892        1.174086
  C           19.261159       17.792169        1.504120
  C           18.405486       17.415396        2.517698
  H           15.410028       19.381440        4.314964
  H           15.536628       18.226640        5.664784
  H           16.744377       19.524312        5.494503
  H           17.282448       20.487318        3.416053
  H           18.798934       21.130153        1.622731
  H           20.079522       19.425402        0.380582
  H           19.816386       17.037203        0.967474
  H           18.277902       16.378679        2.787579
  C           13.501282        4.263976       32.217478
  O           14.602072        4.346630       33.088487
  C           14.393202        4.786825       34.362094
  C           13.160737        5.167362       34.880044
  C           13.070169        5.599420       36.193553
  C           14.190876        5.657940       36.999457
  C           15.420641        5.278354       36.483002
  C           15.524556        4.846507       35.177558
  H           13.040360        5.244174       32.056838
  H           13.898875        3.894950       31.273161
  H           12.745346        3.564326       32.589088
  H           12.267123        5.133062       34.276461
  H           12.106661        5.892453       36.584392
  H           14.109972        5.995931       38.021422
  H           16.304288        5.319433       37.102454
  H           16.473134        4.547505       34.759595
  C           25.133188       21.259965       29.176754
  O           25.962714       21.961713       28.284195
  C           25.383122       22.802727       27.380733
  C           24.016250       23.027946       27.266772
  C           23.541566       23.908018       26.307434
  C           24.409831       24.567720       25.459024
  C           25.773602       24.343238       25.572465
  C           26.259076       23.469983       26.522842
  H           24.440630       20.597687       28.646854
  H           25.802199       20.661111       29.793027
  H           24.564327       21.941209       29.818119
  H           23.312475       22.528338       27.914175
  H           22.477114       24.074555       26.228840
  H           24.030218       25.251392       24.714926
  H           26.462895       24.852573       24.915432
  H           27.316770       23.283562       26.624955
  C           28.085398       32.757635       30.484286
  O           27.029271       32.761854       29.555952
  C           25.802247       33.191542       29.967356
  C           25.503446       33.633541       31.250869
  C           24.216200       34.047618       31.553722
  C           23.221189       34.027726       30.595366
  C           23.518976       33.586802       29.314725
  C           24.795893       33.172029       29.000208
  H           27.874459       32.096428       31.331253
  H           28.952836       32.382526       29.943140
  H           28.299342       33.765354       30.855466
  H           26.258128       33.661076       32.021410
  H           23.996574       34.388949       32.554836
  H           22.221479       34.352328       30.841151
  H           22.750291       33.566335       28.556475
  H           25.045031       32.826059       28.009183
  C            1.060786        3.781171       36.369306
  O            1.438651        4.446130       35.189360
  C            1.303858        5.801954       35.134143
  C            0.815314        6.595347       36.165600
  C            0.723489        7.967316       35.993994
  C            1.111745        8.561018       34.808386
  C            1.599199        7.769735       33.779119
  C            1.695715        6.403256       33.936902
  H           -0.002697        3.922715       36.588425
  H            1.252488        2.724702       36.187324
  H            1.655073        4.113553       37.226854
  H            0.504021        6.162136       37.103396
  H            0.342176        8.573068       36.803090
  H            1.036357        9.630669       34.684457
  H            1.906028        8.221391       32.847399
  H            2.072573        5.772717       33.146779
  C           17.341424       16.705002        9.393433
  O           16.620913       16.705345       10.600948
  C           15.832071       17.779868       10.888355
  C           15.678304       18.894605       10.072410
  C           14.846572       19.929053       10.470307
  C           14.165036       19.869004       11.670637
  C           14.318235       18.756980       12.484925
  C           15.142837       17.720673       12.100773
  H           18.050147       17.538435        9.347121
  H           17.890968       15.764925        9.377642
  H           16.674133       16.747840        8.526293
  H           16.196640       18.971626        9.129312
  H           14.735419       20.790010        9.827368
  H           13.519432       20.680012       11.971731
  H           13.791144       18.697699       13.425616
  H           15.273612       16.848279       12.721838
  C           27.918948        7.401258       12.653975
  O           27.546930        8.200588       11.558576
  C           27.486684        9.552147       11.729261
  C           27.767429       10.217129       12.917130
  C           27.672090       11.598483       12.971478
  C           27.300701       12.327793       11.858344
  C           27.020536       11.664645       10.673069
  C           27.111592       10.290375       10.605504
  H           27.213750        7.503932       13.485358
  H           27.899067        6.374745       12.290835
  H           28.928641        7.641292       13.003184
  H           28.060014        9.676364       13.803698
  H           27.892848       12.103638       13.900485
  H           27.229302       13.403593       11.910802
  H           26.729159       12.222990        9.795807
  H           26.897269        9.758384        9.691750
  C            1.808856        6.266655        4.761095
  O            2.717989        7.045409        5.498824
  C            3.478020        7.962729        4.835234
  C            3.427848        8.196076        3.465898
  C            4.250773        9.157337        2.901137
  C            5.123940        9.890328        3.681645
  C            5.174238        9.657758        5.047849
  C            4.360718        8.704092        5.622463
  H            2.319645        5.653400        4.011390
  H            1.321309        5.616067        5.485683
  H            1.053839        6.887919        4.268120
  H            2.756901        7.640495        2.829348
  H            4.202425        9.329339        1.835750
  H            5.760941       10.636959        3.232236
  H            5.852350       10.223871        5.669073
  H            4.386815        8.510193        6.683415
  C            5.024484       24.443235        4.026829
  O            5.738673       25.131371        5.023638
  C            5.937605       24.516411        6.224357
  C            5.485041       23.243303        6.550594
  C            5.748246       22.720376        7.806560
  C            6.456570       23.448184        8.743291
  C            6.908224       24.718383        8.418118
  C            6.653097       25.250493        7.171827
  H            4.002925       24.214912        4.348279
  H            4.989841       25.115585        3.170828
  H            5.529371       23.515706        3.737306
  H            4.929317       22.649837        5.841365
  H            5.391171       21.729834        8.048003
  H            6.656503       23.032019        9.719010
  H            7.463001       25.297620        9.141268
  H            6.996925       26.236857        6.902076
  C            6.206773       17.499429       12.084991
  O            7.409933       18.049458       11.608444
  C            7.652365       18.021748       10.266828
  C            6.793764       17.485467        9.314327
  C            7.147927       17.514011        7.974948
  C            8.346400       18.069693        7.570260
  C            9.203238       18.604815        8.520315
  C            8.862847       18.582807        9.856400
  H            6.132093       16.431958       11.852671
  H            6.229483       17.631042       13.165804
  H            5.335447       18.021393       11.675861
  H            5.850906       17.044464        9.598179
  H            6.472091       17.094011        7.244321
  H            8.613246       18.087127        6.524466
  H           10.142973       19.042102        8.217136
  H            9.517357       18.994530       10.608728
  C           20.341623        5.798038       36.996212
  O           20.418288        7.200442       37.064122
  C           20.699966        7.893270       35.923894
  C           20.921534        7.318207       34.677996
  C           21.200390        8.125959       33.587144
  C           21.261785        9.499846       33.719640
  C           21.040780       10.073889       34.962525
  C           20.762339        9.281478       36.056156
  H           21.293002        5.357542       36.680166
  H           20.110119        5.465578       38.007088
  H           19.547171        5.470541       36.317511
  H           20.880612        6.248718       34.541777
  H           21.370707        7.667007       32.624166
  H           21.479719       10.120516       32.863796
  H           21.085899       11.146510       35.079516
  H           20.587832        9.711205       37.030209
  C           12.644672       24.733840       27.907845
  O           12.084178       25.326658       29.053114
  C           12.411967       26.617747       29.344861
  C           13.269300       27.410530       28.590855
  C           13.528584       28.712942       28.986681
  C           12.945496       29.237606       30.124059
  C           12.090099       28.446911       30.876541
  C           11.823635       27.149252       30.493718
  H           13.737189       24.692886       27.969270
  H           12.248469       23.719931       27.876107
  H           12.352410       25.264489       26.995684
  H           13.740240       27.030242       27.697752
  H           14.196658       29.318984       28.392239
  H           13.153815       30.253372       30.424089
  H           11.627892       28.845004       31.767679
  H           11.160810       26.520235       31.067212
  C           24.660944        0.591806       12.107480
  O           25.077543        0.337403       10.788787
  C           26.197731        0.963358       10.327450
  C           26.975768        1.847668       11.065492
  C           28.095968        2.424717       10.488995
  C           28.452710        2.133237        9.186434
  C           27.676678        1.251012        8.449830
  C           26.559448        0.669877        9.011572
  H           24.419868        1.649472       12.256699
  H           23.762173       -0.005530       12.253746
  H           25.419816        0.286650       12.835517
  H           26.723834        2.095749       12.084816
  H           28.692481        3.110394       11.072939
  H           29.327207        2.587932        8.746317
  H           27.944638        1.014773        7.430699
  H           25.944524       -0.018495        8.453085
  C            8.953590       11.433305       27.779400
  O            8.519167       10.228956       28.360818
  C            9.442245        9.257603       28.613552
  C           10.800989        9.360883       28.339329
  C           11.646002        8.304885       28.641000
  C           11.156473        7.146183       29.212542
  C            9.800916        7.042827       29.486252
  C            8.949178        8.086303       29.191001
  H            9.398509       11.266726       26.792819
  H            8.061171       12.048121       27.671770
  H            9.674695       11.952369       28.419419
  H           11.214119       10.252257       27.893446
  H           12.700005        8.397368       28.423068
  H           11.822873        6.329107       29.443827
  H            9.405599        6.142548       29.932863
  H            7.892122        8.022922       29.397182
  C           12.671277       16.325134       16.311377
  O           13.566189       17.318368       15.875665
  C           14.702089       16.932527       15.227336
  C           15.055085       15.615659       14.956594
  C           16.238423       15.343928       14.288720
  C           17.076142       16.366228       13.886201
  C           16.724248       17.680162       14.156168
  C           15.549496       17.964277       14.820027
  H           13.139855       15.650432       17.035431
  H           11.852097       16.856577       16.793567
  H           12.278617       15.740851       15.472643
  H           14.422523       14.795158       15.257726
  H           16.501609       14.316368       14.084214
  H           17.995836       16.144260       13.366501
  H           17.370264       18.488409       13.846913
  H           15.260280       18.980467       15.038222
  C            8.640843       33.296443       21.628606
  O            9.105364       32.653374       22.789601
  C            8.427948       32.847603       23.957015
  C            7.296362       33.642532       24.097194
  C            6.690861       33.764952       25.337583
  C            7.196901       33.106181       26.441592
  C            8.325861       32.313014       26.302069
  C            8.938016       32.182672       25.073349
  H            8.661429       34.385968       21.736098
  H            9.324191       33.000979       20.833791
  H            7.626038       32.976716       21.369786
  H            6.876883       34.169772       23.254525
  H            5.811984       34.385700       25.433592
  H            6.718007       33.207940       27.403622
  H            8.731406       31.792791       27.157137
  H            9.816864       31.569880       24.946829
  C            2.463318       10.376317       30.222340
  O            3.658369        9.712279       29.893505
  C            3.689893        8.351253       29.971534
  C            2.619912        7.551610       30.355932
  C            2.770226        6.174724       30.398034
  C            3.972384        5.582244       30.062363
  C            5.040085        6.379762       29.678813
  C            4.903813        7.751176       29.632697
  H            2.172957       10.191752       31.261892
  H            2.668979       11.437519       30.089872
  H            1.643324       10.081834       29.559065
  H            1.668355        7.983710       30.624010
  H            1.931216        5.564136       30.698393
  H            4.079484        4.508731       30.098326
  H            5.985085        5.929124       29.413973
  H            5.723866        8.386594       29.336634
  C           31.707765       26.262469       29.510631
  O           30.732316       25.672473       30.333813
  C           30.888301       25.749425       31.686300
  C           31.950236       26.373676       32.330237
  C           32.002474       26.388531       33.714878
  C           31.011004       25.789834       34.468165
  C           29.951390       25.166940       33.826018
  C           29.887376       25.144991       32.448740
  H           32.691788       25.806591       29.662017
  H           31.380894       26.080002       28.487960
  H           31.778315       27.341991       29.680036
  H           32.740011       26.850109       31.770502
  H           32.832951       26.876896       34.203528
  H           31.060729       25.806787       35.546328
  H           29.169968       24.695270       34.403207
  H           29.070440       24.664999       31.932873
  C           28.091379       19.163859       29.749852
  O           28.596655       19.418077       28.462493
  C           29.894108       19.819309       28.339595
  C           30.774271       20.001107       29.399932
  C           32.074020       20.412878       29.152386
  C           32.510134       20.646427       27.862367
  C           31.632249       20.465143       26.804262
  C           30.336209       20.055674       27.036835
  H           28.123076       20.059498       30.379034
  H           27.054816       18.862409       29.606114
  H           28.637789       18.353885       30.244242
  H           30.464311       19.827070       30.418594
  H           32.748473       20.550605       29.984922
  H           33.524600       20.966970       27.679866
  H           31.960637       20.644299       25.791195
  H           29.640077       19.909719       26.225667
  C           25.450068       32.692814       34.812500
  O           24.313824       31.872052       34.924411
  C           23.967736       31.090521       33.861911
  C           24.657025       31.036845       32.656071
  C           24.209793       30.202088       31.644466
  C           23.084560       29.419144       31.816927
  C           22.396640       29.472469       33.019862
  C           22.831070       30.298901       34.034631
  H           25.340153       33.424908       34.005654
  H           25.531113       33.216396       35.763967
  H           26.357810       32.103422       34.646171
  H           25.539017       31.635723       32.490321
  H           24.754156       30.169298       30.711962
  H           22.744147       28.772070       31.022818
  H           21.515663       28.865550       33.167407
  H           22.308093       30.352797       34.976695
  C           31.712207        2.425737       13.427363
  O           30.854437        1.608242       12.670290
  C           31.014644        1.573589       11.316552
  C           31.972370        2.291950       10.610316
  C           32.040491        2.176521        9.231107
  C           31.167348        1.354893        8.544492
  C           30.211718        0.638061        9.248805
  C           30.133202        0.743907       10.621432
  H           31.612315        3.480270       13.149831
  H           31.404630        2.296486       14.464033
  H           32.758224        2.120098       13.320234
  H           32.668516        2.941942       11.117195
  H           32.789240        2.739972        8.693643
  H           31.228469        1.271745        7.469994
  H           29.523296       -0.007661        8.724059
  H           29.396112        0.193564       11.185096
  C           30.917658        6.838342        1.292953
  O           31.846386        7.846961        0.980896
  C           31.441755        9.147556        1.045712
  C           30.164908        9.566538        1.400911
  C           29.868615       10.919840        1.431986
  C           30.826987       11.862857        1.113974
  C           32.100978       11.445168        0.759553
  C           32.408928       10.101507        0.724685
  H           30.061278        6.854382        0.610751
  H           31.452955        5.897268        1.175353
  H           30.561042        6.924476        2.324675
  H           29.394540        8.855065        1.654635
  H           28.872645       11.232789        1.709615
  H           30.586341       12.914783        1.141145
  H           32.859165       12.172140        0.508746
  H           33.394731        9.759003        0.451226
  C            1.332093       23.101510       28.711528
  O            1.102452       23.043572       27.325479
  C            1.596598       21.981585       26.627283
  C            2.321279       20.933002       27.181685
  C            2.773924       19.904835       26.370409
  C            2.514797       19.906149       25.013301
  C            1.791819       20.952166       24.459873
  C            1.335609       21.981492       25.256011
  H            2.401928       23.144110       28.941054
  H            0.854912       24.019363       29.051880
  H            0.883701       22.247633       29.230067
  H            2.540116       20.902858       28.237734
  H            3.336051       19.095581       26.813231
  H            2.871736       19.100582       24.389721
  H            1.582502       20.965120       23.400506
  H            0.771803       22.802949       24.842215
  C           20.957591        2.207266       32.644093
  O           20.194707        3.388074       32.674542
  C           20.564448        4.423318       31.867675
  C           21.652065        4.408060       31.002281
  C           21.931419        5.523200       30.228585
  C           21.142080        6.654596       30.304601
  C           20.056905        6.670137       31.167900
  C           19.767911        5.567130       31.943356
  H           21.992975        2.388717       32.950848
  H           20.485184        1.531956       33.355980
  H           20.949086        1.747831       31.650167
  H           22.287558        3.540071       30.919944
  H           22.779487        5.498949       29.559882
  H           21.367954        7.518252       29.697745
  H           19.432035        7.548226       31.236736
  H           18.927797        5.561966       32.620171
  C            4.553558        2.186906       16.099086
  O            5.121219        3.473140       16.074789
  C            6.435617        3.598604       15.734067
  C            7.275803        2.541969       15.402917
  C            8.598125        2.791872       15.072470
  C            9.096129        4.080614       15.067134
  C            8.258141        5.135025       15.397474
  C            6.940235        4.900076       15.728226
  H            5.050645        1.541077       16.830422
  H            3.514336        2.328179       16.392436
  H            4.589106        1.712327       15.112904
  H            6.917274        1.524390       15.397807
  H            9.241044        1.962208       14.816965
  H           10.127730        4.264973       14.808279
  H            8.635009        6.147058       15.397104
  H            6.274486        5.708363       15.987736
  C           15.899063       20.354870       37.363820
  O           16.674986       19.544563       36.516134
  C           16.035277       18.720395       35.638071
  C           14.655481       18.612824       35.509066
  C           14.117542       17.738077       34.578677
  C           14.935184       16.968074       33.774036
  C           16.311832       17.075163       33.902499
  C           16.860033       17.941781       34.824412
  H           15.262501       19.755000       38.022598
  H           16.610209       20.917821       37.966607
  H           15.276122       21.052698       36.794589
  H           13.990166       19.200280       36.122489
  H           13.043674       17.663550       34.487991
  H           14.506461       16.289557       33.052228
  H           16.961990       16.478898       33.279601
  H           17.928617       18.037703       34.937651
  C           14.728842        6.986817       10.249147
  O           15.603859        7.177050        9.164996
  C           15.081630        7.218081        7.906002
  C           13.732310        7.085122        7.599884
  C           13.317414        7.143722        6.279047
  C           14.228283        7.333072        5.257599
  C           15.574557        7.465756        5.562679
  C           16.000680        7.409328        6.872911
  H           14.203338        6.028694       10.179219
  H           15.356540        6.988064       11.139084
  H           13.996481        7.797550       10.322642
  H           12.996355        6.936233        8.374634
  H           12.266038        7.039024        6.054065
  H           13.895134        7.377306        4.231806
  H           16.296708        7.614195        4.773563
  H           17.043979        7.510624        7.128183
  C            4.240465       31.377576       33.216929
  O            4.843165       31.989619       32.103654
  C            6.059511       32.584167       32.266412
  C            6.765612       32.636402       33.462548
  C            7.997062       33.270196       33.507471
  C            8.535883       33.853366       32.376774
  C            7.831661       33.801426       31.183247
  C            6.605211       33.173819       31.124910
  H            4.046293       32.099274       34.017237
  H            3.293884       30.976827       32.857237
  H            4.853961       30.559081       33.607739
  H            6.372059       32.190674       34.362814
  H            8.536051       33.304078       34.443053
  H            9.495926       34.344758       32.422003
  H            8.241726       34.253346       30.292262
  H            6.043887       33.124077       30.204944
  C           21.034385       17.603006       13.741877
  O           20.955558       19.002344       13.628447
  C           21.786165       19.765675       14.394536
  C           22.720834       19.266605       15.294187
  C           23.512527       20.141920       16.020291
  C           23.386438       21.508755       15.862956
  C           22.454021       22.006990       14.965464
  C           21.659957       21.146857       14.236694
  H           20.796243       17.267163       14.756540
  H           20.292285       17.208261       13.049448
  H           22.025057       17.231289       13.460029
  H           22.843491       18.204635       15.439831
  H           24.235244       19.741693       16.716329
  H           24.007840       22.182423       16.433243
  H           22.345543       23.073274       14.833141
  H           20.929628       21.517157       13.534274
  C           17.474558       14.217257        6.808116
  O           16.905838       13.282439        5.924998
  C           16.457764       13.719778        4.713620
  C           16.517554       15.036188        4.271419
  C           16.029116       15.363358        3.016601
  C           15.481360       14.397012        2.194999
  C           15.421559       13.083553        2.635885
  C           15.904066       12.744597        3.882389
  H           16.756790       14.995480        7.087798
  H           17.755608       13.652156        7.695621
  H           18.367431       14.684503        6.379743
  H           16.939240       15.813770        4.889144
  H           16.081298       16.389948        2.684394
  H           15.103538       14.661921        1.219156
  H           14.995842       12.318728        2.003392
  H           15.865511       11.727921        4.241247
  C           23.751374       11.408857       16.320129
  O           22.783319       10.416672       16.556063
  C           22.895153        9.227929       15.897384
  C           23.904444        8.909857       14.996156
  C           23.914925        7.665881       14.385750
  C           22.933397        6.733130       14.660463
  C           21.926298        7.050161       15.559560
  C           21.904204        8.284496       16.173892
  H           23.761830       11.719737       15.270230
  H           23.464594       12.255270       16.942492
  H           24.752425       11.071436       16.608378
  H           24.685135        9.616261       14.760462
  H           24.704665        7.430695       13.687202
  H           22.950320        5.766768       14.179782
  H           21.153186        6.330007       15.782982
  H           21.128357        8.547791       16.875771
  C            4.692602       19.221199        1.587800
  O            4.392007       18.169079        2.470926
  C            4.568453       18.370552        3.807993
  C            5.028925       19.550433        4.380617
  C            5.168606       19.638767        5.756433
  C            4.855852       18.567508        6.570976
  C            4.396421       17.390213        5.999984
  C            4.252889       17.289119        4.632266
  H            5.747802       19.507702        1.647072
  H            4.479537       18.839579        0.590321
  H            4.067124       20.099250        1.779753
  H            5.281543       20.404669        3.771929
  H            5.527422       20.561147        6.189371
  H            4.968063       18.646224        7.641680
  H            4.148498       16.545534        6.625516
  H            3.896881       16.380988        4.171339
  C           20.435885        9.120599        3.519469
  O           19.137861        9.611039        3.291811
  C           18.341659        8.956582        2.398937
  C           18.713138        7.824903        1.682446
  C           17.816349        7.244106        0.800049
  C           16.553424        7.774967        0.620887
  C           16.182499        8.904026        1.335571
  C           17.065359        9.491744        2.216832
  H           21.039330        9.139016        2.605927
  H           20.879158        9.788919        4.256253
  H           20.416877        8.102052        3.921021
  H           19.691882        7.386389        1.799921
  H           18.116961        6.364884        0.249076
  H           15.862009        7.315208       -0.068868
  H           15.198298        9.328831        1.204703
  H           16.793445       10.370288        2.780852
  C           28.544800       10.461395        4.159617
  O           29.947415       10.544855        4.105484
  C           30.680115        9.471034        4.517229
  C           30.146234        8.279702        4.994458
  C           30.992390        7.254339        5.385397
  C           32.364249        7.398767        5.307712
  C           32.897211        8.587224        4.831631
  C           32.066328        9.615434        4.439340
  H           28.189569       10.311020        5.184430
  H           28.177494       11.417201        3.788785
  H           28.164365        9.656419        3.522180
  H           29.079445        8.135850        5.067288
  H           30.565242        6.333340        5.754554
  H           33.015027        6.594127        5.614694
  H           33.967790        8.712853        4.765921
  H           32.463825       10.546559        4.066648
  C           27.545152        6.498341        6.809880
  O           26.739475        7.424416        6.123952
  C           26.863942        7.518195        4.769261
  C           27.736520        6.761008        3.996391
  C           27.775458        6.944250        2.623406
  C           26.956793        7.871930        2.008516
  C           26.086123        8.627526        2.779321
  C           26.037465        8.455045        4.146565
  H           28.610043        6.720473        6.684549
  H           27.278989        6.597028        7.861266
  H           27.347730        5.472351        6.482142
  H           28.388525        6.028615        4.446419
  H           28.457893        6.349665        2.033726
  H           26.994564        8.007264        0.938258
  H           25.440944        9.355984        2.310989
  H           25.366261        9.034203        4.761347
  C           17.689417       24.067470       23.606942
  O           18.863981       24.826882       23.462309
  C           18.780849       26.183158       23.576673
  C           17.610788       26.889869       23.828803
  C           17.648671       28.271755       23.924384
  C           18.836637       28.960584       23.772256
  C           20.004168       28.255798       23.520698
  C           19.980284       26.880516       23.423213
  H           16.947134       24.324569       22.844079
  H           17.991404       23.029037       23.478669
  H           17.247277       24.194879       24.600583
  H           16.667333       26.381305       23.952462
  H           16.732583       28.809561       24.120641
  H           18.855776       30.037160       23.848494
  H           20.939294       28.782256       23.399782
  H           20.878955       26.316446       23.227990
  C           10.473146       18.034627       29.442611
  O           10.534619       16.788971       30.092063
  C           10.828167       15.682194       29.351557
  C           11.076062       15.683059       27.983859
  C           11.364828       14.492546       27.336191
  C           11.410268       13.299838       28.032088
  C           11.162991       13.298637       29.396634
  C           10.874440       14.476377       30.053247
  H            9.693332       18.050037       28.674044
  H           10.228326       18.759862       30.217267
  H           11.433981       18.300498       28.989673
  H           11.048107       16.597664       27.412235
  H           11.555639       14.506365       26.273002
  H           11.636111       12.377671       27.518474
  H           11.195427       12.373137       29.952185
  H           10.679546       14.493743       31.114195
  C           23.361619       26.642409       27.757841
  O           24.005037       27.783208       27.246162
  C           25.001492       28.353842       27.981641
  C           25.441836       27.893365       29.216999
  C           26.465691       28.557219       29.873658
  C           27.057893       29.674420       29.316837
  C           26.618793       30.134086       28.084347
  C           25.600799       29.482699       27.420377
  H           22.862455       26.854243       28.709158
  H           22.615379       26.365790       27.014469
  H           24.062007       25.811600       27.892959
  H           24.999965       27.023890       29.678300
  H           26.798995       28.189529       30.833180
  H           27.854816       30.184625       29.836260
  H           27.073304       31.006227       27.638220
  H           25.246866       29.826542       26.461003
  C            7.240376       12.452496       30.411929
  O            6.964131       13.337718       31.468952
  C            7.976717       13.674540       32.317889
  C            9.282392       13.207254       32.223516
  C           10.229452       13.620372       33.146875
  C            9.894247       14.493248       34.164036
  C            8.591673       14.959635       34.258467
  C            7.639598       14.556373       33.346103
  H            7.574984       11.477165       30.780453
  H            6.300517       12.330588       29.875462
  H            7.994439       12.861056       29.731112
  H            9.575711       12.524940       31.440925
  H           11.240798       13.250121       33.062827
  H           10.639230       14.809176       34.878448
  H            8.316708       15.642265       35.048814
  H            6.621782       14.909246       33.404649
  C           15.264281        4.478733        7.515107
  O           14.173483        4.853121        8.319606
  C           13.062743        4.062090        8.320036
  C           12.916603        2.895770        7.578153
  C           11.737821        2.171847        7.659331
  C           10.701347        2.593470        8.469792
  C           10.846835        3.757055        9.210086
  C           12.014677        4.486767        9.138396
  H           14.992147        4.451749        6.454796
  H           16.023213        5.243897        7.671764
  H           15.667241        3.504496        7.810957
  H           13.707321        2.540058        6.936070
  H           11.636468        1.267095        7.077849
  H            9.786986        2.022543        8.526204
  H           10.044239        4.097491        9.847410
  H           12.144845        5.394103        9.707337
  C           22.491345       22.809708        9.842151
  O           23.321468       23.017055        8.726297
  C           24.671547       22.920711        8.892062
  C           25.306581       22.629415       10.093698
  C           26.689602       22.557478       10.141256
  C           27.450015       22.771772        9.007792
  C           26.816751       23.062418        7.808779
  C           25.441180       23.136968        7.747771
  H           22.686231       23.543713       10.631011
  H           21.472135       22.934455        9.479325
  H           22.608689       21.800008       10.249312
  H           24.741134       22.456998       10.996238
  H           27.171302       22.330309       11.081112
  H           28.526845       22.713507        9.055112
  H           27.399572       23.232017        6.915585
  H           24.932180       23.361933        6.823538
  C           13.497678       10.911967       15.996183
  O           13.103161       10.067328       14.943487
  C           13.496819        8.762100       14.973273
  C           14.269355        8.187004       15.975522
  C           14.608711        6.845702       15.898521
  C           14.189131        6.068141       14.836333
  C           13.418369        6.641610       13.836237
  C           13.073677        7.975213       13.900769
  H           14.587739       10.994582       16.059309
  H           13.076239       11.889097       15.764668
  H           13.103822       10.567516       16.958094
  H           14.612559        8.767265       16.817867
  H           15.209540        6.410448       16.683714
  H           14.458733        5.024150       14.785431
  H           13.084002        6.044803       13.000618
  H           12.474809        8.437517       13.131661
  C           23.842588        2.511545       16.134302
  O           24.925658        2.020970       15.383620
  C           26.135180        2.638877       15.504951
  C           26.390956        3.732756       16.323522
  C           27.664059        4.278349       16.364968
  C           28.687201        3.749396       15.601895
  C           28.432340        2.658047       14.785111
  C           27.169914        2.105596       14.734599
  H           23.606715        3.547937       15.871055
  H           22.995731        1.875157       15.881643
  H           24.035558        2.445613       17.210155
  H           25.613508        4.168757       16.931399
  H           27.850171        5.128378       17.005111
  H           29.675581        4.181553       15.641140
  H           29.223342        2.235154       14.183682
  H           26.954055        1.256637       14.104861
  C           23.358242        6.539355        4.106298
  O           23.108598        5.156789        4.047872
  C           24.171981        4.304036        4.009098
  C           25.505824        4.694836        4.022766
  C           26.504454        3.735120        3.979578
  C           26.193190        2.390206        3.922906
  C           24.862525        1.999982        3.909252
  C           23.859105        2.944870        3.951818
  H           23.908633        6.886772        3.225721
  H           22.379128        7.015612        4.128837
  H           23.912677        6.810608        5.010769
  H           25.781567        5.736988        4.066603
  H           27.537275        4.051549        3.990751
  H           26.978365        1.650216        3.889573
  H           24.605817        0.951940        3.865120
  H           22.818860        2.659058        3.941966
  C           28.107040       24.985097        4.583108
  O           27.726276       24.739797        3.251916
  C           26.712595       23.858659        3.016285
  C           26.012020       23.170625        4.000081
  C           24.997949       22.297755        3.639611
  C           24.671321       22.100160        2.311770
  C           25.370089       22.786452        1.330007
  C           26.381428       23.657957        1.675184
  H           28.465927       24.074285        5.073683
  H           28.919616       25.708171        4.529451
  H           27.283183       25.410265        5.165805
  H           26.243015       23.303025        5.045618
  H           24.460885       21.768946        4.413493
  H           23.879707       21.418033        2.041130
  H           25.124614       22.640956        0.288464
  H           26.935212       24.199962        0.924552
  C           20.140377       20.142432        8.970990
  O           19.420236       21.316249        8.686779
  C           20.019551       22.281551        7.932798
  C           21.305961       22.200164        7.412628
  C           21.810611       23.247271        6.658256
  C           21.051432       24.375555        6.414302
  C           19.767959       24.457063        6.933132
  C           19.253774       23.422127        7.685459
  H           21.050971       20.356488        9.540237
  H           19.475454       19.526951        9.575187
  H           20.403311       19.599980        8.056848
  H           21.923851       21.332724        7.585241
  H           22.811764       23.172019        6.259507
  H           21.453555       25.185935        5.825425
  H           19.164229       25.333489        6.749755
  H           18.257467       23.468818        8.096661
  C           30.619399        2.589982       26.037176
  O           29.625171        1.623688       26.271723
  C           28.357069        2.046231       26.541629
  C           27.958528        3.376330       26.605299
  C           26.637951        3.686097       26.888672
  C           25.707603        2.688875       27.109785
  C           26.104906        1.361751       27.046336
  C           27.415956        1.039852       26.765261
  H           30.765597        3.237052       26.908364
  H           31.534850        2.031685       25.846787
  H           30.383857        3.206229       25.163218
  H           28.660854        4.177968       26.437516
  H           26.340637        4.723592       26.935371
  H           24.681204        2.940423       27.329840
  H           25.387532        0.572812       27.217187
  H           27.742255        0.012919       26.712038
  C           19.267584       24.437870       11.193523
  O           18.138018       23.627619       11.405179
  C           18.317686       22.282945       11.543184
  C           19.546402       21.635184       11.491091
  C           19.605970       20.259362       11.645197
  C           18.457913       19.518665       11.850677
  C           17.231880       20.164630       11.902698
  C           17.158677       21.533227       11.750849
  H           19.786144       24.171695       10.266545
  H           18.889922       25.456231       11.114106
  H           19.969419       24.377333       12.031859
  H           20.460885       22.185159       11.332080
  H           20.566886       19.767623       11.602729
  H           18.514771       18.447301       11.969595
  H           16.327054       19.597253       12.062733
  H           16.213450       22.051899       11.788549
  C            2.727496       24.864216       10.646797
  O            3.573985       25.819019       10.056008
  C            3.611597       25.902983        8.695490
  C            2.869560       25.109096        7.828786
  C            2.990741       25.285778        6.459742
  C            3.841400       26.242964        5.941027
  C            4.581863       27.035176        6.805462
  C            4.470601       26.869610        8.169897
  H            3.003049       23.845687       10.354030
  H            2.859791       24.977121       11.721853
  H            1.677923       25.043545       10.391296
  H            2.196648       24.353057        8.202459
  H            2.408698       24.662544        5.796587
  H            3.928794       26.372899        4.873003
  H            5.250384       27.786944        6.412825
  H            5.039056       27.477071        8.856734
  C           25.043236        2.453878       29.860116
  O           25.751179        2.226998       31.053669
  C           27.109682        2.343954       31.037396
  C           27.866195        2.674663       29.919197
  C           29.245059        2.764481       30.023351
  C           29.881912        2.529350       31.226689
  C           29.127431        2.199382       32.342490
  C           27.754561        2.106684       32.252443
  H           25.332917        1.743468       29.078806
  H           23.992808        2.307285       30.107312
  H           25.188808        3.475368       29.493496
  H           27.398871        2.864153       28.965395
  H           29.821873        3.022297       29.147116
  H           30.956581        2.601810       31.297614
  H           29.612991        2.013165       33.288954
  H           27.152261        1.851157       33.110253
  C           19.325185       33.710591       10.474941
  O           19.394561       33.964694        9.093693
  C           18.240592       33.937348        8.367688
  C           16.979083       33.674503        8.888801
  C           15.875151       33.673691        8.051235
  C           16.009897       33.931227        6.700528
  C           17.268356       34.193499        6.180310
  C           18.375108       34.197355        7.002842
  H           18.939381       32.706700       10.680858
  H           20.348370       33.784129       10.840562
  H           18.703638       34.450596       10.989835
  H           16.840706       33.469719        9.939016
  H           14.900101       33.468001        8.468295
  H           15.143786       33.928307        6.056294
  H           17.387270       34.396326        5.126289
  H           19.361356       34.399375        6.615029
  C            7.353510       18.182937       36.726397
  O            6.786010       19.468083       36.786149
  C            7.616273       20.549113       36.747302
  C            9.001496       20.485093       36.651859
  C            9.743799       21.654786       36.620455
  C            9.125419       22.888725       36.682826
  C            7.743413       22.952938       36.778055
  C            6.992975       21.796528       36.810231
  H            8.022634       17.998401       37.573311
  H            6.516319       17.487938       36.772031
  H            7.901205       18.027646       35.791006
  H            9.514166       19.537117       36.601380
  H           10.819658       21.591772       36.546110
  H            9.712490       23.794214       36.657666
  H            7.247811       23.911150       36.827540
  H            5.917125       21.828015       36.884061
  C           30.878258        9.441406       15.156838
  O           31.725655        8.407360       15.592605
  C           32.102604        7.452418       14.695125
  C           31.711859        7.415587       13.361704
  C           32.159809        6.392487       12.541468
  C           32.992324        5.404431       13.030911
  C           33.382346        5.440891       14.361207
  C           32.943737        6.453451       15.188140
  H           29.916418        9.052993       14.806065
  H           30.713860       10.075104       16.027122
  H           31.342019       10.033791       14.361195
  H           31.062621        8.172215       12.949343
  H           31.849073        6.374958       11.507008
  H           33.335900        4.611615       12.383923
  H           34.032787        4.674621       14.756170
  H           33.237257        6.497252       16.225359
  C           17.209463       32.490668       28.170818
  O           18.469868       32.130942       27.661699
  C           18.619919       30.893540       27.108711
  C           17.612632       29.941388       27.004643
  C           17.883610       28.714063       26.421183
  C           19.144946       28.421212       25.939352
  C           20.150124       29.370949       26.043032
  C           19.893753       30.596178       26.621446
  H           16.900161       31.827836       28.985698
  H           17.324177       33.503109       28.555261
  H           16.442974       32.486002       27.388823
  H           16.617439       30.139492       27.371223
  H           17.092332       27.982472       26.346181
  H           19.346060       27.462219       25.486493
  H           21.140330       29.154546       25.670338
  H           20.663795       31.346539       26.710266
  C           16.066515       24.948979       33.920761
  O           14.731843       25.390781       33.894552
  C           13.932662       25.112757       34.963891
  C           14.334861       24.416582       36.097747
  C           13.431527       24.193290       37.124542
  C           12.131855       24.654009       37.038043
  C           11.730273       25.348607       35.906939
  C           12.619250       25.577592       34.877978
  H           16.128270       23.857624       33.985371
  H           16.505253       25.278477       32.980052
  H           16.621596       25.393508       34.753420
  H           15.342638       24.043955       36.195581
  H           13.756254       23.650940       38.000545
  H           11.435639       24.474976       37.843292
  H           10.717206       25.714026       35.826914
  H           12.323823       26.116015       33.991006
  C           10.192469        3.361124       25.306468
  O            9.833695        4.701028       25.075891
  C           10.258675        5.300631       23.927265
  C           11.030735        4.686499       22.948073
  C           11.403832        5.398231       21.819171
  C           11.018500        6.714389       21.651432
  C           10.248223        7.327390       22.628180
  C            9.870157        6.630424       23.756354
  H           11.279180        3.239308       25.363605
  H            9.750601        3.098024       26.266429
  H            9.793537        2.698317       24.531495
  H           11.347664        3.660192       23.049489
  H           12.003916        4.909764       21.065334
  H           11.314234        7.260340       20.768440
  H            9.940437        8.355662       22.509166
  H            9.271144        7.091632       24.526007
  C           17.210963        5.969028       14.361246
  O           18.542083        6.170546       13.955368
  C           18.925340        7.423663       13.578161
  C           18.094804        8.538102       13.561232
  C           18.597385        9.764676       13.157363
  C           19.916859        9.897265       12.769678
  C           20.745733        8.785591       12.786453
  C           20.258189        7.559220       13.186188
  H           16.505175        6.200595       13.556707
  H           17.135447        4.911968       14.612076
  H           16.963975        6.568171       15.243894
  H           17.059942        8.467398       13.858043
  H           17.941873       10.623278       13.148574
  H           20.298915       10.857093       12.456694
  H           21.779039        8.875790       12.485817
  H           20.888881        6.684144       13.205314
  C            0.932965        8.751401        8.868968
  O            1.718259        9.240648        9.927824
  C            3.027931        8.866709        9.994176
  C            3.662396        8.027224        9.086008
  C            5.002019        7.716359        9.256177
  C            5.719544        8.230265       10.319167
  C            5.086835        9.067838       11.225413
  C            3.754204        9.385122       11.067619
  H            0.866709        7.658569        8.888249
  H           -0.059636        9.174078        9.017570
  H            1.321097        9.074059        7.897224
  H            3.129820        7.609830        8.245662
  H            5.483753        7.062823        8.543580
  H            6.762753        7.982148       10.443058
  H            5.636382        9.476159       12.060584
  H            3.246297       10.035012       11.763012
  C           28.267964       15.125647        9.960434
  O           27.842818       15.727646       11.157962
  C           26.542364       15.573898       11.538296
  C           25.585145       14.858879       10.827993
  C           24.290553       14.771299       11.314349
  C           23.935339       15.386406       12.499405
  C           24.890113       16.099850       13.208303
  C           26.181946       16.194798       12.735413
  H           27.720554       15.516893        9.096540
  H           29.322801       15.377649        9.861406
  H           28.158631       14.036697        9.996162
  H           25.830929       14.367341        9.899544
  H           23.555740       14.212703       10.753108
  H           22.924197       15.312328       12.869944
  H           24.625376       16.585285       14.135939
  H           26.937220       16.745651       13.273946
  C            1.819804       27.939145        3.774239
  O            3.106230       28.505090        3.819415
  C            3.307221       29.714099        3.221607
  C            2.328786       30.446501        2.559563
  C            2.651415       31.667199        1.988608
  C            3.936102       32.169404        2.067724
  C            4.912505       31.438936        2.728167
  C            4.604702       30.222816        3.300692
  H            1.498698       27.750645        2.744481
  H            1.895028       26.991809        4.306114
  H            1.081939       28.575924        4.273350
  H            1.316489       30.081756        2.480500
  H            1.882146       32.226890        1.476805
  H            4.177477       33.121348        1.619688
  H            5.920503       31.820289        2.797091
  H            5.351788       29.641442        3.818150
  C            0.823400       15.584187        6.237351
  O            0.478855       14.953535        5.028718
  C            1.343529       14.040796        4.500779
  C            2.558738       13.675546        5.068151
  C            3.356547       12.733564        4.438587
  C            2.960842       12.149517        3.250649
  C            1.748497       12.513709        2.684329
  C            0.945124       13.449837        3.300552
  H            1.748301       16.162315        6.140557
  H           -0.000389       16.259672        6.463374
  H            0.931444       14.860994        7.052435
  H            2.895935       14.113250        5.994838
  H            4.298743       12.458124        4.889553
  H            3.589425       11.416668        2.767938
  H            1.427617       12.064673        1.756083
  H           -0.000903       13.744817        2.874035
  C            7.827695       26.590022        2.728102
  O            8.372144       26.306355        3.993145
  C            8.396894       25.010102        4.415745
  C            7.920201       23.926701        3.687008
  C            7.998687       22.650355        4.220827
  C            8.545799       22.437431        5.471516
  C            9.021477       23.518120        6.198823
  C            8.949370       24.793369        5.679193
  H            6.772985       26.301542        2.669704
  H            7.912320       27.668791        2.605256
  H            8.384999       26.090697        1.928646
  H            7.487425       24.059869        2.707719
  H            7.624768       21.816592        3.644637
  H            8.602438       21.439321        5.878656
  H            9.451436       23.365231        7.177598
  H            9.314540       25.645344        6.231176
  C           18.715978       15.985868       37.031536
  O           18.155929       15.233314       35.984047
  C           18.652821       15.399053       34.725038
  C           19.685220       16.265442       34.385077
  C           20.107346       16.349444       33.067908
  C           19.515214       15.581977       32.083395
  C           18.485174       14.717494       32.422246
  C           18.055579       14.624328       33.729243
  H           18.590350       17.061103       36.866823
  H           18.171933       15.693963       37.928643
  H           19.779369       15.761270       37.164951
  H           20.167959       16.878017       35.130564
  H           20.910625       17.026539       32.816400
  H           19.851199       15.654601       31.060148
  H           18.013954       14.112114       31.662176
  H           17.255739       13.957197       34.010469
  C           19.052468       31.902739        5.917197
  O           19.846356       32.291269        7.010821
  C           21.088944       32.796997        6.766513
  C           21.645869       32.963294        5.503885
  C           22.921772       33.489153        5.378482
  C           23.651720       33.852155        6.493962
  C           23.096366       33.686366        7.753815
  C           21.827672       33.164212        7.892541
  H           19.525581       31.100857        5.340835
  H           18.120227       31.536108        6.344400
  H           18.838347       32.747819        5.254601
  H           21.101613       32.689562        4.613440
  H           23.343528       33.613490        4.391753
  H           24.644894       34.260939        6.385812
  H           23.656436       33.966145        8.633749
  H           21.380325       33.028439        8.864828
  C            4.835369       11.741353       32.680232
  O            5.962559       10.981989       32.319625
  C            5.820000        9.633719       32.173618
  C            4.631986        8.935271       32.354845
  C            4.607902        7.561096       32.178083
  C            5.751478        6.871867       31.822995
  C            6.936907        7.568410       31.642113
  C            6.974534        8.935967       31.814875
  H            4.440477       11.437817       33.655409
  H            5.180098       12.772792       32.737580
  H            4.042401       11.666864       31.928769
  H            3.722070        9.444371       32.632166
  H            3.678447        7.029671       32.321860
  H            5.722461        5.801336       31.687653
  H            7.837794        7.041547       31.364519
  H            7.887942        9.493570       31.678273
  C           28.370213       28.236186        3.435398
  O           29.394237       28.355982        4.391563
  C           29.501100       29.523075        5.088663
  C           28.667112       30.623653        4.929784
  C           28.872783       31.759208        5.696854
  C           29.898405       31.814299        6.620951
  C           30.730642       30.716432        6.779700
  C           30.536865       29.580266        6.022699
  H           28.474552       28.979649        2.638266
  H           28.476571       27.238431        3.012116
  H           27.379573       28.330952        3.892230
  H           27.857481       30.611990        4.216762
  H           28.217846       32.607967        5.564049
  H           30.050442       32.703501        7.213740
  H           31.535973       30.746655        7.498567
  H           31.174709       28.717222        6.133186
  C           32.409762       19.856459        5.923275
  O           31.895218       19.423111        7.158054
  C           30.680590       18.803573        7.176139
  C           29.894925       18.560529        6.055554
  C           28.673983       17.920609        6.196921
  C           28.223884       17.518852        7.439858
  C           29.007497       17.761190        8.558051
  C           30.224477       18.397073        8.431218
  H           31.757390       20.600140        5.453814
  H           33.372061       20.313919        6.148450
  H           32.560392       19.019341        5.233647
  H           30.218235       18.861846        5.071321
  H           28.072612       17.737471        5.318408
  H           27.271287       17.021047        7.539586
  H           28.667181       17.452212        9.535270
  H           30.846789       18.593558        9.290298
  C            1.818616        7.264818       12.010145
  O            3.141710        6.929359       11.672336
  C            3.452434        5.615104       11.483495
  C            2.554035        4.560811       11.599237
  C            2.985981        3.261937       11.383528
  C            4.301442        2.997850       11.053815
  C            5.198014        4.049487       10.938266
  C            4.781135        5.346685       11.150317
  H            1.518302        6.811369       12.960534
  H            1.804988        8.349231       12.109419
  H            1.114618        6.965008       11.226854
  H            1.520364        4.734021       11.855280
  H            2.278141        2.451202       11.476488
  H            4.628193        1.982544       10.887734
  H            6.228979        3.856566       10.681107
  H            5.465053        6.176630       11.064633
  C           33.286700       31.971494       25.968054
  O           31.985979       32.469182       26.162110
  C           31.650785       32.953719       27.391884
  C           32.503146       32.997304       28.488985
  C           32.049888       33.513722       29.692336
  C           30.758343       33.987883       29.818716
  C           29.907703       33.944536       28.724336
  C           30.346199       33.433149       27.521141
  H           33.493537       31.118805       26.623175
  H           33.326106       31.644709       24.929954
  H           34.042941       32.746325       26.131701
  H           33.517199       32.634924       28.422561
  H           32.721936       33.542130       30.537627
  H           30.414684       34.388283       30.760403
  H           28.895819       34.311967       28.809916
  H           29.697985       33.391828       26.659743
  C           23.686526       21.718322       35.854475
  O           23.015318       22.504821       34.901520
  C           23.349288       23.822436       34.792755
  C           24.315189       24.464034       35.559201
  C           24.569315       25.811421       35.358829
  C           23.874355       26.529710       34.404899
  C           22.910621       25.889887       33.640062
  C           22.647998       24.549491       33.829382
  H           23.521295       22.089404       36.871353
  H           23.263332       20.718999       35.763629
  H           24.762283       21.674461       35.654807
  H           24.874930       23.931071       36.311980
  H           25.322409       26.298652       35.960849
  H           24.079628       27.578995       34.256374
  H           22.360368       26.439946       32.891132
  H           21.901809       24.035986       33.243370
  C           22.291304       11.042699       29.453704
  O           23.112433       11.632895       30.430762
  C           24.350906       11.104534       30.646386
  C           24.878422       10.011658       29.968596
  C           26.153101        9.562270       30.274253
  C           26.910730       10.186552       31.246447
  C           26.384719       11.276927       31.922853
  C           25.117577       11.734194       31.628348
  H           22.064915        9.998858       29.694925
  H           21.367994       11.620183       29.455736
  H           22.747420       11.094426       28.459558
  H           24.312123        9.502585       29.204275
  H           26.551855        8.711962       29.740452
  H           27.902701        9.828923       31.477296
  H           26.966602       11.773780       32.684949
  H           24.692850       12.580925       32.144632
  C           25.332007        4.381704       13.239202
  O           26.712751        4.629154       13.336882
  C           27.156366        5.468227       14.315982
  C           26.342677        6.110626       15.241878
  C           26.908344        6.943217       16.194241
  C           28.274416        7.145342       16.237625
  C           29.086499        6.504575       15.314006
  C           28.536349        5.673447       14.361097
  H           24.771641        5.300252       13.035973
  H           25.213365        3.695854       12.401630
  H           24.941665        3.912441       14.148305
  H           25.272550        5.973485       15.234339
  H           26.265319        7.436757       16.908320
  H           28.705486        7.795871       16.983404
  H           30.155773        6.654105       15.337131
  H           29.153139        5.167125       13.635077
  C           24.721137       26.032046        4.748911
  O           25.578768       26.723895        5.622432
  C           25.028687       27.434584        6.648009
  C           23.666506       27.533701        6.906253
  C           23.223054       28.287312        7.981242
  C           24.117974       28.944352        8.803620
  C           25.477072       28.845666        8.546240
  C           25.931596       28.098983        7.479775
  H           24.042058       26.714318        4.226989
  H           25.369812       25.545260        4.022100
  H           24.136154       25.271857        5.277067
  H           22.942423       27.032629        6.282821
  H           22.161928       28.356560        8.171473
  H           23.762594       29.528964        9.638563
  H           26.186995       29.354374        9.181429
  H           26.985211       28.011394        7.265019
  C           24.248194        3.029862        1.075240
  O           23.499985        2.177694        1.906636
  C           22.146575        2.134390        1.745762
  C           21.432501        2.875766        0.811679
  C           20.054498        2.748528        0.740269
  C           19.376794        1.892456        1.586879
  C           20.088928        1.152655        2.518916
  C           21.460454        1.269916        2.600412
  H           23.960006        4.077781        1.208869
  H           25.286307        2.901414        1.378252
  H           24.143562        2.756742        0.020014
  H           21.932329        3.552811        0.136536
  H           19.510887        3.330122        0.010059
  H           18.303162        1.800362        1.523416
  H           19.571186        0.479943        3.186480
  H           22.030124        0.702063        3.319380
  C           31.255583        0.692465       22.443819
  O           30.869014        2.008788       22.135459
  C           29.553939        2.257021       21.873864
  C           28.545955        1.300022       21.886926
  C           27.241159        1.671133       21.604144
  C           26.925627        2.983288       21.308204
  C           27.931055        3.938314       21.295088
  C           29.233572        3.582299       21.574686
  H           31.044939        0.006624       21.616598
  H           32.330735        0.732197       22.612529
  H           30.760889        0.329447       23.350758
  H           28.759899        0.267258       22.114219
  H           26.466730        0.918104       21.617488
  H           25.906137        3.262404       21.089276
  H           27.697688        4.967380       21.065301
  H           30.028018        4.312176       21.568929
  C           31.975921       12.743917       14.426282
  O           30.755808       12.458422       15.064282
  C           29.793439       13.424125       15.091385
  C           29.920590       14.689688       14.530818
  C           28.871656       15.590685       14.620953
  C           27.696561       15.248790       15.262164
  C           27.569390       13.986230       15.821541
  C           28.605602       13.080191       15.738885
  H           32.494157       13.581577       14.904613
  H           32.579786       11.843261       14.527078
  H           31.832496       12.965485       13.363559
  H           30.825197       14.987021       14.023555
  H           28.982742       16.571147       14.181267
  H           26.885163       15.957742       15.327091
  H           26.656121       13.706532       16.325474
  H           28.523768       12.093902       16.168343
  C           29.873165       29.355939       27.688530
  O           28.795286       29.837779       26.924833
  C           29.064948       30.515564       25.772720
  C           30.339359       30.774315       25.281829
  C           30.490750       31.475168       24.096052
  C           29.389706       31.922488       23.391427
  C           28.118104       31.664499       23.880918
  C           27.953531       30.968154       25.059686
  H           30.515386       30.171120       28.037923
  H           29.426850       28.856951       28.547488
  H           30.475620       28.635642       27.125268
  H           31.219062       30.438494       25.808503
  H           31.486413       31.669925       23.724979
  H           29.518090       32.467626       22.468639
  H           27.249237       32.008657       23.339747
  H           26.971794       30.758678       25.454919
  C           11.950916        6.844589        1.704135
  O           12.430924        5.578821        2.084462
  C           13.751721        5.450497        2.398311
  C           14.679427        6.485279        2.373061
  C           15.999110        6.234679        2.713380
  C           16.408451        4.966719        3.078902
  C           15.483133        3.934111        3.104192
  C           14.166821        4.170003        2.767814
  H           12.446277        7.207396        0.797475
  H           10.888988        6.709818        1.503785
  H           12.076737        7.580398        2.505258
  H           14.391318        7.486317        2.092073
  H           16.710550        7.047250        2.689862
  H           17.438772        4.781629        3.342295
  H           15.790206        2.938451        3.388107
  H           13.433848        3.378521        2.782064
  C           14.841638       10.727109       22.047162
  O           13.450263       10.671733       22.242697
  C           12.967595        9.933321       23.282530
  C           13.750567        9.218149       24.181159
  C           13.146239        8.501743       25.201811
  C           11.771651        8.487463       25.340363
  C           10.990207        9.200878       24.443972
  C           11.578961        9.917912       23.423823
  H           15.260082        9.735060       21.847696
  H           14.992377       11.362377       21.175551
  H           15.352149       11.169395       22.909024
  H           14.826370        9.209227       24.099886
  H           13.765652        7.949969       25.893796
  H           11.310366        7.926297       26.138802
  H            9.914676        9.197936       24.541254
  H           10.986364       10.478404       22.717725
  C           14.930033        9.766609       12.300896
  O           13.821788       10.399721       12.890971
  C           13.800708       11.762248       12.941459
  C           14.801433       12.591985       12.449384
  C           14.669883       13.967211       12.557221
  C           13.554584       14.528451       13.148835
  C           12.555996       13.700904       13.639876
  C           12.674509       12.330782       13.538912
  H           15.857609        9.998356       12.834692
  H           14.732164        8.698056       12.371875
  H           15.038822       10.044534       11.247346
  H           15.684461       12.184676       11.982055
  H           15.454487       14.601369       12.170940
  H           13.461414       15.600942       13.228072
  H           11.679184       14.126958       14.104545
  H           11.907400       11.672262       13.915463
  C            2.937966       27.187161       25.028780
  O            4.087530       27.549074       24.304385
  C            5.300543       27.108947       24.745251
  C            5.498586       26.318278       25.871161
  C            6.781723       25.930907       26.222848
  C            7.871655       26.320239       25.468288
  C            7.674404       27.109084       24.344923
  C            6.402723       27.501487       23.983926
  H            2.970786       27.570343       26.054030
  H            2.101027       27.642867       24.501655
  H            2.801882       26.100887       25.051841
  H            4.668319       25.997765       26.481049
  H            6.922544       25.316419       27.100085
  H            8.867303       26.013283       25.750526
  H            8.517890       27.420188       23.746604
  H            6.231082       28.115021       23.113287
  C           19.389137       22.501189        4.576613
  O           19.593387       21.200199        4.083729
  C           19.281506       20.143110        4.886704
  C           18.769399       20.246596        6.174760
  C           18.489659       19.098361        6.898281
  C           18.712948       17.847114        6.356603
  C           19.223866       17.743529        5.071548
  C           19.506556       18.878252        4.340820
  H           19.995117       22.693859        5.468078
  H           19.701861       23.172148        3.777857
  H           18.334570       22.682939        4.808776
  H           18.583949       21.208939        6.625914
  H           18.091981       19.192022        7.898306
  H           18.491792       16.958591        6.928278
  H           19.402958       16.771438        4.636571
  H           19.904372       18.816110        3.339932
  C           13.497788       11.230421       31.964439
  O           13.726015        9.850928       31.815654
  C           14.425044        9.420140       30.726959
  C           14.939847       10.245987       29.734485
  C           15.635698        9.692796       28.671493
  C           15.826342        8.327263       28.582794
  C           15.312851        7.503053       29.572812
  C           14.618479        8.040719       30.635938
  H           12.911996       11.633801       31.131867
  H           12.930743       11.338087       32.887944
  H           14.436865       11.787023       32.050294
  H           14.807964       11.316038       29.774923
  H           16.030893       10.345197       27.906532
  H           16.369842        7.905964       27.750742
  H           15.454922        6.434060       29.515281
  H           14.212288        7.414397       31.414800
  C           17.122776       26.668318        8.176502
  O           16.023932       26.284056        7.387762
  C           15.149448       25.367110        7.891707
  C           15.255905       24.770139        9.142444
  C           14.303749       23.848846        9.548401
  C           13.245882       23.513270        8.725480
  C           13.139389       24.108684        7.477572
  C           14.080100       25.027034        7.061437
  H           17.774607       25.817533        8.400837
  H           17.673413       27.395599        7.581646
  H           16.802172       27.136348        9.113094
  H           16.070044       25.010874        9.808221
  H           14.397571       23.391836       10.522727
  H           12.509268       22.794430        9.050846
  H           12.317320       23.855085        6.824786
  H           14.012706       25.499787        6.094039
  C            6.639543        1.699775        6.493618
  O            5.385600        1.233990        6.060146
  C            4.873838        1.728211        4.896824
  C            5.499807        2.670864        4.089595
  C            4.881269        3.099876        2.926177
  C            3.646774        2.602847        2.554862
  C            3.021988        1.662363        3.360010
  C            3.626622        1.227000        4.520333
  H            6.625876        2.778684        6.680198
  H            6.842567        1.176441        7.426836
  H            7.427773        1.466860        5.770094
  H            6.463823        3.078184        4.351893
  H            5.377970        3.832846        2.307296
  H            3.173114        2.943381        1.646634
  H            2.056948        1.265963        3.081073
  H            3.154904        0.496031        5.158348
  C           26.679623       10.768862       26.304015
  O           25.428345       10.131940       26.380566
  C           25.349516        8.924557       27.009443
  C           26.422291        8.259330       27.591402
  C           26.220791        7.033077       28.204495
  C           24.964644        6.459284       28.246277
  C           23.894141        7.122719       27.665753
  C           24.081018        8.343554       27.052472
  H           27.405622       10.165040       25.749607
  H           26.504369       11.700938       25.768744
  H           27.078848       10.993191       27.298670
  H           27.415326        8.680836       27.575533
  H           27.062552        6.526017       28.653159
  H           24.817918        5.503624       28.726258
  H           22.907216        6.685051       27.691549
  H           23.259593        8.873384       26.595922
  C           15.533666       19.520681       30.188707
  O           14.642536       18.645472       29.542858
  C           14.629105       17.334930       29.919385
  C           15.437433       16.782525       30.906049
  C           15.335043       15.433041       31.203690
  C           14.438039       14.624986       30.531886
  C           13.631438       15.175809       29.547446
  C           13.723341       16.517243       29.241534
  H           16.575364       19.219602       30.036192
  H           15.371476       20.496502       29.733227
  H           15.328178       19.584643       31.262359
  H           16.147725       17.386801       31.448611
  H           15.968758       15.015635       31.972552
  H           14.365776       13.574854       30.771046
  H           12.926204       14.555080       29.014924
  H           13.103656       16.962231       28.478728
  C            1.052204       30.262619       30.658170
  O            1.293995       29.883309       29.325922
  C            2.550697       30.042776       28.821200
  C            3.631695       30.558258       29.526730
  C            4.865764       30.673691       28.907107
  C            5.038724       30.282592       27.593327
  C            3.960421       29.768264       26.889154
  C            2.727024       29.648081       27.493937
  H            1.235682       31.331084       30.812318
  H           -0.000132       30.049047       30.839749
  H            1.664074       29.684852       31.358773
  H            3.529105       30.872480       30.553753
  H            5.698113       31.075825       29.466083
  H            6.004066       30.376501       27.119521
  H            4.082327       29.458923       25.861687
  H            1.877536       29.250162       26.961089
  C           10.995657       32.299756       35.874533
  O           10.335832       32.057387       34.656701
  C            9.250036       31.232451       34.657184
  C            8.732118       30.600035       35.781400
  C            7.620609       29.781563       35.659611
  C            7.016900       29.583762       34.432703
  C            7.533381       30.214572       33.310893
  C            8.638991       31.031616       33.418316
  H           11.399220       31.377091       36.304498
  H           11.816865       32.974230       35.636420
  H           10.333580       32.779840       36.602693
  H            9.180656       30.734138       36.753442
  H            7.227565       29.295679       36.540749
  H            6.151404       28.944257       34.348171
  H            7.070825       30.068283       32.346071
  H            9.053871       31.530052       32.556149
  C           15.084421       25.919620       12.118951
  O           14.970879       26.628776       10.910054
  C           13.816271       27.310045       10.660599
  C           12.722878       27.362656       11.517205
  C           11.599970       28.089690       11.155706
  C           11.550479       28.765833        9.951849
  C           12.641180       28.713540        9.096999
  C           13.764752       27.993689        9.444672
  H           14.324509       25.135255       12.198630
  H           16.072473       25.461980       12.101265
  H           15.010342       26.585588       12.985001
  H           12.730446       26.845645       12.464136
  H           10.756693       28.122837       11.830063
  H           10.671136       29.329455        9.679303
  H           12.615221       29.237598        8.153109
  H           14.622082       27.942241        8.791805
  C           25.397481        8.742038       35.791395
  O           25.629754        7.673737       34.907083
  C           25.068431        7.722372       33.665300
  C           24.271609        8.758581       33.192650
  C           23.754558        8.698158       31.908442
  C           24.020112        7.619189       31.087347
  C           24.815056        6.585212       31.558608
  C           25.335820        6.632949       32.834539
  H           24.331824        8.853475       36.017230
  H           25.933950        8.490985       36.705270
  H           25.784389        9.685852       35.393199
  H           24.045839        9.614737       33.809140
  H           23.136686        9.509745       31.552730
  H           23.612655        7.581425       30.088473
  H           25.030182        5.736185       30.926854
  H           25.956044        5.837489       33.217244
  C           12.863746       32.407567       22.788750
  O           12.049702       31.444324       23.410619
  C           12.359591       30.126427       23.247554
  C           13.432300       29.647621       22.504526
  C           13.648905       28.282218       22.409979
  C           12.811400       27.385887       23.045641
  C           11.741079       27.863267       23.787028
  C           11.514334       29.219594       23.889192
  H           12.859173       32.296064       21.699443
  H           12.433740       33.372637       23.052810
  H           13.894988       32.359644       23.153836
  H           14.104314       30.321632       21.996448
  H           14.485999       27.922585       21.829540
  H           12.988540       26.324066       22.965925
  H           11.079002       27.173202       24.288729
  H           10.686627       29.608259       24.461674
  C           17.453329       29.444481        4.428532
  O           17.464931       30.725496        3.848797
  C           18.472306       31.040536        2.985421
  C           19.506977       30.185444        2.624414
  C           20.477914       30.617322        1.735063
  C           20.432980       31.890147        1.199538
  C           19.400832       32.743505        1.559512
  C           18.428284       32.326192        2.443522
  H           18.348362       29.268476        5.034323
  H           16.574197       29.418861        5.070765
  H           17.369089       28.659700        3.669542
  H           19.570183       29.185670        3.025029
  H           21.276913       29.943373        1.462363
  H           21.194094       32.217221        0.507494
  H           19.354190       33.740894        1.148077
  H           17.618387       32.976828        2.734444
  C           33.434230       28.707417       11.755991
  O           32.261981       29.387934       12.130096
  C           31.361572       28.744604       12.926880
  C           31.508854       27.449081       13.408521
  C           30.524377       26.898081       14.213124
  C           29.394026       27.619815       14.545235
  C           29.246785       28.912369       14.064865
  C           30.218996       29.472513       13.263293
  H           33.208992       27.804865       11.178312
  H           33.993240       29.403116       11.131888
  H           34.039312       28.438202       12.628024
  H           32.379710       26.859651       13.167239
  H           30.650505       25.890307       14.581166
  H           28.632733       27.181710       15.172684
  H           28.368005       29.487148       14.317086
  H           30.120714       30.476527       12.880941
  C           11.556372       29.500015        5.452743
  O           12.104678       30.777702        5.662751
  C           12.689310       31.416687        4.609481
  C           12.790067       30.900828        3.322707
  C           13.407917       31.644229        2.329833
  C           13.927432       32.895501        2.600595
  C           13.827071       33.410449        3.884296
  C           13.214675       32.681012        4.881474
  H           12.319020       28.781976        5.133635
  H           11.151859       29.190328        6.415270
  H           10.749429       29.524693        4.712961
  H           12.394497       29.927007        3.079329
  H           13.479947       31.232320        1.333784
  H           14.406897       33.466842        1.820288
  H           14.229047       34.387253        4.109041
  H           13.127882       33.066212        5.885458
  C            1.986954       21.431149       11.897513
  O            1.248743       22.257621       11.031940
  C            1.406148       22.097623        9.686913
  C            2.250654       21.168993        9.089832
  C            2.328074       21.097932        7.708116
  C            1.575525       21.939531        6.911705
  C            0.732876       22.866127        7.507100
  C            0.646476       22.947215        8.880939
  H            3.064975       21.571839       11.766673
  H            1.705139       21.732434       12.905383
  H            1.739135       20.374258       11.753945
  H            2.851182       20.497843        9.683937
  H            2.988117       20.371985        7.256102
  H            1.642860       21.876386        5.836217
  H            0.139321       23.529742        6.895915
  H           -0.003737       23.661987        9.360751
  C            5.522230       19.976685       25.091308
  O            6.894578       19.940522       24.787040
  C            7.720581       20.838458       25.396060
  C            7.311449       21.803634       26.308802
  C            8.244387       22.664420       26.864548
  C            9.580512       22.577517       26.523798
  C            9.989019       21.614681       25.613193
  C            9.070835       20.751910       25.052801
  H            5.073635       20.936621       24.815028
  H            5.067385       19.183982       24.499082
  H            5.340045       19.783670       26.153662
  H            6.275527       21.897091       26.595454
  H            7.913908       23.410249       27.572710
  H           10.299600       23.252701       26.962243
  H           11.030450       21.536264       25.338397
  H            9.371141       19.997092       24.342899
  C           25.628116       16.050991        1.622451
  O           24.839014       15.959578        2.782705
  C           24.488338       14.722239        3.236018
  C           24.852549       13.522577        2.635841
  C           24.435750       12.322246        3.188711
  C           23.660500       12.299695        4.332114
  C           23.296960       13.496413        4.931143
  C           23.705060       14.697812        4.391173
  H           25.120824       15.615821        0.755085
  H           25.780934       17.115739        1.452297
  H           26.599476       15.563650        1.756622
  H           25.457139       13.506536        1.742392
  H           24.725377       11.396661        2.712918
  H           23.340825       11.359452        4.755134
  H           22.691253       13.492567        5.825204
  H           23.431458       15.637988        4.844061
  C           26.653584       19.069461        3.550632
  O           26.625097       17.668057        3.662347
  C           26.039534       17.114163        4.762252
  C           25.458173       17.832477        5.800565
  C           24.891603       17.158574        6.870629
  C           24.895807       15.777886        6.921352
  C           25.475747       15.060940        5.885597
  C           26.042997       15.719273        4.814943
  H           27.212873       19.527726        4.372966
  H           27.160338       19.280559        2.610083
  H           25.643692       19.491581        3.519401
  H           25.438796       18.911162        5.790521
  H           24.442894       17.728155        7.671384
  H           24.451868       15.262144        7.759281
  H           25.485627       13.981411        5.913140
  H           26.498382       15.177423        4.000745
  C           12.687104       17.020704       10.629836
  O           12.043828       16.719882        9.416194
  C           11.877052       17.718322        8.502533
  C           12.297544       19.031999        8.674261
  C           12.072420       19.962972        7.672867
  C           11.433744       19.603797        6.501552
  C           11.014099       18.293236        6.329915
  C           11.231925       17.356982        7.318578
  H           12.136502       17.775279       11.201236
  H           12.707484       16.088417       11.192346
  H           13.713168       17.366633       10.466834
  H           12.798971       19.343920        9.577207
  H           12.403975       20.980758        7.818313
  H           11.263032       20.336389        5.727367
  H           10.513728       17.999581        5.419072
  H           10.912166       16.333261        7.201766
  C           10.059664        6.192617        7.776176
  O            9.441894        6.780951        6.658388
  C            9.000316        5.968994        5.655787
  C            9.112113        4.583544        5.646770
  C            8.624997        3.860955        4.569382
  C            8.027446        4.499294        3.499640
  C            7.915756        5.881532        3.508332
  C            8.396351        6.612470        4.574275
  H           10.967287        5.648488        7.494770
  H           10.325426        7.017854        8.435226
  H            9.379103        5.515055        8.302284
  H            9.573427        4.055563        6.466807
  H            8.717865        2.784701        4.574218
  H            7.651098        3.927491        2.665015
  H            7.450811        6.392624        2.678361
  H            8.317810        7.688196        4.597523
  C           11.763907       25.727576        9.320493
  O           12.024718       25.402750       10.663508
  C           11.021802       24.855258       11.407743
  C            9.740399       24.586843       10.940826
  C            8.801101       24.027175       11.792103
  C            9.120219       23.730697       13.103269
  C           10.398573       23.998374       13.569413
  C           11.342688       24.555161       12.732688
  H           10.969140       26.475865        9.234171
  H           12.692303       26.143180        8.931458
  H           11.492555       24.841457        8.737221
  H            9.460091       24.806726        9.922438
  H            7.808664       23.823295       11.417304
  H            8.381460       23.294834       13.758596
  H           10.660779       23.771377       14.592135
  H           12.341731       24.769929       13.078641
  C           12.773788       23.094455       16.337267
  O           11.766853       24.066885       16.470266
  C           12.131469       25.380106       16.514747
  C           13.438955       25.845583       16.438190
  C           13.688877       27.207408       16.494358
  C           12.653967       28.113257       16.625837
  C           11.349389       27.649176       16.702246
  C           11.086957       26.296544       16.647569
  H           13.470808       23.118416       17.181443
  H           12.258241       22.135270       16.324290
  H           13.331466       23.217371       15.402959
  H           14.268865       25.163903       16.335244
  H           14.709337       27.556649       16.433826
  H           12.858961       29.172190       16.668675
  H           10.531463       28.346778       16.805140
  H           10.078309       25.918177       16.705558
  C           19.569734        6.349282        6.291584
  O           19.568957        7.731322        6.550798
  C           19.063439        8.170903        7.738524
  C           18.539567        7.351832        8.731868
  C           18.052844        7.913745        9.901285
  C           18.080479        9.281349       10.095675
  C           18.603074       10.098801        9.104817
  C           19.090665        9.552427        7.936397
  H           18.553862        5.940668        6.282523
  H           20.011893        6.234419        5.303001
  H           20.173932        5.802667        7.023158
  H           18.503819        6.280382        8.610409
  H           17.648243        7.266551       10.665751
  H           17.698895        9.709463       11.010173
  H           18.630479       11.169324        9.244350
  H           19.500655       10.173410        7.155254
  C           32.728548       23.149405       14.484251
  O           31.438340       22.791416       14.913705
  C           31.152102       21.469081       15.083917
  C           32.045565       20.427191       14.864280
  C           31.640491       19.118276       15.071255
  C           30.356785       18.831945       15.494342
  C           29.465146       19.871203       15.713559
  C           29.855497       21.178189       15.511354
  H           32.956225       22.728933       13.499157
  H           32.727173       24.236491       14.419162
  H           33.493894       22.831445       15.199926
  H           33.054749       20.617802       14.533750
  H           32.344173       18.317359       14.897085
  H           30.050807       17.808969       15.652751
  H           28.458876       19.660881       16.044354
  H           29.174965       21.998755       15.677019
  C            7.510812       26.611750       14.383892
  O            7.111188       25.279165       14.588207
  C            6.524445       24.609535       13.555346
  C            6.284306       25.144248       12.295003
  C            5.679350       24.365836       11.321203
  C            5.309740       23.060981       11.585084
  C            5.549184       22.527210       12.842417
  C            6.150444       23.291065       13.820418
  H            6.658999       27.254477       14.138212
  H            7.946192       26.937536       15.327450
  H            8.263853       26.689571       13.592743
  H            6.561055       26.159681       12.057636
  H            5.498100       24.792887       10.345628
  H            4.839047       22.462685       10.819783
  H            5.265114       21.508614       13.061521
  H            6.344162       22.891904       14.803800
  C           23.571629       32.517874       25.472322
  O           24.282975       32.626368       24.264248
  C           24.588406       31.484960       23.583532
  C           24.248990       30.200390       23.991853
  C           24.614427       29.112478       23.215268
  C           25.313886       29.285928       22.036470
  C           25.652670       30.567403       21.628817
  C           25.295094       31.658574       22.392333
  H           24.128486       31.939630       26.217029
  H           23.443221       33.537708       25.832106
  H           22.587714       32.061823       25.320756
  H           23.703207       30.031693       24.907112
  H           24.344772       28.119203       23.543387
  H           25.593992       28.432025       21.438486
  H           26.199284       30.716612       20.709475
  H           25.550418       32.662303       22.090283
  C           18.941995       13.818384       12.840485
  O           19.888098       14.762211       12.403098
  C           20.398572       14.637666       11.144775
  C           20.055319       13.637535       10.242574
  C           20.641714       13.612390        8.987309
  C           21.566151       14.570235        8.617390
  C           21.908826       15.568187        9.517278
  C           21.332706       15.604681       10.769567
  H           19.359197       12.806047       12.853115
  H           18.680009       14.111576       13.856061
  H           18.041834       13.831859       12.217130
  H           19.336914       12.875261       10.501163
  H           20.366616       12.829981        8.295118
  H           22.017378       14.542036        7.637189
  H           22.630057       16.322815        9.240505
  H           21.587632       16.373707       11.481963
  C           27.156049       32.793279       10.677039
  O           26.053147       32.487138        9.860271
  C           26.247795       31.679516        8.778914
  C           27.467454       31.123917        8.410413
  C           27.544119       30.315705        7.287427
  C           26.422080       30.052672        6.525369
  C           25.205090       30.606838        6.892751
  C           25.115079       31.412840        8.007978
  H           27.933925       33.326133       10.120246
  H           26.770479       33.440129       11.463751
  H           27.585445       31.892619       11.128120
  H           28.361734       31.310176        8.984527
  H           28.497758       29.889824        7.011441
  H           26.492102       29.421781        5.652289
  H           24.320556       30.409060        6.305620
  H           24.176554       31.852086        8.308196
  C            3.722896       16.580103       26.395760
  O            2.662606       17.271821       25.783766
  C            2.308921       16.928685       24.512295
  C            2.920248       15.934347       23.757561
  C            2.473323       15.673456       22.472114
  C            1.425026       16.389594       21.927035
  C            0.814901       17.381701       22.679766
  C            1.249934       17.651347       23.960201
  H            4.660367       16.711478       25.845367
  H            3.825391       17.015321       27.388773
  H            3.504868       15.511226       26.490680
  H            3.741079       15.357577       24.154561
  H            2.956671       14.898184       21.895661
  H            1.084167       16.178833       20.924742
  H           -0.005488       17.948710       22.265398
  H            0.786871       18.419493       24.559718
  C           21.804691        3.637784       24.688160
  O           23.061404        3.219886       24.215658
  C           24.146266        4.006961       24.466781
  C           24.112454        5.209328       25.163360
  C           25.282981        5.925071       25.357680
  C           26.488063        5.459828       24.867559
  C           26.522132        4.260275       24.172546
  C           25.364546        3.538237       23.972216
  H           21.508285        4.596641       24.250233
  H           21.100793        2.867572       24.376237
  H           21.791421        3.718301       25.780124
  H           23.187446        5.599490       25.558544
  H           25.243599        6.858123       25.900666
  H           27.394461        6.024731       25.024158
  H           27.457607        3.885583       23.784305
  H           25.372802        2.603323       23.433919
  C           31.357322       20.428840       22.695843
  O           30.003904       20.051574       22.639683
  C           29.534605       19.169575       23.567751
  C           30.296429       18.602415       24.582642
  C           29.708780       17.715468       25.470435
  C           28.371677       17.384975       25.361703
  C           27.611341       17.950651       24.349265
  C           28.183840       18.834678       23.459200
  H           32.021149       19.568346       22.561949
  H           31.503767       21.126910       21.872893
  H           31.597278       20.928442       23.640227
  H           31.342900       18.840082       24.694219
  H           30.311458       17.281409       26.254872
  H           27.923127       16.692999       26.058242
  H           26.565138       17.700656       24.253342
  H           27.607245       19.283999       22.665761
  C           26.965773       20.622417       26.101584
  O           27.660434       21.006362       27.262299
  C           28.801771       21.739933       27.125566
  C           29.345185       22.146898       25.912664
  C           30.513654       22.891635       25.897557
  C           31.149327       23.237212       27.074581
  C           30.607424       22.831339       28.284846
  C           29.445169       22.089858       28.313882
  H           27.580490       19.986245       25.456253
  H           26.102750       20.055542       26.447762
  H           26.621780       21.492020       25.531933
  H           28.872844       21.893215       24.976408
  H           30.926022       23.201898       24.948525
  H           32.059164       23.817639       27.052300
  H           31.094495       23.094859       29.211971
  H           29.009834       21.765806       29.246282
  C           21.915493       15.065545        2.601680
  O           21.462266       14.702109        3.882198
  C           20.529300       13.713079        3.986447
  C           19.979340       13.022095        2.913071
  C           19.035703       12.033494        3.141977
  C           18.631549       11.722938        4.426153
  C           19.180047       12.412144        5.497263
  C           20.119957       13.398174        5.283280
  H           21.098864       15.443361        1.977647
  H           22.643330       15.859935        2.760398
  H           22.401861       14.226395        2.093431
  H           20.273967       13.241033        1.898528
  H           18.615729       11.503655        2.299444
  H           17.895810       10.951137        4.594102
  H           18.872700       12.179031        6.505943
  H           20.556918       13.944201        6.104752
  C           13.328597       33.493973       28.514051
  O           13.174680       33.122888       29.861579
  C           12.196783       32.228605       30.183218
  C           11.324020       31.643002       29.273601
  C           10.367176       30.744844       29.718508
  C           10.267081       30.421255       31.057972
  C           11.137678       31.005335       31.965740
  C           12.094403       31.900668       31.536170
  H           12.427136       33.978135       28.124179
  H           14.154162       34.203971       28.495643
  H           13.578605       32.633046       27.885287
  H           11.376523       31.874861       28.221212
  H            9.694728       30.296475       29.001745
  H            9.518296       29.720431       31.394664
  H           11.069940       30.760911       33.015459
  H           12.779653       32.364336       32.228514
  C           31.700868       26.489756        0.575133
  O           32.577596       27.565253        0.347359
  C           32.156833       28.825103        0.655924
  C           30.911225       29.140093        1.186295
  C           30.594181       30.460883        1.460481
  C           31.501075       31.473565        1.213680
  C           32.743888       31.159632        0.684536
  C           33.072003       29.849343        0.407128
  H           30.784361       26.585061       -0.016453
  H           32.240132       25.597382        0.260719
  H           31.440652       26.399808        1.634963
  H           30.181200       28.372311        1.390282
  H           29.622888       30.692809        1.872514
  H           31.244628       32.499399        1.430693
  H           33.461774       31.941845        0.486991
  H           34.034111       29.587254       -0.004641
  C            7.552590       12.314507       22.755123
  O            8.666174       13.142303       22.527279
  C            9.799865       12.923171       23.252675
  C            9.948793       11.931955       24.215671
  C           11.151960       11.804101       24.891116
  C           12.210105       12.650358       24.620803
  C           12.061839       13.639387       23.660090
  C           10.869842       13.777386       22.980700
  H            7.193742       12.397005       23.786367
  H            6.778037       12.667789       22.075966
  H            7.777662       11.266309       22.532264
  H            9.141536       11.255495       24.449707
  H           11.255227       11.029802       25.637285
  H           13.143380       12.542674       25.152402
  H           12.881219       14.307328       23.439381
  H           10.737159       14.541119       22.230364
  C           19.262481        8.570787       22.431498
  O           19.337654        7.198922       22.730765
  C           18.250314        6.593335       23.287929
  C           17.052600        7.230752       23.589974
  C           16.013391        6.510050       24.156380
  C           16.150230        5.162024       24.426549
  C           17.345052        4.525787       24.125323
  C           18.387033        5.231358       23.561480
  H           19.092468        9.170624       23.331684
  H           20.228498        8.832875       22.002411
  H           18.473992        8.781085       21.701360
  H           16.914390        8.282143       23.391198
  H           15.087551        7.016838       24.386502
  H           15.334809        4.609326       24.867921
  H           17.464865        3.472524       24.331526
  H           19.323273        4.752391       23.320768
  C           27.399717       26.186908       22.392136
  O           26.877735       26.836120       23.524957
  C           27.567456       26.753722       24.698401
  C           28.764832       26.069172       24.870832
  C           29.376410       26.055025       26.114196
  C           28.811790       26.713699       27.189483
  C           27.617184       27.396757       27.017779
  C           26.998253       27.418704       25.785742
  H           27.475666       25.105564       22.546958
  H           26.694386       26.385728       21.586547
  H           28.382653       26.583845       22.117688
  H           29.231059       25.545073       24.051082
  H           30.306706       25.519464       26.235412
  H           29.295964       26.696772       28.154099
  H           27.165435       27.915649       27.850193
  H           26.068750       27.945025       25.634389
  C            9.220931       13.790965        2.129915
  O            9.664017       12.566920        1.598301
  C           10.875434       12.084156        1.996900
  C           11.723702       12.712632        2.901062
  C           12.934381       12.125006        3.231419
  C           13.312671       10.918993        2.673458
  C           12.466588       10.291716        1.771351
  C           11.259034       10.865742        1.434031
  H            9.899273       14.611038        1.872281
  H            8.247493       13.974438        1.677421
  H            9.109642       13.740704        3.218094
  H           11.457196       13.654877        3.354035
  H           13.584858       12.623328        3.935355
  H           14.257863       10.469298        2.937241
  H           12.750471        9.348751        1.328105
  H           10.588765       10.391630        0.734136
  C           30.216558        5.958005        9.257074
  O           30.369942        5.230077        8.063835
  C           29.318220        4.487785        7.613994
  C           28.085299        4.389162        8.248211
  C           27.088230        3.601505        7.695372
  C           27.301860        2.909893        6.518544
  C           28.531823        3.008077        5.885548
  C           29.532526        3.788435        6.425092
  H           30.010725        5.299146       10.107122
  H           31.166677        6.465400        9.417753
  H           29.418594        6.703299        9.174413
  H           27.887228        4.916757        9.168237
  H           26.134373        3.533020        8.197804
  H           26.518773        2.298913        6.095844
  H           28.711622        2.472537        4.965163
  H           30.495184        3.876160        5.946042
  C           10.087394       27.301749       28.460706
  O            8.785764       27.544585       27.987402
  C            7.784123       27.718300       28.896255
  C            7.945738       27.674494       30.276115
  C            6.850818       27.866107       31.103530
  C            5.595811       28.100992       30.575630
  C            5.434237       28.144755       29.199000
  C            6.515541       27.955705       28.364425
  H           10.136892       26.378442       29.047304
  H           10.709717       27.197173       27.573141
  H           10.458156       28.135904       29.065491
  H            8.912580       27.493165       30.719255
  H            6.989382       27.829709       32.174252
  H            4.749094       28.249036       31.228583
  H            4.458567       28.327513       28.773668
  H            6.407916       27.986468       27.291407
  C           28.400838       30.246358       36.895740
  O           29.343308       29.762109       35.971361
  C           30.204228       30.648224       35.394222
  C           30.227984       32.014590       35.648251
  C           31.151385       32.819018       34.999861
  C           32.052479       32.281367       34.101055
  C           32.029034       30.918195       33.847392
  C           31.115257       30.106518       34.485879
  H           27.721443       30.971536       36.435759
  H           27.831549       29.376548       37.220294
  H           28.886595       30.704424       37.763646
  H           29.537677       32.464832       36.344523
  H           31.159782       33.879433       35.205819
  H           32.767955       32.916395       33.601028
  H           32.727972       30.485450       33.147065
  H           31.083012       29.044220       34.300465
  C            0.713639       14.102013       29.140278
  O            0.787811       14.439364       27.777223
  C            1.198719       13.486986       26.892010
  C            1.556691       12.187405       27.231122
  C            1.959704       11.304439       26.242116
  C            2.011325       11.697821       24.918682
  C            1.654246       12.994331       24.580026
  C            1.251396       13.882929       25.554490
  H            1.692749       13.815398       29.538070
  H            0.368581       15.001120       29.648742
  H           -0.000751       13.290984       29.316126
  H            1.527054       11.849646       28.255367
  H            2.235399       10.297156       26.518417
  H            2.326620       11.002538       24.155553
  H            1.690230       13.314369       23.549240
  H            0.970176       14.895090       25.308847
  C            8.820004       17.477329       32.441511
  O            8.429200       18.453794       31.508231
  C            8.142896       18.059733       30.234567
  C            8.206400       16.749806       29.774014
  C            7.891547       16.468477       28.454202
  C            7.513921       17.474345       27.585572
  C            7.450469       18.781350       28.044750
  C            7.761209       19.074880       29.355763
  H            9.743533       16.974724       32.135690
  H            8.994208       18.012688       33.373732
  H            8.034445       16.730183       32.595503
  H            8.497731       15.942098       30.427292
  H            7.944720       15.446455       28.108351
  H            7.270587       17.245002       26.559226
  H            7.156726       19.576769       27.375972
  H            7.717174       20.085881       29.729709
  C           11.444826       24.837613        4.190776
  O           10.588096       24.582325        3.105387
  C           10.330276       23.285961        2.770061
  C           10.853256       22.176257        3.423592
  C           10.519052       20.902653        2.991825
  C            9.670439       20.718327        1.917223
  C            9.148502       21.825261        1.264988
  C            9.473048       23.098103        1.684533
  H           12.447648       24.434139        4.015846
  H           11.503173       25.922019        4.272331
  H           11.046141       24.426209        5.123964
  H           11.518513       22.286766        4.265766
  H           10.932017       20.048277        3.508034
  H            9.416124       19.722112        1.588477
  H            8.484064       21.694862        0.423704
  H            9.076177       23.970251        1.188803
  C            5.308197       29.868107       11.607784
  O            5.399097       29.763631       10.208482
  C            6.464517       29.102431        9.672600
  C            7.486251       28.512697       10.407667
  C            8.521027       27.865686        9.751315
  C            8.552718       27.797587        8.371732
  C            7.533496       28.385860        7.638075
  C            6.497944       29.032786        8.278851
  H            6.160510       30.412831       12.027167
  H            4.393757       30.426207       11.803534
  H            5.238643       28.883314       12.081481
  H            7.490340       28.548529       11.485969
  H            9.309197       27.411312       10.333812
  H            9.363169       27.291265        7.869732
  H            7.546459       28.339731        6.559213
  H            5.697023       29.495825        7.723860
  C           20.401988       26.990871       12.953480
  O           19.776301       27.459989       11.784862
  C           18.487638       27.898236       11.867098
  C           17.727700       27.920146       13.030741
  C           16.424328       28.389132       12.992594
  C           15.866420       28.837114       11.810671
  C           16.624339       28.815383       10.649543
  C           17.922566       28.351169       10.673763
  H           19.881718       26.120755       13.367319
  H           21.407369       26.699010       12.653444
  H           20.465780       27.772522       13.717676
  H           18.134394       27.577238       13.969384
  H           15.844001       28.401101       13.903663
  H           14.850198       29.200585       11.791272
  H           16.200075       29.162746        9.719178
  H           18.526354       28.327225        9.780027
  C           12.233331        4.780220        5.105966
  O           12.251027        3.409259        4.793913
  C           11.498913        2.970420        3.744523
  C           10.702097        3.780039        2.943491
  C            9.979836        3.219953        1.901942
  C           10.039941        1.863469        1.646543
  C           10.834821        1.055449        2.445543
  C           11.558596        1.600124        3.485232
  H           11.227840        5.118562        5.377178
  H           12.894849        4.896597        5.963196
  H           12.608416        5.387181        4.275331
  H           10.633868        4.842700        3.117075
  H            9.364234        3.859731        1.286564
  H            9.473527        1.436687        0.832769
  H           10.890527       -0.006339        2.256482
  H           12.181923        0.986378        4.116639
  C           26.500832       22.220145       22.301269
  O           25.378350       21.585558       22.862126
  C           24.253270       22.324729       23.079601
  C           24.121488       23.677326       22.787769
  C           22.925718       24.325201       23.053426
  C           21.858125       23.644354       23.606221
  C           21.989283       22.294877       23.897496
  C           23.173765       21.638234       23.638078
  H           26.868496       23.028443       22.941987
  H           27.266114       21.449558       22.220443
  H           26.282429       22.618132       21.304800
  H           24.936468       24.236990       22.355772
  H           22.835788       25.376570       22.822111
  H           20.930729       24.157997       23.809452
  H           21.162377       21.751176       24.329763
  H           23.293157       20.588889       23.858341
  C           18.687586       25.190592       30.590738
  O           18.218023       25.865419       31.731503
  C           17.861166       27.176091       31.612059
  C           17.924127       27.913526       30.435507
  C           17.533447       29.243019       30.435039
  C           17.080443       29.849195       31.590992
  C           17.017511       29.113738       32.764991
  C           17.403271       27.789931       32.779122
  H           19.600848       25.650057       30.198453
  H           18.908148       24.175546       30.917892
  H           17.929607       25.158844       29.801115
  H           18.273244       27.469194       29.516418
  H           17.587032       29.805447       29.514292
  H           16.778370       30.885455       31.580367
  H           16.665285       29.575713       33.675351
  H           17.360802       27.203042       33.683364
  C           14.239944       28.534065       25.437323
  O           13.051298       29.184081       25.813921
  C           13.006098       30.545595       25.752990
  C           14.055980       31.358681       25.342272
  C           13.893141       32.734629       25.321417
  C           12.698200       33.312955       25.704230
  C           11.650552       32.502022       26.114053
  C           11.799449       31.131381       26.139455
  H           15.079403       28.827873       26.076094
  H           14.047488       27.469698       25.564121
  H           14.493605       28.733033       24.390848
  H           15.001445       30.937808       25.037315
  H           14.716559       33.355748       25.000226
  H           12.581221       34.385858       25.684491
  H           10.711381       32.941524       26.415774
  H           10.995034       30.485646       26.455429
  C           17.108908       32.312153       35.609211
  O           15.847176       31.693680       35.661656
  C           15.791611       30.336657       35.783625
  C           16.898172       29.499125       35.861798
  C           16.718019       28.130667       35.984484
  C           15.450034       27.583867       36.030472
  C           14.345824       28.419195       35.952501
  C           14.511191       29.782711       35.830222
  H           17.688232       31.972553       34.744284
  H           16.911262       33.378748       35.512750
  H           17.683721       32.132652       36.523767
  H           17.901223       29.895144       35.828706
  H           17.585985       27.490334       36.044306
  H           15.320139       26.516553       36.126188
  H           13.349329       28.004434       35.987294
  H           13.663476       30.447120       35.768282
  C            5.104648       13.856045       13.541671
  O            6.356392       14.486173       13.657005
  C            6.415446       15.714255       14.246751
  C            5.321720       16.407232       14.752316
  C            5.504229       17.652731       15.331631
  C            6.761957       18.218516       15.414684
  C            7.853361       17.527397       14.910378
  C            7.685514       16.287201       14.331401
  H            4.411801       14.445308       12.931937
  H            5.297295       12.904533       13.048209
  H            4.655696       13.669621       14.522860
  H            4.326891       15.992638       14.702678
  H            4.646282       18.181295       15.720883
  H            6.893790       19.189326       15.867834
  H            8.841750       17.958536       14.969069
  H            8.523328       15.735752       13.934074
  C            4.933856        4.114517       34.504529
  O            6.325236        4.299263       34.589127
  C            7.103683        3.234732       34.935924
  C            6.627641        1.959580       35.217746
  C            7.516709        0.953329       35.560088
  C            8.874679        1.199275       35.625815
  C            9.349939        2.471374       35.344704
  C            8.475932        3.481651       35.002759
  H            4.508289        3.813457       35.467493
  H            4.524334        5.081965       34.217599
  H            4.671756        3.371514       33.744073
  H            5.573109        1.735555       35.175176
  H            7.134351       -0.033476       35.776858
  H            9.559201        0.408707       35.893450
  H           10.409082        2.676730       35.392500
  H            8.828326        4.476905       34.780982
  C           22.880324       30.376266       28.015407
  O           21.759872       29.846117       28.679302
  C           21.509615       30.248739       29.957871
  C           22.283782       31.155723       30.672082
  C           21.930384       31.490100       31.969573
  C           20.815666       30.933390       32.566540
  C           20.043082       30.028467       31.854247
  C           20.383697       29.687138       30.562369
  H           23.812021       30.120896       28.530937
  H           22.880586       29.920537       27.026314
  H           22.809637       31.464067       27.911801
  H           23.160069       31.607816       30.234168
  H           22.540136       32.196200       32.514180
  H           20.548675       31.200311       33.577808
  H           19.169299       29.586160       32.309339
  H           19.794068       28.985013       29.993814
  C           19.460949       25.172447       34.713320
  O           20.310859       26.283187       34.858698
  C           21.382104       26.178404       35.695912
  C           21.709526       25.044769       36.430567
  C           22.826108       25.055399       37.251123
  C           23.622132       26.180280       37.350521
  C           23.295736       27.311458       36.617694
  C           22.187320       27.314111       35.797401
  H           18.992699       24.896501       35.663920
  H           18.689572       25.480912       34.009174
  H           19.995137       24.306989       34.307525
  H           21.108225       24.150700       36.374761
  H           23.070017       24.168117       37.816994
  H           24.489897       26.178626       37.992531
  H           23.909689       28.197219       36.686463
  H           21.918768       28.185201       35.220358
  C            5.972540        7.462532       13.738844
  O            6.909459        6.448261       13.473020
  C            6.471126        5.158933       13.402517
  C            5.151748        4.756858       13.574639
  C            4.823830        3.413835       13.480079
  C            5.792346        2.464491       13.216234
  C            7.108769        2.865314       13.044461
  C            7.448498        4.198609       13.136008
  H            5.492243        7.321919       14.712798
  H            6.538915        8.392649       13.748629
  H            5.204565        7.515535       12.960095
  H            4.372420        5.473651       13.781741
  H            3.794925        3.114003       13.615823
  H            5.526832        1.420676       13.144486
  H            7.875311        2.133240       12.837771
  H            8.467468        4.527964       13.005159
  C            7.039477        7.347661       26.769025
  O            7.126166        6.330273       25.802260
  C            7.110402        6.680909       24.484581
  C            7.014048        7.983532       24.009250
  C            7.007578        8.218947       22.643702
  C            7.095807        7.174294       21.743811
  C            7.191947        5.874564       22.217724
  C            7.199466        5.626540       23.574153
  H            6.101170        7.905607       26.683471
  H            7.070207        6.842308       27.733217
  H            7.882495        8.042941       26.698678
  H            6.943716        8.820778       24.686087
  H            6.932245        9.235761       22.286790
  H            7.089957        7.368009       20.681909
  H            7.261504        5.049133       21.524857
  H            7.273615        4.621849       23.960150
  C            2.105913       26.082990       22.184931
  O            1.305955       27.195708       22.499816
  C            1.860397       28.439141       22.422730
  C            3.173889       28.702750       22.052190
  C            3.627329       30.011475       22.009588
  C            2.790263       31.062578       22.331137
  C            1.479751       30.799910       22.700862
  C            1.015913       29.502154       22.747313
  H            2.965415       26.001390       22.858460
  H            1.464674       25.212246       22.313819
  H            2.459208       26.121168       21.149186
  H            3.852256       27.904079       21.795327
  H            4.650241       30.203324       21.720080
  H            3.152955       32.078618       22.294903
  H            0.815276       31.612520       22.954589
  H           -0.000433       29.279736       23.032736
  C            5.397701        6.132283        4.178044
  O            6.190780        6.953121        4.999309
  C            6.505924        6.512317        6.250649
  C            6.101162        5.297487        6.791394
  C            6.484161        4.955537        8.078469
  C            7.265430        5.807245        8.835505
  C            7.669419        7.019343        8.296299
  C            7.295228        7.371740        7.016740
  H            4.412608        5.951348        4.620649
  H            5.276776        6.678159        3.243491
  H            5.885930        5.173289        3.975545
  H            5.490831        4.610633        6.225916
  H            6.163173        4.008605        8.487440
  H            7.558573        5.531773        9.837193
  H            8.280255        7.694058        8.877572
  H            7.600504        8.310573        6.581659
  C           22.672011        4.862524        6.830645
  O           23.809023        5.044917        7.637592
  C           23.714881        5.871042        8.718392
  C           22.568047        6.560033        9.095373
  C           22.591559        7.373629       10.216841
  C           23.742309        7.510940       10.969046
  C           24.886660        6.823676       10.593199
  C           24.876723        6.010799        9.479374
  H           22.342146        5.804750        6.380709
  H           22.976294        4.175305        6.042523
  H           21.844178        4.420866        7.395157
  H           21.653775        6.473886        8.529050
  H           21.693806        7.903841       10.499480
  H           23.750518        8.147161       11.841027
  H           25.792645        6.922384       11.172586
  H           25.757762        5.468956        9.172660
  C           31.094463       23.840869       11.365527
  O           30.386312       24.093031       10.177183
  C           30.366896       25.365817        9.688193
  C           31.000168       26.453939       10.277268
  C           30.910391       27.704531        9.687232
  C           30.198076       27.887032        8.517535
  C           29.566151       26.801626        7.929574
  C           29.647608       25.551801        8.506441
  H           30.686453       24.411556       12.206293
  H           30.973250       22.776477       11.561414
  H           32.159826       24.068798       11.255557
  H           31.563975       26.344230       11.190571
  H           31.406971       28.542272       10.154746
  H           30.134059       28.865233        8.065630
  H           29.006216       26.930855        7.015237
  H           29.162268       24.696588        8.062648
  C           19.076726       19.030279       30.919491
  O           18.158940       19.333053       31.940874
  C           18.534232       20.210974       32.914467
  C           19.770538       20.842631       32.982338
  C           20.039687       21.718182       34.022123
  C           19.093986       21.973871       34.996373
  C           17.860440       21.343831       34.928945
  C           17.579815       20.470329       33.899519
  H           19.985236       18.567337       31.318660
  H           18.569232       18.321263       30.267002
  H           19.346876       19.921578       30.343602
  H           20.530063       20.664118       32.237159
  H           21.004229       22.202841       34.063759
  H           19.313251       22.657585       35.802384
  H           17.112547       21.535045       35.684150
  H           16.625581       19.971609       33.831610
  C           17.942358       30.789339       12.355361
  O           17.965561       30.528810       10.973763
  C           19.165858       30.550392       10.327006
  C           20.390019       30.813185       10.930678
  C           21.547844       30.807803       10.169367
  C           21.503761       30.544118        8.813854
  C           20.282585       30.281896        8.211276
  C           19.122951       30.284167        8.957412
  H           18.315746       31.793423       12.582165
  H           16.896707       30.719590       12.651578
  H           18.526105       30.050548       12.914352
  H           20.457837       31.022684       11.986873
  H           22.493072       31.013521       10.650196
  H           22.411293       30.542239        8.229406
  H           20.234446       30.074298        7.152586
  H           18.164591       30.082282        8.504993
  C           15.911219       33.736020       14.198933
  O           15.607860       33.985546       12.848771
  C           14.322374       33.813601       12.427542
  C           13.268316       33.404924       13.236242
  C           12.000357       33.264451       12.695197
  C           11.766990       33.525503       11.358678
  C           12.818402       33.933250       10.551580
  C           14.085012       34.076965       11.077430
  H           15.709930       32.694655       14.471119
  H           16.976723       33.935178       14.303963
  H           15.352209       34.399885       14.866640
  H           13.417976       33.193391       14.283568
  H           11.189465       32.946177       13.334045
  H           10.775632       33.413129       10.946638
  H           12.649315       34.140465        9.505296
  H           14.914309       34.393178       10.464102
  C           27.836571       15.699481       32.584324
  O           28.380694       15.972059       31.316705
  C           29.634211       16.504296       31.246776
  C           30.432938       16.805101       32.343865
  C           31.694292       17.344832       32.149293
  C           32.172010       17.589514       30.876184
  C           31.375374       17.289517       29.781422
  C           30.118263       16.752078       29.961163
  H           27.741561       16.609465       33.185943
  H           26.846032       15.286993       32.398096
  H           28.436917       14.964582       33.130723
  H           30.088812       16.625835       33.350581
  H           32.305438       17.574279       33.010004
  H           33.156026       18.010213       30.735037
  H           31.736971       17.475958       28.781058
  H           29.485300       16.512723       29.120947
  C           23.975767       28.267368       14.103991
  O           24.957154       29.165265       13.648045
  C           25.954672       28.689341       12.849341
  C           26.084276       27.366959       12.441225
  C           27.143078       26.998938       11.626559
  C           28.075689       27.930257       11.212106
  C           27.946668       29.249664       11.619109
  C           26.897712       29.629102       12.429782
  H           24.411543       27.471978       14.717585
  H           23.294539       28.859023       14.713800
  H           23.420814       27.820911       13.272278
  H           25.372741       26.616070       12.747690
  H           27.232815       25.968125       11.316166
  H           28.896969       27.633653       10.577503
  H           28.668860       29.987377       11.302158
  H           26.782070       30.650987       12.755780
  C           17.047637       26.118299       15.818170
  O           16.294545       25.176901       15.094396
  C           16.570368       23.852388       15.264873
  C           17.551489       23.346561       16.109616
  C           17.741413       21.976982       16.201075
  C           16.967217       21.103029       15.462348
  C           15.988281       21.607371       14.619463
  C           15.788996       22.968143       14.519171
  H           18.111573       26.063298       15.565073
  H           16.659312       27.093420       15.527762
  H           16.924655       25.987712       16.898385
  H           18.172412       24.002662       16.699551
  H           18.507127       21.596249       16.861148
  H           17.122889       20.037739       15.540562
  H           15.376374       20.934978       14.036628
  H           15.032084       23.377639       13.868560
  C           23.379135        3.940950       10.266023
  O           22.123837        4.114637        9.656690
  C           21.030082        4.279842       10.454112
  C           21.053357        4.291012       11.843855
  C           19.874412        4.467491       12.550343
  C           18.671258        4.633192       11.891665
  C           18.647700        4.622094       10.505139
  C           19.813736        4.447377        9.790080
  H           23.402847        3.041530       10.890141
  H           24.091095        3.830323        9.449403
  H           23.656491        4.810014       10.871701
  H           21.976593        4.164262       12.387551
  H           19.905640        4.474284       13.630134
  H           17.758248        4.769992       12.451033
  H           17.713841        4.750542        9.978217
  H           19.813705        4.436117        8.711299
  C            9.662225       20.935615       32.236370
  O           10.998393       20.831325       31.810924
  C           11.987074       21.208387       32.671044
  C           11.780142       21.695906       33.956172
  C           12.866055       22.048420       34.741480
  C           14.156587       21.922155       34.264535
  C           14.363377       21.435796       32.982417
  C           13.291509       21.081398       32.190599
  H            9.392885       21.971494       32.467571
  H            9.057984       20.585340       31.400790
  H            9.467895       20.306500       33.111294
  H           10.784800       21.806273       34.357607
  H           12.692126       22.426054       35.738532
  H           14.995932       22.199464       34.884046
  H           15.367128       21.332273       32.597702
  H           13.434099       20.701379       31.191024
  C           26.503095       25.755659        8.934945
  O           25.808624       26.639495        9.779794
  C           24.445873       26.650359        9.732205
  C           23.672520       25.846103        8.903260
  C           22.290918       25.945284        8.942262
  C           21.667877       26.835072        9.796069
  C           22.439160       27.637611       10.623224
  C           23.814934       27.548837       10.594270
  H           26.304517       25.968052        7.879247
  H           27.559867       25.918647        9.141491
  H           26.250148       24.711920        9.148652
  H           24.128786       25.141458        8.225518
  H           21.700957       25.314792        8.293112
  H           20.590939       26.904882        9.819051
  H           21.964508       28.337202       11.295175
  H           24.430217       28.165443       11.230761
  C           30.252366       10.626525       10.669568
  O           29.846409       11.898603       11.110297
  C           30.786653       12.879907       11.221909
  C           32.136948       12.724454       10.931066
  C           33.001343       13.796831       11.082752
  C           32.539524       15.023213       11.520475
  C           31.192406       15.178631       11.810732
  C           30.321590       14.119556       11.664052
  H           30.982893       10.178361       11.351127
  H           29.350477       10.016234       10.657919
  H           30.674811       10.665923        9.660097
  H           32.528595       11.779733       10.587334
  H           34.048520       13.663339       10.853468
  H           33.220864       15.852524       11.635433
  H           30.818686       16.132019       12.153698
  H           29.270735       14.222786       11.885282
  C            5.771516       26.587601       37.084863
  O            7.037286       27.065598       37.467708
  C            7.990888       27.226297       36.506306
  C            7.812511       26.951995       35.155384
  C            8.857585       27.154684       34.268299
  C           10.079164       27.627211       34.708020
  C           10.257450       27.900972       36.055759
  C            9.225652       27.703642       36.949028
  H            5.835152       25.587019       36.644601
  H            5.184222       26.540311       38.000747
  H            5.282522       27.264854       36.376869
  H            6.870836       26.582036       34.780664
  H            8.706454       26.937783       33.220881
  H           10.887124       27.781823       34.009099
  H           11.207373       28.270752       36.412339
  H            9.346915       27.911383       38.000710
  C            6.697872        2.619578       31.827835
  O            6.873645        3.836494       32.510070
  C            8.059035        4.495962       32.370691
  C            9.126950        4.057432       31.596546
  C           10.285738        4.814450       31.530854
  C           10.396192        6.003350       32.225986
  C            9.330924        6.441140       32.998433
  C            8.172152        5.697333       33.072415
  H            7.426358        1.868290       32.150197
  H            5.695034        2.280110       32.082926
  H            6.769327        2.751985       30.743212
  H            9.071926        3.133587       31.042002
  H           11.108679        4.462907       30.925746
  H           11.303106        6.585913       32.168347
  H            9.404478        7.368665       33.546637
  H            7.333860        6.022896       33.668377
  C           16.076616        1.683222       22.173289
  O           15.282374        2.843510       22.161577
  C           14.650875        3.212127       23.312578
  C           14.728413        2.524028       24.517799
  C           14.040755        2.995367       25.624664
  C           13.276110        4.143565       25.548179
  C           13.198544        4.830303       24.345886
  C           13.877928        4.372010       23.236887
  H           15.486060        0.793363       22.415027
  H           16.474133        1.587178       21.163957
  H           16.907033        1.770759       22.881659
  H           15.316905        1.624459       24.609937
  H           14.109027        2.451668       26.555631
  H           12.744127        4.502664       26.416071
  H           12.604328        5.729085       24.272820
  H           13.828750        4.893706       22.293854
  C            3.647167       30.376974        6.851008
  O            3.464660       29.899983        8.161121
  C            2.564966       28.896692        8.369519
  C            1.799735       28.295688        7.376913
  C            0.915303       27.281958        7.709051
  C            0.782012       26.857804        9.017186
  C            1.545330       27.457218       10.007732
  C            2.429169       28.467062        9.690686
  H            2.722623       30.799362        6.443761
  H            4.398732       31.161679        6.924375
  H            4.011234       29.589571        6.182806
  H            1.880681       28.604234        6.346242
  H            0.326209       26.822813        6.928587
  H            0.090256       26.067323        9.265803
  H            1.450610       27.134934       11.034085
  H            3.030679       28.944316       10.448519
  C           24.951059        8.278608        7.751681
  O           26.181319        8.945178        7.612494
  C           26.195621       10.306998        7.681153
  C           25.075279       11.105130        7.880829
  C           25.212550       12.483035        7.932958
  C           26.451149       13.078020        7.788885
  C           27.569097       12.282010        7.589655
  C           27.446313       10.909605        7.535766
  H           24.247339        8.563090        6.962446
  H           25.178667        7.217203        7.664460
  H           24.496897        8.471418        8.729231
  H           24.094379       10.671067        7.996854
  H           24.334274       13.092430        8.088645
  H           26.547708       14.152309        7.831007
  H           28.542947       12.734609        7.475587
  H           28.305267       10.275334        7.381514
  C           23.199327        7.660923        0.828231
  O           24.346823        8.449502        0.631701
  C           24.193992        9.796514        0.484480
  C           22.976582       10.466699        0.513044
  C           22.944651       11.842598        0.351593
  C           24.109264       12.561332        0.161885
  C           25.324022       11.892990        0.133335
  C           25.369754       10.524057        0.292722
  H           22.512742        7.730009       -0.021988
  H           23.557010        6.636290        0.918698
  H           22.670364        7.941058        1.745164
  H           22.049719        9.934189        0.659308
  H           21.992278       12.351885        0.375729
  H           24.073912       13.632951        0.037076
  H           26.241566       12.443069       -0.014198
  H           26.305872        9.988149        0.273213
  C            9.077425        7.162699       11.750938
  O            8.418211        8.323615       12.192457
  C            9.116724        9.494081       12.231965
  C           10.449855        9.637499       11.865569
  C           11.056117       10.880819       11.947920
  C           10.352745       11.984580       12.390492
  C            9.022680       11.841825       12.756118
  C            8.407430       10.610168       12.678906
  H            9.925402        6.910951       12.396385
  H            8.337603        6.365206       11.802531
  H            9.425978        7.265679       10.718006
  H           11.026250        8.795110       11.516020
  H           12.092711       10.979331       11.660276
  H           10.833984       12.948910       12.451084
  H            8.461722       12.696663       13.103706
  H            7.373676       10.481113       12.959253
  C           27.264389        3.389567       35.226970
  O           26.298221        2.402152       35.489181
  C           24.982659        2.760977       35.485527
  C           24.508975        4.044445       35.239792
  C           23.145526        4.290752       35.262593
  C           22.246115        3.275830       35.526950
  C           22.718384        1.995219       35.772160
  C           24.072720        1.736642       35.752459
  H           27.235012        4.190066       35.973550
  H           28.226845        2.882893       35.281328
  H           27.139029        3.820488       34.228153
  H           25.185490        4.858360       35.030252
  H           22.789880        5.292455       35.070033
  H           21.185852        3.477815       35.542466
  H           22.025872        1.193077       35.980088
  H           24.457418        0.746508       35.940974
  C            3.758479        6.485018       37.247845
  O            4.344874        5.206987       37.245874
  C            5.701477        5.113029       37.144509
  C            6.568172        6.194789       37.041134
  C            7.933006        5.976040       36.943358
  C            8.447515        4.693793       36.947078
  C            7.583087        3.614320       37.050198
  C            6.222817        3.818157       37.148126
  H            3.964491        7.024064       36.317237
  H            2.685993        6.317783       37.336166
  H            4.101718        7.084283       38.097617
  H            6.197724        7.208087       37.035409
  H            8.596201        6.825023       36.863538
  H            9.512278        4.533785       36.870441
  H            7.972460        2.607040       37.054260
  H            5.536050        2.990088       37.229054
  C           13.616051       10.846571        9.207363
  O           12.666564       11.836649        8.898420
  C           11.461119       11.447932        8.393172
  C           11.086316       10.130989        8.153929
  C            9.830547        9.856173        7.636529
  C            8.941750       10.875454        7.353695
  C            9.315386       12.189460        7.592269
  C           10.562046       12.476630        8.106901
  H           13.904635       10.274322        8.319503
  H           14.485411       11.379912        9.589139
  H           13.246709       10.160487        9.976726
  H           11.757440        9.312801        8.364162
  H            9.551095        8.828589        7.455014
  H            7.965759       10.651094        6.950831
  H            8.629984       12.995367        7.375523
  H           10.869120       13.492923        8.298605
  C           17.328330       26.967493        0.523779
  O           17.468937       26.838450        1.916906
  C           18.695209       27.059270        2.470954
  C           19.837996       27.407485        1.760437
  C           21.032610       27.607112        2.433658
  C           21.105340       27.464708        3.806000
  C           19.965373       27.117303        4.515165
  C           18.770289       26.915770        3.857415
  H           17.962724       26.254277       -0.012795
  H           16.282862       26.749120        0.310932
  H           17.560658       27.983511        0.187961
  H           19.813979       27.526357        0.688369
  H           21.913750       27.877416        1.870186
  H           22.040659       27.622379        4.321281
  H           20.008802       27.002839        5.588129
  H           17.873912       26.645126        4.393284
  C           24.893782       17.123701       29.237130
  O           25.836506       16.143571       29.594679
  C           26.434781       15.423081       28.603499
  C           26.185751       15.579797       27.245017
  C           26.856335       14.787811       26.326727
  C           27.772446       13.840896       26.742639
  C           28.021124       13.684294       28.097913
  C           27.360621       14.465969       29.022140
  H           24.037929       16.686750       28.712122
  H           24.554342       17.562794       30.174131
  H           25.341490       17.904633       28.613635
  H           25.476348       16.310256       26.888344
  H           26.654046       14.919197       25.273737
  H           28.289712       13.228789       26.019481
  H           28.734819       12.947745       28.436104
  H           27.541854       14.357520       30.080105
  C            4.385101       23.483457       26.777526
  O            5.431073       23.844065       25.909694
  C            5.246523       23.688948       24.567549
  C            4.089878       23.195236       23.975543
  C            4.017218       23.082113       22.596375
  C            5.081331       23.454127       21.797525
  C            6.235446       23.946733       22.387856
  C            6.320764       24.064378       23.759116
  H            4.140699       22.419398       26.693331
  H            4.750714       23.689573       27.782433
  H            3.484601       24.078145       26.591813
  H            3.241767       22.896254       24.571659
  H            3.112848       22.696991       22.148305
  H            5.014959       23.362197       20.724055
  H            7.074315       24.241017       21.774721
  H            7.210800       24.445530       24.234989
