16
Properties=species:S:1:pos:R:3:energies:R:1:forces:R:3:charge:R:1 energy=-628.942036384709 free_energy=-628.942036384709 dipole="0.14250206458350717 -0.257476029564728 0.01635780902099993" pbc="F F F"
C        2.67669772      -0.24253868       0.20884374     -59.30662962      -0.00458798       0.00465918      -0.00037263       0.03942499
O        1.69810845       0.76403290       0.12882773    -111.45237276       0.00149838       0.00401937      -0.00011279      -0.27242898
C        0.38575196       0.39523412       0.09444740     -58.55437432       0.00243512      -0.00585220       0.00034153       0.14341803
C       -0.07314347      -0.91625745       0.13259812     -58.57629301      -0.00603887      -0.00181684      -0.00015305      -0.06667653
C       -1.43475355      -1.17024316       0.09147263     -58.52194415      -0.00513274      -0.00183382      -0.00011768      -0.03102780
C       -2.34685755      -0.13546395       0.01280275     -58.55591674       0.00169476       0.00714267      -0.00023967      -0.04219050
C       -1.88934323       1.17310881      -0.02527924     -58.51896334       0.00599066       0.00223474       0.00013336      -0.02928160
C       -0.53699964       1.43960742       0.01496183     -58.47325730       0.00164466      -0.00297778       0.00018956      -0.05428220
H        2.64055085      -0.90925453      -0.65904272     -13.24695280       0.00368964       0.00073939      -0.00349675       0.03878230
H        3.63392415       0.27659694       0.22332424     -13.08055410      -0.00332195      -0.00077150      -0.00009642       0.06020145
H        2.57252952      -0.83358636       1.12473397     -13.24695254       0.00342011       0.00104742       0.00369448       0.03878239
H        0.61351564      -1.74617764       0.19398322     -13.50674303       0.00202531       0.00507431      -0.00013954       0.03199934
H       -1.77884689      -2.19379180       0.12178267     -13.50747918      -0.00348416      -0.00393005       0.00003563       0.03148720
H       -3.40556633      -0.34364090      -0.01871855     -13.52725159       0.00298959       0.00029704       0.00009868       0.03118098
H       -2.59187357       1.99097864      -0.08675944     -13.47495942      -0.00362213      -0.00081661      -0.00010263       0.03500392
H       -0.16369406       2.45139564      -0.01373766     -13.39139248       0.00079960      -0.00721532       0.00033792       0.04560701
