192
Lattice="17.998982355661692 0.0 0.0 0.0 17.998982355661692 0.0 0.0 0.0 17.998982355661692" Properties=species:S:1:pos:R:3:momenta:R:3 Built=T with=T Packmol=T charge=0 spin=1 external_field="_JSON [0.0, 0.0, 0.0]" pbc="T T T"
O       15.49363628       6.08020294       8.28522929       0.20125519      -0.31941022       0.55683526
C       15.15333855       7.30382654       7.66056867      -0.34792324       0.14490395      -0.02138628
C       14.54588551       7.07206189       6.25683401       0.14737445       0.01710227       0.88917751
F       13.40770996       6.32210001       6.42042974       0.60346823       1.15747517       0.56178279
F       15.38763717       6.35630443       5.48006936       0.07802904       0.15520198       0.59071338
F       14.23579986       8.16956983       5.59997302      -0.23378951      -0.90313383      -0.15144211
C       16.39221993       8.23496589       7.59660034       0.56968713       0.47447040      -0.02193500
F       17.40364500       7.60216421       6.90398329       0.42292998       0.81481217       0.19578501
F       16.80144230       8.43055594       8.82857094      -1.67454883      -0.14341552      -0.82723790
F       16.14486286       9.39951594       6.98319021      -0.19402930      -0.02962502       0.09863714
H       16.26891802       5.57177343       7.84585968      -0.14419496       0.28888150       0.15833223
H       14.47179123       7.85271209       8.27975210       0.16954093       0.14619720       0.08261037
O       14.23334306      12.28314147       4.33973131       0.48469163      -0.19045707      -0.47820020
C       13.63614844      11.90857350       3.13581118      -0.43161346       0.65997919       0.07368728
C       12.17718502      11.57339681       3.38854395       0.78919108      -0.20024647      -0.19010510
F       11.51768048      12.60280924       3.95769969       0.15960418       0.50851137       0.27456105
F       12.09802550      10.53454554       4.26273141      -1.00032022       0.50688358      -0.32121113
F       11.52362901      11.21271064       2.25101239       0.41692407      -0.02303707       0.17849907
C       14.44972075      10.82503590       2.44519405       0.35334453      -0.37188451       1.22769581
F       14.53272039       9.77805364       3.20978165       0.77461758      -0.85776983       0.56740701
F       15.67377127      11.28943404       2.18684941       0.42560204       0.40739160      -0.12617974
F       13.87357004      10.44078704       1.28741323       0.24054394       1.46631256      -0.31167910
H       14.13531229      11.49969850       4.91419718      -0.24550074      -0.13296507      -0.33494137
H       13.60804420      12.71814900       2.43699759       0.00070049       0.11751788      -0.00563784
O       13.52676483       3.42532482       4.45322747       0.58584689       0.59023221      -0.34082639
C       12.48484409       3.36379256       3.50212471      -0.71579127       0.11877800      -0.17780342
C       11.14411174       3.40673885       4.22995154       0.29737256      -1.27901543       0.18670915
F       11.01519352       4.52035431       4.94846107      -0.42687501      -0.11029378      -0.21840298
F       11.02139752       2.37860925       5.07676045      -0.75456253       0.41267850      -0.07679426
F       10.09712193       3.33909370       3.38985054       0.18197080      -0.24869529      -0.42845303
C       12.65715603       2.14786434       2.55466085       0.26778404       0.13776282      -0.55494852
F       12.69900152       1.01127047       3.25213336      -0.42636157       0.33831135      -0.57123666
F       13.78317745       2.25676030       1.89283155      -0.32282136       0.07411861      -0.96293101
F       11.65974981       2.03008006       1.68148647      -0.23839719       0.40246372      -0.84545355
H       13.47888169       2.63102992       5.01769987       0.05008273      -0.01893446      -0.13512345
H       12.53143128       4.27216992       2.91020606      -0.14907154       0.02068710       0.18751720
O        6.98914525      16.32203684      13.80583936       0.67586215       0.68517078       0.57517619
C        7.59227133      16.09288691      12.56923042       0.77893086      -0.31867474       0.28314457
C        8.68953064      15.03343662      12.70259023      -0.06589181       0.11071293       0.54522997
F        8.22388448      13.89805512      13.19139883       0.08642000       0.56087408      -0.63784856
F        9.68975121      15.50251898      13.52512307      -0.24155797       0.84196515       0.66154965
F        9.28864414      14.80330496      11.52197903      -0.64125836      -0.18931551       0.94441032
C        8.01167411      17.42087649      11.91915161       0.78314115      -0.31199911      -0.23399044
F        8.87836139      18.06110055      12.71042802      -0.50398673       0.03895468      -0.06638365
F        6.93703972      18.22238001      11.80600752       0.12763629      -0.25351819       0.10586931
F        8.56510015      17.30458840      10.70624174       0.89369501      -0.41820149      -0.25929800
H        7.66858190      16.82605056      14.27293500      -0.19373021       0.17134865      -0.10363833
H        6.87649712      15.68812338      11.90733930      -0.09063847      -0.01470204      -0.04718404
O        1.86778240      14.98829212      14.98155090      -0.40314111       0.11048269      -1.36905700
C        2.67616515      16.00433557      14.40304799      -0.35178581       0.30997420      -0.55780349
C        3.16397965      15.62507455      13.03235993      -0.21750482       0.48993400       0.35430410
F        2.17651683      15.37636758      12.25304744      -0.08672614       0.38390531       0.69081702
F        3.92680267      14.47186963      13.16189367       0.32297034      -0.97150272       0.96061855
F        3.95684493      16.55053583      12.51884820      -0.29923512       0.10479209      -0.68777254
C        3.80845803      16.37844481      15.41501703      -0.76130182      -0.27182646       0.00825187
F        4.57452803      15.31188596      15.75785391      -0.14748001       0.20675350      -0.83839673
F        3.27061127      16.79876474      16.59580967       0.23672083      -0.56377466       1.16457994
F        4.60015754      17.33980866      15.03145455       0.11582959      -0.65676789       0.69298102
H        2.51786444      14.29595696      15.19391009       0.19516015      -0.13932494      -0.07347073
H        1.96053953      16.84342897      14.39354523      -0.07585535      -0.21162296      -0.13290332
O       10.16814300      12.55037381      15.07712847       0.11454642      -0.82488699       0.04759452
C       11.37506790      11.98393785      14.60142969      -0.15726568       0.26894763       0.59957417
C       11.12902163      11.30342256      13.28003905      -0.54134362       0.91995842       0.63358426
F       10.58840502      12.13985154      12.38969189       1.09696095       0.20821343       0.56765132
F       10.19363768      10.29524621      13.40985087       0.05839022       0.53367154       0.28638120
F       12.19896861      10.76147834      12.72295180       0.53765712      -0.49982015      -0.36788274
C       11.99560114      11.12627313      15.65917266      -1.10212987      -0.57895185      -0.19845541
F       11.19182751      10.11099087      15.95679483      -0.13587735       0.06261381      -0.35053048
F       12.26430516      11.81495064      16.72876660       0.06307100      -0.89513893      -0.77852572
F       13.14347752      10.55916732      15.23946659      -0.25564247      -0.11801578       0.55632377
H        9.57195810      11.85747458      15.24598834       0.29443426       0.05680225      -0.23559711
H       12.05145630      12.85618990      14.37866324      -0.32655017      -0.31499476      -0.20928667
O        4.40880669      15.56069803       7.24487169       0.39705864       0.91413822      -0.72994042
C        5.12140098      14.70728004       8.04560153      -0.68125415       0.03248044       0.26368892
C        6.46850481      15.32114961       8.38311692      -0.30320435       0.50877341       0.08963694
F        6.26937425      16.52353481       9.01629307       0.52297607       0.29552181      -1.36421890
F        7.17291421      15.61026978       7.29545150       0.22968695      -0.55615872       1.12279002
F        7.21431081      14.60106404       9.19137616       0.08425807      -0.79591217      -0.97804933
C        5.28749552      13.34572196       7.40741592      -0.21463961       0.60720773      -0.35134583
F        5.86455399      13.41466769       6.17674220      -0.13840393      -0.24595734      -0.05672336
F        4.06383752      12.75569857       7.20834970      -0.73841292      -0.29055294       0.51445206
F        5.94227906      12.48453873       8.21262851      -0.12822894      -0.23517998      -0.14243382
H        4.82937790      15.52714337       6.39962406      -0.20457078      -0.11067029      -0.27935064
H        4.52327681      14.52663735       8.93615809      -0.05729523      -0.04077666      -0.01123006
O        9.72679710       5.03698546      15.70218855      -0.03565925      -0.56183889      -0.32566505
C       10.62138287       6.07455925      15.45007569      -0.43894611       0.86860511       0.24444675
C       10.69175937       6.44637985      13.99267685       0.19517890       0.21961828       0.51996976
F        9.46934185       6.73993680      13.53016174       0.41802112       1.07076009       0.19865924
F       11.11626463       5.39069418      13.24359980       0.49678130      -0.16484090      -0.01487010
F       11.50135149       7.46420956      13.73137280       0.02306949      -0.58487855      -0.40042325
C       11.95824616       5.76831029      16.08293939      -0.32472981      -0.15490716       1.58741553
F       12.50410447       4.70605581      15.56332324       0.28010535       0.67170280       0.98645889
F       11.79556655       5.59619296      17.37800376       0.91194825       1.40155352      -1.26671412
F       12.81304748       6.82340842      15.94991548       1.13712081       0.06222846      -1.02851610
H        9.98106949       4.35033311      15.07674911       0.03760620      -0.19314446      -0.03660667
H       10.07705593       6.84848768      16.00114954       0.32309675       0.03104564       0.02837100
O        0.27087721       8.82218318      16.05948299       0.11512307       0.58473517       0.87210662
C        1.32830797       9.60729198      16.52405672      -1.54239401      -0.39659380      -0.20728448
C        1.26204615      11.01879566      15.89910734      -0.13539774      -0.93780496       0.77409768
F        0.09632999      11.59972427      16.17308484       0.11941177       0.17804387      -0.75286295
F        1.37665985      10.93386901      14.56332658      -0.15767144       0.10759482      -0.79789296
F        2.29784265      11.83429232      16.33804560       0.96868008       1.09207328      -0.14309687
C        2.68765319       8.92937422      16.31097337      -0.79922441      -0.29216874      -0.08397023
F        2.90801000       8.68580064      15.03989620       0.18425679      -0.32965165       0.06831861
F        2.67315999       7.75158132      16.98632658       0.54897707       0.91201631       0.40513760
F        3.68969081       9.66725785      16.79219765       0.31274404       0.50187786       0.65841956
H        0.40081656       8.55297587      15.15991821      -0.20443220       0.19511146       0.16306933
H        1.18441930       9.73982373      17.59169534      -0.10789398      -0.07270844      -0.08653751
O       12.86525768      15.54366294      13.48717791       0.46047946      -1.23616117       0.99668462
C       13.75181843      16.10617943      12.67078932      -0.66224775       0.36374459       0.56134182
C       14.65924731      17.12847899      13.39753561      -0.64451278      -0.13946569       0.61165300
F       15.32443276      16.44651838      14.35091293       0.99631500      -0.80347583      -0.50057637
F       13.92880059      18.03994213      14.03570371      -0.54083460      -0.14375520       1.13046927
F       15.55436445      17.71650869      12.61948782       0.89862759       0.30666967      -0.63247511
C       13.00588245      16.73052498      11.45856975       0.33818311       0.06021313      -0.47289793
F       12.13680608      17.63400076      11.86648486       1.01396331      -0.27517792      -0.77968992
F       12.30610821      15.81515890      10.82565605      -0.27999635      -0.58185883       0.07095221
F       13.84726415      17.29929595      10.59089081       0.18243948       0.25719776       0.44017291
H       12.09386530      16.08060397      13.53426389       0.03343924      -0.04296314       0.12467423
H       14.47690170      15.38189088      12.30648717       0.06138560      -0.25578367       0.05220717
O        7.83941264       2.68307787       2.14547011      -0.85490447       0.40978312      -1.13839551
C        6.57408827       2.74736568       2.71645041      -0.49996994      -0.56331967       0.10909340
C        6.02597035       4.12784707       2.69976470      -0.03820597      -0.52304816       0.35559778
F        5.93989159       4.58851946       1.45642223       0.48118814      -0.33611589      -0.92128054
F        6.82289895       4.97947269       3.40445964       0.07801053      -0.06605642       0.93484759
F        4.76786809       4.20654418       3.24809886       1.21697064      -1.08207586       0.60085823
C        6.60154893       2.07050558       4.08633265       0.66928427      -0.04785642      -0.57747996
F        7.50101442       2.68222110       4.91684575      -0.27590207      -0.11391795      -0.38452324
F        7.02034187       0.82200154       4.00383084      -0.71153238       0.01822012       0.77365448
F        5.41109721       2.06481498       4.68133992       0.19740055      -0.43903474      -0.23387120
H        8.45555975       2.98541008       2.84097344       0.15478641      -0.23605944       0.00851077
H        5.92067321       2.13646330       2.15460501       0.01993872      -0.14466495      -0.21826151
O        8.11483564       6.84805999      10.44313531      -0.17780725       0.02070595       0.77708991
C        6.80972491       6.81445214      10.90946818      -0.16326229       0.87442773      -0.16988548
C        6.21106229       5.40806900      10.79611143      -0.54041375       0.72303312       0.93135814
F        6.96688682       4.57265515      11.45548542       0.04672625      -0.01268255       0.56979529
F        6.19546746       4.98462815       9.49702978      -0.70167562       0.40786591      -0.82417458
F        4.95315804       5.31672674      11.27874673       0.63266514      -0.46100088      -0.54626126
C        5.93966850       7.88199805      10.24283782      -0.24638302      -1.01439414      -1.19450218
F        5.86135650       7.69010421       8.93751425       0.60680372       0.26554425      -0.09153086
F        6.45381249       9.07230212      10.48636398      -0.67466213      -0.41297611       0.63576731
F        4.63940787       7.89791847      10.69624645       0.02295872      -0.56737882      -0.76781599
H        8.04144559       7.06414655       9.50926609      -0.12517062       0.00832177       0.07079426
H        6.75989020       7.08038403      11.95050705      -0.01247049      -0.14339713       0.23178754
O       13.87099071      14.60479487       5.80351016       0.66620025      -0.52999814       0.39649422
C       14.85459280      15.32853640       6.44626706      -1.17582360      -0.34528604       1.06503123
C       14.89845139      16.77064660       5.88220025      -0.04550525       0.44906464       0.12646217
F       13.72162571      17.33048881       6.08347621       1.02125968      -0.48252640       0.16045221
F       15.15365202      16.76471647       4.56700002      -0.38859683       0.03058409      -0.12661250
F       15.81925501      17.53271946       6.47361769       1.50585652      -0.85986733       0.17671963
C       16.21281451      14.62366947       6.37019011       0.12233295      -0.46683537      -0.76517616
F       16.62279413      14.39975675       5.09344359      -1.52652357       1.08704579      -0.77124405
F       16.13860921      13.45471092       6.98175393      -0.59341807       0.49684081       0.22138996
F       17.20143606      15.33295264       6.98481598       0.71726265       0.21806148       0.10823502
H       14.11974354      14.44220850       4.87296985      -0.29592572      -0.11686184       0.00842628
H       14.58815523      15.50149055       7.52249804      -0.07612519       0.12492840       0.19945465
O        2.60263662       7.57204581       6.02433691      -0.13706786      -0.22107174      -0.05515209
C        3.03931633       6.23140934       5.91887626       1.20720467      -0.90263511      -0.49906392
C        2.46696267       5.42234195       7.07489270       0.03046742      -0.16397313       0.83476438
F        1.14724989       5.42100388       7.08005654       0.55833191       0.85863220       0.38977718
F        2.85465112       5.87695152       8.30023135       0.79129491       1.62781118       0.45783648
F        2.80779354       4.13288456       7.10629409      -0.33347743       1.17554563      -1.43599907
C        4.56777039       6.13515602       5.83895697       0.14541542       0.05934922       0.12724975
F        5.14308983       6.73502634       6.89741794      -0.33776800       0.06348068       0.15477226
F        4.94150411       6.80928543       4.77537450       0.72407982       1.17774208       0.29948259
F        4.99703257       4.91183789       5.76681109      -0.46000331      -0.20667766      -0.04634268
H        3.14913607       7.97374754       6.73523918      -0.24742034      -0.35693567      -0.02328459
H        2.63064335       5.82123868       4.97151820      -0.06077014      -0.15111436      -0.03289244
O        9.81004585       4.14275090       9.00179235       0.34172585       0.27982966       0.69801326
C       10.37481722       3.99732862      10.23785025      -0.86919239       0.13572563      -0.05791703
C       11.86618459       4.43056373      10.15278841      -0.75670335      -0.25992701       1.46680599
F       11.95189330       5.66545401       9.77305723      -0.35385634       1.85533648       0.14472433
F       12.50400136       3.64891738       9.23185558       1.12028970       0.20097199       0.55226214
F       12.45633148       4.28669427      11.30715175       0.73555366      -0.15857359      -0.70976432
C       10.18027979       2.58770398      10.78708297      -0.27686819      -0.41737081       0.00978023
F       10.62312038       1.64849216       9.89329591       0.54967450       0.31104395       0.15310649
F        8.88375591       2.33245957      10.87574544       0.66316789      -0.47538435       0.68363945
F       10.73934908       2.39574639      11.97346860      -0.32125796      -1.31219525      -1.18851433
H       10.14638393       3.49891198       8.28672478       0.04144912       0.06265449      -0.08929734
H        9.91039063       4.71506650      10.85958007      -0.03951852       0.00647260       0.07372981
O        7.93074131      10.64110813      15.17686877       1.04668971      -0.36016968      -0.56170500
C        6.82948591      10.69772549      14.30260441      -0.50322759       0.56370680       0.04156319
C        5.71787336      11.61277748      14.84882504      -0.16792655      -0.71728992      -0.30892370
F        6.26723969      12.86427343      14.87720899      -0.39995862      -2.19271406       0.21740064
F        5.41240465      11.33119526      16.09642893       0.32875471       0.29211226      -0.33064283
F        4.64068731      11.62813750      14.07638982       0.61036228      -0.54749923      -0.27462843
C        6.30282837       9.25946481      14.11676605       0.34520885       0.82112173       0.49053345
F        5.96933963       8.66499910      15.32911755       1.48466397       0.11658976      -0.21924725
F        7.25441556       8.46727184      13.59074920      -0.61511729      -0.44483354       0.92305361
F        5.20473554       9.17816317      13.35571236       1.53862742      -1.06836968       0.06813686
H        7.58328488      10.34979800      16.01283643       0.10960866      -0.11987347       0.06305742
H        7.08093906      11.02748170      13.34203844      -0.04749646      -0.06922498      -0.04276807
192
Lattice="18.456149310412897 0.0 0.0 0.0 18.456149310412897 0.0 0.0 0.0 18.456149310412897" Properties=species:S:1:pos:R:3:momenta:R:3 Built=T with=T Packmol=T charge=0 spin=1 external_field="_JSON [0.0, 0.0, 0.0]" pbc="T T T"
O       15.70585591       6.30693793       8.51765389       1.65238754      -1.05846780      -1.01577471
C       15.57201997       7.52833185       7.84687964      -0.28725197      -0.33386272      -0.15688180
C       14.93314210       7.29070478       6.42468355       0.05186367       0.99808894      -0.46258669
F       13.71534163       6.68633927       6.60626403       0.10357464      -1.23761426      -0.78265596
F       15.75089923       6.53132582       5.66394079      -0.21658306       0.62691783      -0.38558493
F       14.69028721       8.38147034       5.71749004       0.05338240       0.96059429       1.10715063
C       16.84543167       8.35439070       7.80539211      -0.39920358       0.78999651       0.60434946
F       17.81434498       7.66103920       7.07878032       0.05185492      -0.06710091       0.27014252
F       17.26202843       8.52199243       9.03697332      -1.24628585       0.21752161      -0.60724652
F       16.61970901       9.56152237       7.19335378       0.57913862       0.02886448      -0.85382925
H       16.42128498       5.86284430       7.96861258      -0.10151971       0.12139340       0.16672993
H       14.87313355       8.05984720       8.41729237       0.00533338       0.13730165       0.20629628
O       14.60811528      12.54965980       4.37406292       0.10075206       0.20292157       0.30088194
C       14.01836974      12.21516109       3.16961368       0.25769051      -0.83488664       0.49520307
C       12.54603074      11.82910745       3.43425234       0.21844902       0.80195080       0.27969078
F       11.93169684      12.84630432       3.98150828      -0.62750613       0.63442833       0.83220753
F       12.53858036      10.79602860       4.33845342      -1.27217359       0.10209273      -0.14393807
F       11.87065553      11.45884967       2.33849995       0.75119932       0.62429457      -0.95952325
C       14.82547749      11.11826464       2.54041404       0.46809117      -0.01191647       0.36017326
F       14.92179204      10.02878910       3.32689239      -0.22567142       0.69783136      -1.46615900
F       16.03191783      11.55277713       2.22831329       0.40780130       0.27538469       0.33806845
F       14.26957902      10.73569682       1.33066888      -0.43197856      -0.56108241      -0.06373251
H       14.62297918      11.77692672       4.97714232      -0.17210680      -0.10898447      -0.06572753
H       14.08101465      13.10205534       2.55283559      -0.08539644      -0.00296811      -0.10929103
O       13.88257032       3.49525246       4.64909250       0.19067475      -0.03356479       0.18396680
C       12.84918768       3.40380998       3.67456874      -0.22170448      -0.13011097      -0.12262297
C       11.51278215       3.46445329       4.45098298       0.08316893       0.38907571       0.59424050
F       11.36171128       4.55943258       5.11315890       0.15420404       0.04763654       0.29395177
F       11.37693641       2.43764532       5.22284360       0.03596403       0.60751511       0.54022129
F       10.42497782       3.41306952       3.58831681       0.42500224      -0.34723492      -0.19645055
C       13.05369142       2.22922119       2.75940450       0.35786218      -0.16960317       0.02849731
F       13.04860083       1.10212205       3.44355822       0.02179078      -0.33627984      -0.22535804
F       14.15325761       2.33260924       2.05748972      -0.82131560      -0.37043809       0.83432684
F       12.02298718       2.10538067       1.84353012      -0.37894090      -0.45530148       0.49836289
H       13.91471863       2.65696053       5.15842157      -0.09545643      -0.00975023       0.10440564
H       12.88656441       4.28021443       3.04746576      -0.06751371       0.06891025       0.04118201
O        7.17701037      16.69260690      14.10259579       0.38011276       0.77156637       0.46512109
C        7.77675065      16.47688821      12.84556762       0.23252057       1.06664671       0.20520226
C        8.96106573      15.44586326      13.03820635      -0.68190509      -0.96504500      -0.08453869
F        8.45363402      14.33296975      13.51028201      -0.40620701      -0.14574976      -0.30945115
F        9.92176461      15.91932904      13.84556343      -0.42173466       0.04136964      -0.24576434
F        9.50842648      15.21326474      11.87647728      -0.40231657       0.30298370      -0.56945126
C        8.25803491      17.80773560      12.26969703       0.48989436       0.00683768       0.01105654
F        9.08156352      18.49336435      13.01436252      -0.28705146      -0.51984761      -0.12089685
F        7.13860890      18.62066129      12.17529339       0.03664026       0.63760476      -1.31191862
F        8.73836104      17.73245600      11.04555080       0.77470512      -0.17639745      -0.51736657
H        7.64888083      17.32914806      14.66170565       0.37581510      -0.02450726      -0.04607048
H        7.04708455      15.94785185      12.23832566      -0.12276632      -0.12144303      -0.05764357
O        2.06009696      15.32651629      15.36573089      -0.71345864      -0.33839081       0.68870571
C        2.70897990      16.39216677      14.71682163       0.26555416      -0.33386610      -0.80251339
C        3.36841817      15.89010135      13.44683573      -0.54415652       0.02175835      -0.31630046
F        2.39723665      15.42885553      12.61373024       0.60439417      -0.22385769       0.96819895
F        4.12968546      14.82936774      13.68194766       1.60122967      -0.67174830       0.67050888
F        4.05637316      16.82889953      12.80499948      -0.05932241      -0.79807036       0.78573173
C        3.78727213      16.87452773      15.76098795       0.14619962      -0.03143350      -0.54703431
F        4.65338589      15.99602538      16.22992453      -0.10354923       0.39165910      -0.03957900
F        3.19715061      17.42152772      16.83437429      -0.56453102       0.48585087       0.15798271
F        4.50188636      17.93274826      15.22777121       0.18488267       0.03575420       0.91798417
H        2.65723748      14.66037240      15.74439555       0.08326528       0.03568469       0.01427009
H        2.04412045      17.18969737      14.37743695      -0.15855364      -0.20214329       0.13188984
O       10.50437144      12.80548899      15.44600914      -0.20339473       0.25323322      -0.27615924
C       11.65434638      12.30342322      14.94390911       0.33747277       0.19379347       0.19932217
C       11.36215057      11.51316840      13.66792584       1.03302343       0.97904913      -0.05990675
F       10.87402013      12.37795019      12.79503398       0.34266589       0.74035836      -0.65225021
F       10.45180599      10.55991959      13.76977176       0.67641121       0.59978294       0.01884548
F       12.46088295      11.06451422      13.10130439       0.29128057      -0.09645308      -0.22264328
C       12.28379999      11.39230040      16.01283106      -0.31622777       0.99438077       1.02499966
F       11.48307203      10.34646412      16.34034205       0.06594842       1.10444546      -0.45796676
F       12.51356880      12.11165658      17.06704213       0.90116835      -0.70171843      -0.11187608
F       13.47856222      10.84183113      15.63605744      -0.86944262      -0.11539573      -0.67958183
H        9.72073083      12.24891130      15.53902425      -0.41711963      -0.21615679       0.30012260
H       12.39540413      13.08196875      14.74895332      -0.11663652      -0.09382927       0.09429597
O        4.44790834      15.88203506       7.48985320       0.06149660      -0.62079124       0.77243086
C        5.14440164      15.02715654       8.30974608      -0.01204041       0.27867777      -0.32468607
C        6.48499064      15.65815875       8.68824342       0.00862733      -0.94593702       0.16794996
F        6.29668280      16.82331290       9.26456866       0.08615239       0.02754889       0.37846330
F        7.20271848      15.89766534       7.54063173       0.09960067       0.27264706       0.48808541
F        7.24330769      14.85755587       9.41914386      -0.10339083       1.13193745       0.66044204
C        5.24635279      13.60168214       7.70245685       0.21872396       0.53786528      -0.18041352
F        5.88627243      13.72378136       6.49421920       0.21609847      -0.16981321      -1.46045398
F        4.12870415      13.04746201       7.44723972      -0.32824126       0.25876289       0.72100340
F        5.98105825      12.77852892       8.51602932      -0.03824699      -0.18643348      -0.48209443
H        4.75636652      15.82062150       6.59554785       0.16607685      -0.05082072      -0.02634419
H        4.69260868      14.82991151       9.27389750      -0.00500746      -0.26753723      -0.04244100
O       10.04179524       5.17873041      16.13614011      -0.48321197       0.03014100      -1.09953398
C       10.90586130       6.25036376      15.86516038       0.20735842      -0.53550872      -0.40655945
C       10.93319902       6.60520418      14.35993417       0.21993611       0.39716399       0.51745449
F        9.71798010       6.87841081      13.93615652       1.08844623       0.17831463      -0.55593926
F       11.38129128       5.55199737      13.57965849       0.67100900      -0.42954163       0.79146983
F       11.76656130       7.61142841      14.10259324       0.62520338       0.04951107       0.21542516
C       12.25699946       5.95281048      16.45457269      -0.52392767      -0.93139943       0.30669863
F       12.78028176       4.85777059      15.86068483       0.05143279       0.06428951       1.91959863
F       12.07793732       5.72922523      17.76556817      -0.06309031       0.57724718      -0.20807153
F       13.11413579       7.01300721      16.30683882      -0.12363198      -0.42015361       0.54418513
H       10.08433732       4.43396058      15.54081441       0.12847334       0.02927008      -0.06107116
H       10.69621333       7.26414965      16.37505158      -0.25492321      -0.14831701       0.05018868
O        0.35842108       9.09473369      16.44228464      -0.50733811      -0.40919869       0.32815793
C        1.36786075       9.90495563      16.95398817       0.22297977      -0.53355116      -0.06491481
C        1.30402524      11.30235682      16.32064763      -0.63475997      -0.26577081       0.02079068
F        0.14559047      11.82388088      16.61125633       0.16080012       0.36405568      -0.78563380
F        1.43620131      11.20906028      14.96581480      -0.18747754      -0.65768811      -0.15696420
F        2.32370854      12.10380505      16.74541790       1.01146951      -0.26198555       0.09297290
C        2.67863830       9.17569560      16.72294325       0.62838291       0.34787498      -0.30316810
F        2.97009884       8.91386019      15.41774039      -0.12347343       0.63752707       0.69785631
F        2.70415812       8.01306591      17.40844310       0.53217121      -0.36854582      -0.11988926
F        3.70792384       9.85486860      17.16533790       0.47911509       1.28434559       0.65231639
H        0.49551996       8.79667963      15.56072806      -0.23054941      -0.10095554       0.06317584
H        1.19095597       9.96626742      18.03019135      -0.04021438      -0.01738507       0.01921690
O       13.20537261      15.90862127      13.87535528       0.52457366       1.31490572      -1.53847773
C       14.08896790      16.55397118      12.94863357      -0.30488985      -0.48744518       0.31284668
C       15.01458812      17.55310014      13.74476772       0.45714718       0.56017910      -0.85399426
F       15.68119775      16.86681314      14.70751708      -0.10060017       0.08634110      -0.74495063
F       14.28940501      18.51418033      14.34727670      -0.28946657      -1.10396813       0.17074494
F       15.89613497      18.15285340      12.98692224      -0.16183682      -0.36974382      -0.86819982
C       13.39760021      17.17686745      11.78228759      -0.17407348       0.04312174       0.10096286
F       12.50199236      18.08681440      12.18874558      -0.25102097      -0.72840281      -0.19476731
F       12.68896477      16.18262443      11.12267494      -1.01983252       1.28810985       0.42626287
F       14.18084925      17.77375831      10.90464110       0.18778266      -1.09695325       0.19788640
H       12.38336878      16.37485492      14.08395846      -0.34113576       0.22352644      -0.10276766
H       14.74218912      15.75222940      12.56315162       0.19411019       0.06912245       0.10460254
O        8.03752552       2.76943113       2.24000088      -0.44138254      -0.15680680      -0.45295612
C        6.74658261       2.75970529       2.79804885      -0.00787191       1.02851913       0.64683938
C        6.21934240       4.25622667       2.75532149       0.06945047      -0.52633106      -0.42689184
F        6.11630648       4.67417562       1.50989684      -0.42118283      -0.30260438       0.75592167
F        6.98997429       5.06818498       3.53983574       0.17256569      -0.00549365      -0.72845490
F        4.93669890       4.27377631       3.31655370      -0.70557326       0.23245242       0.77551765
C        6.76727488       2.12958156       4.17862019      -0.51006934       0.14592532      -0.18179610
F        7.66607996       2.73766024       4.98887251       0.19001454       0.50243269       0.36713810
F        7.20095454       0.87642404       4.06008460      -0.43493737       0.90474645       0.81068047
F        5.58306924       2.09456544       4.71791790       0.12683696       1.12261163       0.91455863
H        8.59013931       3.10227239       2.96045609      -0.30542993      -0.08607854       0.07490041
H        6.11238728       2.14610977       2.17641783      -0.09182872      -0.14275381      -0.02614948
O        8.26674522       6.99543285      10.72998771       0.27383203      -0.04750738       0.32330953
C        6.93645327       6.98007644      11.20439772       0.38411403      -0.95280355      -0.42167690
C        6.40166572       5.60777869      10.86438669       0.46151890       0.04230682       0.50503974
F        7.02959086       4.59127850      11.46544119       1.25033958       0.58371395      -0.80356294
F        6.35587668       5.32998296       9.53419367      -0.30531239      -1.01689031      -0.19844031
F        5.11767363       5.33885939      11.37742543      -0.90159379       0.83631006      -0.32711621
C        6.05943091       8.11476716      10.65933475       0.82492190      -0.34555349      -0.26364884
F        6.01094248       8.06423295       9.33925686       0.46585823      -0.38371154       0.80941425
F        6.67188538       9.25279113      11.08911803      -0.87861373      -1.07181568       0.08706216
F        4.80322592       8.03956137      11.11174506      -0.37389906      -0.26338011       0.32780531
H        8.27737561       7.31410433       9.83848561      -0.27945025       0.07749810       0.21480183
H        7.02549623       7.08987101      12.29300676      -0.03218899       0.03293364       0.06364977
O       14.22347290      15.03222541       5.98584053       0.78387047      -0.62708098      -0.86577714
C       15.27397678      15.71363047       6.59341849      -0.33657015      -0.36842166       0.10253461
C       15.31048552      17.13241353       6.06092561      -0.22591683       0.57779932       0.23786753
F       14.08901792      17.68920978       6.15646982       0.68915818       0.85600852       1.79628392
F       15.56521871      17.11949282       4.72605436      -0.49749393       1.03302280      -0.15766313
F       16.19375331      17.94478638       6.61634573       0.36729597      -0.41811412       0.09209425
C       16.62668191      15.02374280       6.52426809      -0.67821962       0.16582281      -0.14527752
F       17.00507079      14.78163385       5.27052826       0.31959792       0.25794086      -0.59808372
F       16.53582678      13.81856341       7.12389522      -0.07695053       0.79672208       0.25169000
F       17.60508059      15.70928422       7.15004387       0.04755842       0.59934893      -0.10262840
H       14.51400239      14.75916202       5.11840653      -0.03933942       0.26960558       0.13955476
H       15.02149817      15.84254753       7.64137510      -0.02294695       0.28240158      -0.21020539
O        2.72641916       7.67002207       6.21586328      -0.86611780       0.81740268      -0.59107470
C        3.10346928       6.36489649       6.08519499       0.27388963       0.60730447      -0.52920021
C        2.53522037       5.57805353       7.29462008       0.27472322       0.42117544      -0.93462005
F        1.20059530       5.55207814       7.27794495       1.11332264       0.09970778      -0.73555520
F        2.96086258       6.02077428       8.46893297      -0.43338306      -0.13742774      -0.05178495
F        2.86086381       4.29421630       7.21601120       0.54940291      -0.01603632       1.51180336
C        4.63790298       6.30017840       6.02682910      -0.05173496       0.11974154      -0.61400634
F        5.26916680       6.88779149       7.11905142      -0.59151642       0.07004789      -0.93623367
F        5.01216671       6.94179580       4.92169916       0.24593690       0.32192899       0.56161543
F        5.14047966       5.01018574       5.96426228      -1.13373268       0.82912468      -0.82681433
H        3.29461385       8.02449786       6.94756653       0.11116429      -0.04818808       0.00553387
H        2.75734634       5.88448937       5.22184979       0.05067089       0.07682053       0.03316404
O       10.02423008       4.24547304       9.27559989       1.50111615      -0.27121655       0.22310038
C       10.67159870       4.10398519      10.47946536      -0.26217701      -0.41179845      -0.11155902
C       12.11067394       4.44351505      10.40287408       0.36534124       1.32170236       0.24859169
F       12.23475341       5.74239161      10.10351615      -0.17934763      -0.04843712      -1.29441407
F       12.75966013       3.67392159       9.49076346       0.62933905       1.27944466      -0.05921301
F       12.73450119       4.33372329      11.57629443      -0.19276907       1.22056370      -0.38186229
C       10.47676492       2.69200056      11.03971289      -0.11275798       0.47840552       0.57129605
F       10.94595610       1.70452501      10.11397637      -0.97999571       0.16244925       0.41351454
F        9.16253159       2.48225117      11.13829482      -0.00627075      -1.47572617      -0.12798171
F       11.03455542       2.44402878      12.24313665      -0.36594718       0.91594353       0.10079253
H       10.42959253       3.56482999       8.60732594      -0.00697387       0.02517879      -0.12165686
H       10.16975866       4.80746191      11.16630469      -0.13579071       0.23960699      -0.02545041
O        8.10138860      10.94836138      15.49394152       0.17574730      -0.73428542       1.08414284
C        6.98346076      10.92019073      14.61043585       0.08454091       0.08939914       0.82630278
C        5.91982114      11.90540877      15.20844696      -0.61536078      -0.75053685       0.65704307
F        6.42431879      13.14245896      15.25598505       0.09428814      -0.12932791      -0.06190032
F        5.52757987      11.61966899      16.44515380       0.93717681      -0.37493497       0.26908903
F        4.75372796      11.90957943      14.46005524       0.58516496      -0.45879843      -0.52487975
C        6.45602030       9.50212575      14.48501209       0.38527597       0.70279838      -0.16221693
F        6.14192156       8.91881144      15.69910605      -0.59237640      -0.15307056       0.51675790
F        7.40006367       8.78090647      13.93566584       0.03465899      -0.98604964       0.69178137
F        5.38301752       9.44571887      13.69097735      -0.68379168      -0.09305355       0.69117637
H        7.72321141      10.61157020      16.29991301      -0.30209650      -0.02678842      -0.00657647
H        7.30752639      11.36759615      13.67486217       0.00948699       0.16319365      -0.20293404
192
Lattice="18.44474374878758 0.0 0.0 0.0 18.44474374878758 0.0 0.0 0.0 18.44474374878758" Properties=species:S:1:pos:R:3:momenta:R:3 Built=T with=T Packmol=T charge=0 spin=1 external_field="_JSON [0.0, 0.0, 0.0]" pbc="T T T"
O       15.69602711       6.30218376       8.51323144       1.65238754      -1.05846780      -1.01577471
C       15.56219117       7.52357769       7.84245719      -0.28725197      -0.33386272      -0.15688180
C       14.92331330       7.28595061       6.42026110       0.05186367       0.99808894      -0.46258669
F       13.70551283       6.68158510       6.60184158       0.10357464      -1.23761426      -0.78265596
F       15.74107043       6.52657165       5.65951833      -0.21658306       0.62691783      -0.38558493
F       14.68045841       8.37671617       5.71306758       0.05338240       0.96059429       1.10715063
C       16.83560287       8.34963653       7.80096966      -0.39920358       0.78999651       0.60434946
F       17.80451618       7.65628503       7.07435786       0.05185492      -0.06710091       0.27014252
F       17.25219963       8.51723826       9.03255087      -1.24628585       0.21752161      -0.60724652
F       16.60988021       9.55676820       7.18893133       0.57913862       0.02886448      -0.85382925
H       16.41145618       5.85809013       7.96419012      -0.10151971       0.12139340       0.16672993
H       14.86330475       8.05509303       8.41286991       0.00533338       0.13730165       0.20629628
O       14.60444736      12.54355388       4.36802979       0.10075206       0.20292157       0.30088194
C       14.01140504      12.20769411       3.16557971       0.25769051      -0.83488664       0.49520307
C       12.53893968      11.82493753       3.43427348       0.21844902       0.80195080       0.27969078
F       11.92772180      12.84439974       3.98080270      -0.62750613       0.63442833       0.83220753
F       12.53157002      10.79372742       4.34060586      -1.27217359       0.10209273      -0.14393807
F       11.86044275      11.45370150       2.34078296       0.75119932       0.62429457      -0.95952325
C       14.81506525      11.10800433       2.53684321       0.46809117      -0.01191647       0.36017326
F       14.91109337      10.01996268       3.32533901      -0.22567142       0.69783136      -1.46615900
F       16.02161806      11.53961976       2.22117774       0.40780130       0.27538469       0.33806845
F       14.25576840      10.72400150       1.32912079      -0.43197856      -0.56108241      -0.06373251
H       14.61920884      11.77203041       4.97265840      -0.17210680      -0.10898447      -0.06572753
H       14.07433462      13.09320529       2.54684646      -0.08539644      -0.00296811      -0.10929103
O       13.68533721       3.24500369       5.00201077       0.19067475      -0.03356479       0.18396680
C       12.88112343       3.34048960       3.83151488      -0.22170448      -0.13011097      -0.12262297
C       11.42088813       3.49230384       4.31848686       0.08316893       0.38907571       0.59424050
F       11.23399919       4.54590030       5.03632112       0.15420404       0.04763654       0.29395177
F       11.02757090       2.43325814       4.94481047       0.03596403       0.60751511       0.54022129
F       10.54350116       3.62535762       3.24954332       0.42500224      -0.34723492      -0.19645055
C       13.16681115       2.22055937       2.87071053       0.35786218      -0.16960317       0.02849731
F       12.91009120       1.05399989       3.42899229       0.02179078      -0.33627984      -0.22535804
F       14.39607887       2.25218688       2.42313952      -0.82131560      -0.37043809       0.83432684
F       12.34960254       2.27934751       1.75481285      -0.37894090      -0.45530148       0.49836289
H       13.52923355       2.37333432       5.42510312      -0.09545643      -0.00975023       0.10440564
H       13.13363770       4.25082194       3.31163845      -0.06751371       0.06891025       0.04118201
O        7.17173745      16.68229599      14.09470815       0.38011276       0.77156637       0.46512109
C        7.77147773      16.46657730      12.83767998       0.23252057       1.06664671       0.20520226
C        8.95579282      15.43555235      13.03031872      -0.68190509      -0.96504500      -0.08453869
F        8.44836111      14.32265884      13.50239437      -0.40620701      -0.14574976      -0.30945115
F        9.91649169      15.90901813      13.83767579      -0.42173466       0.04136964      -0.24576434
F        9.50315356      15.20295383      11.86858964      -0.40231657       0.30298370      -0.56945126
C        8.25276199      17.79742469      12.26180939       0.48989436       0.00683768       0.01105654
F        9.07629060      18.48305344      13.00647488      -0.28705146      -0.51984761      -0.12089685
F        7.13333598      18.61035039      12.16740575       0.03664026       0.63760476      -1.31191862
F        8.73308813      17.72214509      11.03766316       0.77470512      -0.17639745      -0.51736657
H        7.64360791      17.31883715      14.65381801       0.37581510      -0.02450726      -0.04607048
H        7.04181163      15.93754094      12.23043802      -0.12276632      -0.12144303      -0.05764357
O        2.05792008      15.31644737      15.35666886      -0.71345864      -0.33839081       0.68870571
C        2.70680303      16.38209785      14.70775960       0.26555416      -0.33386610      -0.80251339
C        3.36624130      15.88003243      13.43777370      -0.54415652       0.02175835      -0.31630046
F        2.39505978      15.41878660      12.60466821       0.60439417      -0.22385769       0.96819895
F        4.12750858      14.81929882      13.67288563       1.60122967      -0.67174830       0.67050888
F        4.05419629      16.81883061      12.79593745      -0.05932241      -0.79807036       0.78573173
C        3.78509526      16.86445881      15.75192592       0.14619962      -0.03143350      -0.54703431
F        4.65120901      15.98595646      16.22086250      -0.10354923       0.39165910      -0.03957900
F        3.19497373      17.41145880      16.82531226      -0.56453102       0.48585087       0.15798271
F        4.49970948      17.92267934      15.21870918       0.18488267       0.03575420       0.91798417
H        2.65506061      14.65030347      15.73533352       0.08326528       0.03568469       0.01427009
H        2.04194357      17.17962845      14.36837492      -0.15855364      -0.20214329       0.13188984
O       10.49713312      12.79838405      15.43681885      -0.20339473       0.25323322      -0.27615924
C       11.64710806      12.29631827      14.93471882       0.33747277       0.19379347       0.19932217
C       11.35491225      11.50606346      13.65873554       1.03302343       0.97904913      -0.05990675
F       10.86678182      12.37084525      12.78584369       0.34266589       0.74035836      -0.65225021
F       10.44456767      10.55281464      13.76058147       0.67641121       0.59978294       0.01884548
F       12.45364463      11.05740928      13.09211410       0.29128057      -0.09645308      -0.22264328
C       12.27656167      11.38519546      16.00364077      -0.31622777       0.99438077       1.02499966
F       11.47583371      10.33935918      16.33115175       0.06594842       1.10444546      -0.45796676
F       12.50633048      12.10455164      17.05785184       0.90116835      -0.70171843      -0.11187608
F       13.47132390      10.83472619      15.62686715      -0.86944262      -0.11539573      -0.67958183
H        9.71349251      12.24180636      15.52983396      -0.41711963      -0.21615679       0.30012260
H       12.38816581      13.07486381      14.73976303      -0.11663652      -0.09382927       0.09429597
O        4.46859486      15.83191370       7.53094589       0.06149660      -0.62079124       0.77243086
C        5.16508817      14.97703518       8.35083877      -0.01204041       0.27867777      -0.32468607
C        6.50567717      15.60803739       8.72933611       0.00862733      -0.94593702       0.16794996
F        6.31736933      16.77319154       9.30566135       0.08615239       0.02754889       0.37846330
F        7.22340501      15.84754398       7.58172442       0.09960067       0.27264706       0.48808541
F        7.26399422      14.80743451       9.46023655      -0.10339083       1.13193745       0.66044204
C        5.26703931      13.55156078       7.74354954       0.21872396       0.53786528      -0.18041352
F        5.90695896      13.67366000       6.53531189       0.21609847      -0.16981321      -1.46045398
F        4.14939067      12.99734065       7.48833241      -0.32824126       0.25876289       0.72100340
F        6.00174477      12.72840756       8.55712201      -0.03824699      -0.18643348      -0.48209443
H        4.77705304      15.77050014       6.63664054       0.16607685      -0.05082072      -0.02634419
H        4.71329521      14.77979016       9.31499020      -0.00500746      -0.26753723      -0.04244100
O       10.03467188       5.17492154      16.12661384      -0.48321197       0.03014100      -1.09953398
C       10.89873794       6.24655489      15.85563411       0.20735842      -0.53550872      -0.40655945
C       10.92607567       6.60139531      14.35040790       0.21993611       0.39716399       0.51745449
F        9.71085675       6.87460194      13.92663025       1.08844623       0.17831463      -0.55593926
F       11.37416792       5.54818850      13.57013221       0.67100900      -0.42954163       0.79146983
F       11.75943794       7.60761954      14.09306697       0.62520338       0.04951107       0.21542516
C       12.24987611       5.94900161      16.44504642      -0.52392767      -0.93139943       0.30669863
F       12.77315841       4.85396172      15.85115856       0.05143279       0.06428951       1.91959863
F       12.07081396       5.72541636      17.75604190      -0.06309031       0.57724718      -0.20807153
F       13.10701243       7.00919834      16.29731255      -0.12363198      -0.42015361       0.54418513
H       10.07721397       4.43015171      15.53128814       0.12847334       0.02927008      -0.06107116
H       10.68908998       7.26034078      16.36552531      -0.25492321      -0.14831701       0.05018868
O        0.35722900       9.08846076      16.43211510      -0.50733811      -0.40919869       0.32815793
C        1.36666867       9.89868270      16.94381863       0.22297977      -0.53355116      -0.06491481
C        1.30283316      11.29608389      16.31047809      -0.63475997      -0.26577081       0.02079068
F        0.14439839      11.81760794      16.60108678       0.16080012       0.36405568      -0.78563380
F        1.43500923      11.20278735      14.95564526      -0.18747754      -0.65768811      -0.15696420
F        2.32251646      12.09753212      16.73524836       1.01146951      -0.26198555       0.09297290
C        2.67744622       9.16942267      16.71277371       0.62838291       0.34787498      -0.30316810
F        2.96890676       8.90758726      15.40757085      -0.12347343       0.63752707       0.69785631
F        2.70296604       8.00679298      17.39827355       0.53217121      -0.36854582      -0.11988926
F        3.70673176       9.84859567      17.15516836       0.47911509       1.28434559       0.65231639
H        0.49432789       8.79040669      15.55055852      -0.23054941      -0.10095554       0.06317584
H        1.18976389       9.95999449      18.02002181      -0.04021438      -0.01738507       0.01921690
O       13.19666219      15.89792427      13.86741250       0.52457366       1.31490572      -1.53847773
C       14.08025748      16.54327418      12.94069079      -0.30488985      -0.48744518       0.31284668
C       15.00587770      17.54240314      13.73682494       0.45714718       0.56017910      -0.85399426
F       15.67248733      16.85611614      14.69957430      -0.10060017       0.08634110      -0.74495063
F       14.28069459      18.50348333      14.33933392      -0.28946657      -1.10396813       0.17074494
F       15.88742455      18.14215641      12.97897946      -0.16183682      -0.36974382      -0.86819982
C       13.38888979      17.16617046      11.77434481      -0.17407348       0.04312174       0.10096286
F       12.49328194      18.07611740      12.18080280      -0.25102097      -0.72840281      -0.19476731
F       12.68025435      16.17192744      11.11473216      -1.01983252       1.28810985       0.42626287
F       14.17213883      17.76306131      10.89669832       0.18778266      -1.09695325       0.19788640
H       12.37465836      16.36415792      14.07601568      -0.34113576       0.22352644      -0.10276766
H       14.73347871      15.74153240      12.55520884       0.19411019       0.06912245       0.10460254
O        7.92269195       2.71614441       2.20624749      -0.44138254      -0.15680680      -0.45295612
C        6.63174904       2.70641857       2.76429547      -0.00787191       1.02851913       0.64683938
C        6.10450884       4.20293995       2.72156810       0.06945047      -0.52633106      -0.42689184
F        6.00147291       4.62088890       1.47614346      -0.42118283      -0.30260438       0.75592167
F        6.87514073       5.01489826       3.50608235       0.17256569      -0.00549365      -0.72845490
F        4.82186534       4.22048960       3.28280031      -0.70557326       0.23245242       0.77551765
C        6.65244132       2.07629484       4.14486680      -0.51006934       0.14592532      -0.18179610
F        7.55124639       2.68437352       4.95511912       0.19001454       0.50243269       0.36713810
F        7.08612098       0.82313732       4.02633122      -0.43493737       0.90474645       0.81068047
F        5.46823568       2.04127872       4.68416451       0.12683696       1.12261163       0.91455863
H        8.47530575       3.04898567       2.92670270      -0.30542993      -0.08607854       0.07490041
H        5.99755371       2.09282306       2.14266444      -0.09182872      -0.14275381      -0.02614948
O        8.33425012       7.06501336      10.60371478       0.27383203      -0.04750738       0.32330953
C        7.00395817       7.04965694      11.07812478       0.38411403      -0.95280355      -0.42167690
C        6.46917062       5.67735920      10.73811376       0.46151890       0.04230682       0.50503974
F        7.09709576       4.66085901      11.33916826       1.25033958       0.58371395      -0.80356294
F        6.42338158       5.39956347       9.40792074      -0.30531239      -1.01689031      -0.19844031
F        5.18517853       5.40843990      11.25115250      -0.90159379       0.83631006      -0.32711621
C        6.12693580       8.18434767      10.53306182       0.82492190      -0.34555349      -0.26364884
F        6.07844738       8.13381346       9.21298393       0.46585823      -0.38371154       0.80941425
F        6.73939028       9.32237163      10.96284510      -0.87861373      -1.07181568       0.08706216
F        4.87073082       8.10914187      10.98547213      -0.37389906      -0.26338011       0.32780531
H        8.34488051       7.38368484       9.71221268      -0.27945025       0.07749810       0.21480183
H        7.09300112       7.15945152      12.16673382      -0.03218899       0.03293364       0.06364977
O       14.30910855      15.08350079       5.97350028       0.78387047      -0.62708098      -0.86577714
C       15.35961243      15.76490586       6.58107824      -0.33657015      -0.36842166       0.10253461
C       15.39612117      17.18368892       6.04858536      -0.22591683       0.57779932       0.23786753
F       14.17465357      17.74048516       6.14412958       0.68915818       0.85600852       1.79628392
F       15.65085436      17.17076821       4.71371411      -0.49749393       1.03302280      -0.15766313
F       16.27938896      17.99606177       6.60400548       0.36729597      -0.41811412       0.09209425
C       16.71231756      15.07501818       6.51192784      -0.67821962       0.16582281      -0.14527752
F       17.09070644      14.83290923       5.25818802       0.31959792       0.25794086      -0.59808372
F       16.62146243      13.86983880       7.11155497      -0.07695053       0.79672208       0.25169000
F       17.69071624      15.76055960       7.13770363       0.04755842       0.59934893      -0.10262840
H       14.59963804      14.81043740       5.10606628      -0.03933942       0.26960558       0.13955476
H       15.10713382      15.89382291       7.62903485      -0.02294695       0.28240158      -0.21020539
O        2.68918097       7.64593845       6.20571281      -0.86611780       0.81740268      -0.59107470
C        3.09215981       6.34797693       6.08122294       0.27388963       0.60730447      -0.52920021
C        2.54535633       5.55715723       7.29791842       0.27472322       0.42117544      -0.93462005
F        1.21147697       5.50393808       7.28740950       1.11332264       0.09970778      -0.73555520
F        2.96703085       6.01562552       8.46761118      -0.43338306      -0.13742774      -0.05178495
F        2.89673399       4.27975232       7.22558953       0.54940291      -0.01603632       1.51180336
C        4.62732309       6.31412793       6.01634039      -0.05173496       0.11974154      -0.61400634
F        5.25126397       6.92113582       7.10214514      -0.59151642       0.07004789      -0.93623367
F        4.98359811       6.95644752       4.90568650       0.24593690       0.32192899       0.56161543
F        5.15579121       5.03426618       5.95929361      -1.13373268       0.82912468      -0.82681433
H        3.25323634       8.01637155       6.93269892       0.11116429      -0.04818808       0.00553387
H        2.75211653       5.85535210       5.22235835       0.05067089       0.07682053       0.03316404
O        9.95445827       4.12453292       9.27237461       1.50111615      -0.27121655       0.22310038
C       10.69073485       4.11830575      10.43265691      -0.26217701      -0.41179845      -0.11155902
C       12.13617560       4.33745599      10.19865155       0.36534124       1.32170236       0.24859169
F       12.31283837       5.56447376       9.69337057      -0.17934763      -0.04843712      -1.29441407
F       12.65882887       3.39508336       9.37150566       0.62933905       1.27944466      -0.05921301
F       12.84839653       4.35963206      11.32576270      -0.19276907       1.22056370      -0.38186229
C       10.45874068       2.82391978      11.21769306      -0.11275798       0.47840552       0.57129605
F       10.78827718       1.67767553      10.42411493      -0.97999571       0.16244925       0.41351454
F        9.14714490       2.72699610      11.44406612      -0.00627075      -1.47572617      -0.12798171
F       11.09945875       2.71911007      12.40063189      -0.36594718       0.91594353       0.10079253
H       10.26059195       3.32400285       8.68960747      -0.00697387       0.02517879      -0.12165686
H       10.29157248       4.95111533      11.03727977      -0.13579071       0.23960699      -0.02545041
O        8.18915883      10.89150564      15.38717138       0.17574730      -0.73428542       1.08414284
C        7.07123099      10.86333499      14.50366571       0.08454091       0.08939914       0.82630278
C        6.00759138      11.84855303      15.10167682      -0.61536078      -0.75053685       0.65704307
F        6.51208903      13.08560322      15.14921491       0.09428814      -0.12932791      -0.06190032
F        5.61535011      11.56281325      16.33838367       0.93717681      -0.37493497       0.26908903
F        4.84149819      11.85272369      14.35328510       0.58516496      -0.45879843      -0.52487975
C        6.54379054       9.44527001      14.37824196       0.38527597       0.70279838      -0.16221693
F        6.22969180       8.86195570      15.59233592      -0.59237640      -0.15307056       0.51675790
F        7.48783391       8.72405073      13.82889570       0.03465899      -0.98604964       0.69178137
F        5.47078776       9.38886313      13.58420721      -0.68379168      -0.09305355       0.69117637
H        8.54841793      10.01693548      15.27718838      -0.30209650      -0.02678842      -0.00657647
H        7.39529662      11.31074041      13.56809203       0.00948699       0.16319365      -0.20293404
192
Lattice="18.426763857039404 0.0 0.0 0.0 18.426763857039404 0.0 0.0 0.0 18.426763857039404" Properties=species:S:1:pos:R:3:momenta:R:3 Built=T with=T Packmol=T charge=0 spin=1 external_field="_JSON [0.0, 0.0, 0.0]" pbc="T T T"
O       15.74554305       6.34360535       8.43461180      -0.93369593       0.96112195      -0.48776899
C       15.59212746       7.53902133       7.71737055       0.24474731       1.24808695       0.21318650
C       14.89867533       7.34923693       6.35560751       0.42300131       0.37485209       0.09316755
F       13.73275001       6.73596585       6.49763455      -1.47267383       0.44220971       0.06295792
F       15.70610756       6.53932471       5.60310428       1.18211551       1.15847708      -1.10396143
F       14.70238764       8.49743459       5.61339773      -0.24002498      -0.24094881      -0.73245846
C       16.84842481       8.43036783       7.68090715      -0.66906177       0.45056277       0.16156910
F       17.86716805       7.73437207       7.03652214      -0.07559586      -0.71527723      -0.76448597
F       17.28249061       8.63785847       8.95450253       0.04281808      -0.91169938       0.43455842
F       16.58848389       9.59665455       7.07058395       0.38913800       1.11230644       0.21188165
H       16.36400447       5.74598133       8.03121464       0.23218172       0.15553412      -0.21212741
H       14.81075154       8.11786128       8.32400223       0.20539281      -0.04788995      -0.03034650
O       14.61191832      12.56613500       4.34455203      -0.29363176      -0.02795152       0.52059642
C       13.98565192      12.23448603       3.09832743       0.11443470      -0.22440562       0.27612811
C       12.51641870      11.79175160       3.43500396      -0.15935075       0.55408970       0.47584960
F       11.86586210      12.86766608       3.97820779       1.55783374      -0.67591053       0.16211445
F       12.52611678      10.74063172       4.27746925       0.80866792       0.95518234       1.19562318
F       11.87540666      11.46138286       2.34922822       0.02314649      -0.86935450      -0.03188767
C       14.79557589      11.11250477       2.44260747       0.58371089       0.69420387       1.82451667
F       14.86964114      10.00513543       3.30026970       0.90814618      -0.53914398       0.21902853
F       16.04713787      11.51441262       2.26864411      -0.92759080       0.19336726      -0.74066998
F       14.25704107      10.70912452       1.29298461      -1.09647484      -0.02197594       0.01387409
H       14.58838178      11.73235125       4.79199710      -0.01186244       0.10884257       0.12164860
H       14.09348007      13.17935281       2.46804256       0.11323167       0.05572007       0.24993700
O       13.55407622       3.13815360       4.88281921      -0.21137205      -1.56777756       1.77516712
C       12.78459562       3.34337519       3.80501597      -0.27787280      -0.29357711       0.11337089
C       11.31818315       3.49850982       4.18835976       0.21714379       0.54955674       0.10243556
F       11.16549908       4.42479493       5.12881710      -0.45827607      -0.07086230      -0.90346041
F       10.86042282       2.33736553       4.72431652      -0.44125684       0.19827719      -0.09068211
F       10.49651073       3.80150695       3.19364490      -1.34487707      -0.42468852      -0.13025482
C       13.05680053       2.38691465       2.64375112       0.43140327       0.61847500       0.97754324
F       12.75938232       1.09584352       3.07963147      -0.76129585      -0.20261474       0.60729486
F       14.32692382       2.36706831       2.26361330      -0.00544042      -0.59808992       0.35446249
F       12.26208583       2.59578081       1.56986765      -0.20998674       0.00456113      -0.18996637
H       13.47202175       2.26657858       5.31882963      -0.11264136      -0.30596624       0.27550306
H       13.13559990       4.30464230       3.36344977      -0.12911921       0.03832778       0.00739812
O        7.15278650      16.66554660      14.06270760      -0.43053651       0.06622197       0.82817261
C        7.77439851      16.46940347      12.84051038       0.22329848       0.09775774      -1.01696561
C        8.89337477      15.47879164      13.02165250       0.27092314      -0.99146584       0.50371953
F        8.39978752      14.31836216      13.47180157       1.30996268      -0.28705368       0.10034398
F        9.90803235      15.91216942      13.80789198       0.75662213      -0.23662821       0.45455756
F        9.49071768      15.19021301      11.87017996       0.36560016       0.01399571      -0.48644038
C        8.17092079      17.79046381      12.21381028       0.67931060      -0.40408480      -0.01814723
F        9.09630375      18.45123822      12.99760501      -0.35268225      -0.04892508       0.56138839
F        7.14382508      18.59926029      12.11146209       0.36422511      -0.27073594       0.62686232
F        8.73670238      17.65140804      11.03466934      -0.38598899       1.10715738       0.90099071
H        7.69197998      17.39326133      14.45687877       0.19287322      -0.02174073       0.15611083
H        7.06275823      15.98933526      12.20901816      -0.02632313      -0.05174294       0.15119330
O        2.26321414      14.97900593      15.27257349       0.44771343       0.89230111       0.06186577
C        2.76984578      16.16458017      14.89336136      -0.56520482       0.93055870      -0.98042795
C        3.21692399      16.07966802      13.39962950       0.62843245       0.30564301       0.17543978
F        2.19805660      15.64529526      12.61458765      -0.28910207       0.43685637      -0.30064474
F        4.10712857      15.05869073      13.30133367      -0.43579772       0.74822115       0.20405045
F        3.73069607      17.19583491      12.90252296       0.36619135       0.89709654      -0.64128112
C        3.89849074      16.71679295      15.79230611      -0.51836425      -0.83510376      -0.54719972
F        4.88114281      15.81199344      15.92687128      -0.31852866       0.23116020       0.74832312
F        3.37685569      16.88406913      17.03885797       0.63249669       0.22845068      -0.44349205
F        4.38417798      17.89513039      15.43379373       0.14772109      -0.12359383      -0.33519090
H        2.96649391      14.34396795      15.46845966      -0.07366651       0.22983524      -0.01979447
H        1.94901694      16.87915119      14.94886940      -0.16975125      -0.25554232      -0.32824455
O       10.44741148      12.78385580      15.36016628       1.83595004      -0.36780892       0.72851098
C       11.63939031      12.24447423      14.92351146       0.43790730       1.09580171       0.15479468
C       11.32410478      11.52154895      13.63493231       0.25062140       0.09324985       0.95141258
F       10.85233951      12.42072928      12.76724620       0.52639402      -1.28495569       0.42173619
F       10.38590783      10.50126565      13.78134846       0.19413023       0.45538338      -0.97712884
F       12.37616130      11.04878866      13.06115066       1.08879838       0.42232302       0.55289445
C       12.32904814      11.34622740      15.97564423      -1.13029384       0.76042919      -0.14078753
F       11.48870777      10.32013377      16.30878930      -0.61628575      -0.04225234       0.16660464
F       12.52152926      12.03514740      17.11566686      -0.20339647       1.37804819      -1.41328583
F       13.44894308      10.77809093      15.62883552       0.40083062       0.49073758       0.21862803
H        9.71131874      12.11648956      15.30259507      -0.13348067       0.08277227       0.14701754
H       12.37666300      13.05712431      14.80081663      -0.11566413      -0.10675620      -0.01621358
O        4.43980751      15.78452058       7.52328906       0.26380099       0.76928520       0.77412674
C        5.18483513      14.95190109       8.33277967      -0.21319736      -0.24240529      -0.05705618
C        6.54355409      15.58605840       8.65952778       0.30778456       0.71558807       1.41595998
F        6.35346254      16.76585651       9.29348235      -0.74289971      -0.17292585       0.11020687
F        7.21228546      15.84347993       7.58894792      -0.01062774       0.02414265      -0.03433919
F        7.20783534      14.77031858       9.43938305       0.75103284       0.58258671       0.30456728
C        5.32642991      13.57765897       7.69682459      -0.78958506      -0.52642654      -1.16164693
F        5.89492243      13.66625190       6.51994816      -0.49025151      -0.08954077       0.46112866
F        4.11648987      12.97060821       7.46931794       0.19317365       0.73818774       0.48778034
F        6.01426956      12.73728797       8.55370724      -0.49383497      -0.52974213      -0.35699786
H        4.92663159      16.02762901       6.69639530      -0.01310270      -0.56917247      -0.08815827
H        4.54942444      14.86519150       9.24718808       0.02361087       0.03421211       0.03595013
O        9.99162944       5.17113794      16.06307883       0.52990221      -0.99760691      -0.51569837
C       10.87889057       6.22440240      15.88419696      -0.18187379      -0.39582423       0.12153193
C       10.92656392       6.67238348      14.35852277      -0.28550782      -0.19608502       0.11778286
F        9.69119934       7.02413339      13.96511033       0.59681319      -0.97933397       0.51984304
F       11.32399167       5.71737597      13.53272107       0.77032792      -0.21564872       0.06098544
F       11.71177653       7.72708036      14.22882154       1.02926781      -0.18237952      -0.34660575
C       12.23977869       5.87887209      16.41440378      -0.55776155      -0.36224999       0.40868291
F       12.75575099       4.80466744      15.71198215      -0.42445967      -0.62949744      -0.54565092
F       12.02473008       5.48328741      17.69239367       1.02204228       0.66354169      -0.11365140
F       13.09305465       6.87366199      16.38671300       0.19966626       1.47171348      -1.05309093
H       10.20326698       4.52422100      15.34730399      -0.26001173      -0.11422515       0.13311252
H       10.49903792       7.10091706      16.39450104       0.15105365       0.50373714       0.07772832
O        0.36218317       9.04073044      16.38900093       0.66669322       0.71833494       0.71508777
C        1.34536572       9.87790595      16.90872810       0.12576928       0.75712168      -0.25008855
C        1.33664439      11.31047306      16.26441210       0.18599137      -0.06467408       0.13876408
F        0.11785456      11.80697089      16.52203245       0.39019448       0.07695542       1.73475729
F        1.41367462      11.20313830      14.95438932      -0.38389114      -0.82248125       0.10280177
F        2.29448614      12.08360319      16.71529713       0.59883184       0.49587543       0.80469956
C        2.69383689       9.14486382      16.71553522      -0.57524366       0.78516736      -0.35211547
F        2.91970365       8.89856658      15.41713072       1.07747085      -0.50546313      -0.36356143
F        2.65895951       7.94075939      17.31351846       1.17916364       1.10233175       1.60966321
F        3.74406404       9.83116715      17.17265185      -0.62085801       0.25282574      -1.06850978
H        0.50622250       8.93285704      15.41919013      -0.01161094      -0.09620569       0.30902936
H        1.24813498      10.00593130      17.98796097       0.09302266      -0.14991200      -0.05730019
O       13.19309870      15.83203267      13.88286351      -0.04736689       0.08187707      -0.30458386
C       14.02717245      16.48204456      12.95603658       0.06588379       0.40166285       0.42560424
C       14.97820841      17.50280334      13.76719762       0.10030721       0.94611846      -0.23129944
F       15.68202031      16.82209319      14.68973753       0.08941620       0.26122343      -0.18291016
F       14.30974929      18.47937572      14.32770599      -1.30570191       0.55284275       0.39158998
F       15.83798893      18.13233757      12.89498388       1.20922836       0.31425674       1.20251003
C       13.36605934      17.15435351      11.71994269       0.19175567       0.19035689      -0.12135907
F       12.56502003      18.09229859      12.13501647      -0.68429168      -1.06853856       0.62306961
F       12.65138676      16.21027096      11.12930029       0.09733665      -0.84786114      -0.23369747
F       14.14710826      17.75385225      10.85349044      -0.06449118      -0.56779741       0.92762368
H       12.45017228      16.39748548      14.12169055       0.00307436      -0.01955385      -0.08521838
H       14.72484819      15.74100085      12.53384787      -0.02430686      -0.09815973      -0.01984221
O        7.96239690       2.67561681       2.24251083      -0.01542503      -0.35925276      -0.08121366
C        6.65107343       2.72105877       2.78445852      -0.47566001       0.18723920      -0.23354484
C        6.08172509       4.15042179       2.72780887      -0.06623548       0.94690714      -0.03074036
F        6.07505342       4.54733899       1.42457214      -1.33223667       0.41339487      -0.59499190
F        6.87427380       5.01125282       3.40254813      -0.04099594       0.72929264       1.56290956
F        4.85785479       4.25234489       3.20070493      -0.71034206      -0.38632125       1.04038514
C        6.67405575       2.06530615       4.15813288       0.34817317      -0.41389738      -0.28277023
F        7.51620101       2.67877857       4.96553699       0.17435116       1.23737610       0.46126470
F        7.02196697       0.82745426       4.08010950       0.75050795       0.89449453       0.13612190
F        5.45852449       2.12642840       4.70245360      -1.23813318      -1.29008788      -0.30015667
H        8.57599899       3.21803459       2.76984037       0.09695245      -0.21771254       0.20771650
H        6.01264834       2.15015026       2.12058821       0.08353360      -0.25263216       0.02078934
O        8.32552077       7.06059815      10.57592413       0.61432733      -0.38675858      -0.32919774
C        7.00229686       7.05930332      11.07376604      -0.49913580       0.51731710       0.82280514
C        6.38574833       5.60539860      10.74833888       0.82197579      -0.19279154      -0.54457453
F        7.15097841       4.63829835      11.34857877      -0.97579010      -0.13225146       0.05551297
F        6.38524479       5.43525441       9.40941534       0.60279617      -0.49576808      -0.43861005
F        5.15095331       5.47707589      11.25033803       0.42637637      -1.43619940       0.24126187
C        6.13127213       8.20336630      10.52199768      -0.96674398      -0.47873080      -0.34209170
F        6.10729602       8.12456953       9.16910765      -1.13078148      -0.17172652       1.10167822
F        6.72725081       9.35317484      10.97194984       0.20787443      -0.51933245      -0.01346761
F        4.88012121       8.11289675      10.94400327       0.08188906      -0.95394731       0.68124470
H        8.30932815       7.09686336       9.58505089       0.12034747       0.38469978      -0.00628213
H        6.97527856       7.11704591      12.14908051       0.03197158       0.00601765       0.23573227
O       14.30328850      15.09098086       5.94392565      -0.28264618       0.15943934       0.65770215
C       15.36696020      15.74700213       6.56822925       0.15489684      -0.40153394      -0.16591474
C       15.38655414      17.15022489       5.99653909       0.04355179       0.00551125       0.83687744
F       14.15765969      17.72112323       6.14966862       0.54312425      -0.14044426      -0.51621128
F       15.61553903      17.14880066       4.69466429       0.08752085       0.03358191       0.59000976
F       16.24742685      17.98751275       6.61594897      -0.13562164      -0.28481306      -0.05515486
C       16.71383567      15.06251223       6.55056999       0.19393831      -0.26669690      -0.02723778
F       17.07118364      14.82618596       5.23950091      -0.46472580      -0.40958709      -0.32580962
F       16.63214883      13.88648807       7.12964337      -0.48947341      -0.38638272      -1.08463954
F       17.64816805      15.74404725       7.16424546       0.50410355       0.08467763      -0.87302916
H       14.52603539      14.62375135       5.11952779       0.08071167       0.31672117       0.04105565
H       15.11933135      15.87675157       7.69235124       0.02457472      -0.13327666      -0.17112444
O        2.68177264       7.63470004       6.16484986       0.12483466      -0.42447127       0.85052675
C        3.09585592       6.33024716       6.13757193       0.39183364       1.03674363      -0.80337231
C        2.54336739       5.52829160       7.31024731      -0.20409382       0.75706271       0.25380752
F        1.15660163       5.53372046       7.24728067       0.79893910      -0.94550861       0.95069008
F        2.92718328       6.00767346       8.46072179       0.84964655      -0.17512077      -0.85948295
F        2.90885274       4.23191636       7.21951565      -0.84432894       1.20184479       0.30531143
C        4.60478881       6.31631155       6.07948759      -0.28624396      -0.44361881      -0.55153243
F        5.20078910       6.89043768       7.09014811       1.12476696       0.29448243       0.63867920
F        4.99724838       6.99837889       4.88995876      -0.68319060      -0.43108954      -0.96708145
F        5.13795404       5.06838070       5.96723237       0.28097680      -1.56158040      -0.11349137
H        1.75364093       7.74399598       6.17014520       0.02641890       0.02854051       0.17181086
H        2.81628597       5.81357813       5.25023622      -0.20914655      -0.23320563       0.16776830
O        9.92267921       4.12058392       9.24169768       0.32439074      -0.13054845       0.38899090
C       10.65547649       4.08507890      10.44911885       0.05244354       0.17809272      -0.54133182
C       12.16041537       4.36664951      10.16765888      -0.79311733       0.14218321       0.05742285
F       12.28996456       5.57728531       9.65174883       0.08081276      -0.10004896       0.71988065
F       12.62667015       3.38113269       9.33068333       0.27291985      -0.00928190       0.34900421
F       12.86139344       4.32272155      11.31218998      -0.43477970       0.42535558       0.75374996
C       10.41511068       2.75759007      11.18312706       0.94318040       1.22062363      -0.49125395
F       10.80507661       1.72768323      10.44263624      -0.36865749      -1.74795903      -1.02166638
F        9.09703676       2.70514422      11.40540077       0.52381335       0.69354982       0.09199513
F       11.03583156       2.69458336      12.37437846       1.10986201       0.18983945      -0.07300808
H       10.25359699       3.44255488       8.68641621      -0.00902356      -0.27101682      -0.29055282
H       10.32549391       4.84102886      11.08040594      -0.05902889       0.16726892      -0.02664706
O        8.17968068      10.86681169      15.30592037      -0.29537647       0.16686032       0.80156596
C        7.01383149      10.86967519      14.51984325       0.97457699       0.06748919      -1.12377700
C        6.00356007      11.83293119      15.10207538      -0.36071411       0.00589442      -0.37767888
F        6.47100369      13.07774323      15.09965764       0.54101304       0.31147367       0.76443246
F        5.63300917      11.48750355      16.33835233      -0.62185106       0.95010054       0.65328448
F        4.86191983      11.92042435      14.36357334      -0.77146929      -1.78250000      -0.59709372
C        6.48180354       9.41070553      14.38509493       0.85550677      -0.40773397      -0.50892484
F        6.20094654       8.83795336      15.58143107       0.39271828       0.19684551       0.72056002
F        7.43981645       8.70651454      13.78980205       0.56958600       0.48658920       0.96704839
F        5.42477954       9.36035231      13.55411456       0.84595869       0.40770774       0.38031480
H        8.50552680       9.98636682      15.60239735       0.19350113      -0.06540586      -0.27614969
H        7.25497995      11.17284527      13.50436666       0.34257685       0.29360887       0.34553453
192
Lattice="18.426763857039404 0.0 0.0 0.0 18.426763857039404 0.0 0.0 0.0 18.426763857039404" Properties=species:S:1:pos:R:3:momenta:R:3 Built=T with=T Packmol=T charge=0 spin=1 external_field="_JSON [0.0, 0.0, 0.0]" pbc="T T T"
O       15.74433002       6.31137826       8.39790687       0.50901273      -0.96045611      -0.07487109
C       15.56174748       7.54290387       7.80472291       1.22560262      -0.19074889       0.44477551
C       14.88080091       7.35578572       6.35992930       0.21975574       0.25384826      -0.67151656
F       13.71119923       6.72784961       6.39272357       0.48053398      -0.37917243       0.61407687
F       15.71094462       6.50482011       5.69175661      -0.43485837       1.17218428      -0.60270538
F       14.76142162       8.44275916       5.61200612      -0.81169930       0.34968867      -0.14592544
C       16.88122452       8.37813952       7.69424924       0.53402119      -0.46552239      -0.48422667
F       17.81649272       7.72311822       7.03044269      -0.76380262       0.37732500       0.00404639
F       17.22391661       8.68042451       8.97702893      -0.32794336      -1.22850163       0.10816877
F       16.54539790       9.58255036       7.14543933       0.26234893       0.04757039      -0.16845634
H       16.25171708       5.71496629       7.87591247      -0.31822162       0.29668285       0.14577225
H       14.88941066       8.16674400       8.50798773       0.10045507      -0.08687501      -0.06763260
O       14.65921042      12.58341509       4.34449156       0.68953893      -0.02539565      -0.26230512
C       13.96231805      12.22250261       3.14901714      -0.20076011       0.22104106      -0.27641551
C       12.50887666      11.81664397       3.40834308       0.71355043       0.57391645      -0.10324343
F       11.83384139      12.80185025       4.00741514       1.19260734      -0.48050012       0.13060061
F       12.53324356      10.76753185       4.30737865       0.57897530       1.03473954      -1.17414949
F       11.85837220      11.46280422       2.32018963       0.52847586       0.07617314       0.10626694
C       14.77748912      11.08853062       2.47792602      -0.35950256      -0.09460117      -0.32621843
F       14.83304177      10.02699740       3.23035153      -0.25819442      -0.51166784       0.09104480
F       16.02342886      11.46560714       2.21085906       0.35504998       0.37198256       0.94003805
F       14.31083178      10.68187906       1.23818027       0.87618443      -0.88080765       1.30694687
H       14.82808255      11.74023175       4.84964124      -0.38989372       0.01928179      -0.32698530
H       13.90820939      13.20246351       2.54785030       0.11817094       0.10461762       0.29427708
O       13.32582819       2.98007637       5.11932653      -0.13101697       0.55485395      -0.47117917
C       12.79848275       3.31861572       3.86445339      -0.46289367      -1.09128262      -0.74621184
C       11.26927656       3.60913831       3.98994388       0.86060899       0.74213056       0.25360958
F       11.13421697       4.58594830       4.92269306       0.65953430       0.72723958       0.28382750
F       10.58116047       2.59087250       4.41698295      -0.11749178       0.15893330      -0.40578947
F       10.73451937       4.07029353       2.84206565       1.09917724       1.22782855      -0.26760092
C       13.10688591       2.21850709       2.76858741      -0.91277984      -0.10761609       1.91006364
F       12.64705139       1.02598097       3.14697111      -1.08829968       1.26601278       0.72105368
F       14.45225309       2.06062560       2.60993779      -0.18433848      -1.37232174      -0.35455762
F       12.64071733       2.53014834       1.59810407       0.54761352      -0.54382407      -0.16209351
H       13.11647768       2.07366693       5.34714609      -0.01892603      -0.08543003      -0.25643541
H       13.32316977       4.24983854       3.62144077      -0.26910228       0.10442101       0.04219301
O        7.16356424      16.70294012      14.09334525      -0.75725945       0.82029909       0.19621103
C        7.74433582      16.43927428      12.83206702       0.30150379       0.07769945      -0.07328851
C        8.90822859      15.45992604      12.99805777       0.01235280      -0.25394264      -0.25112267
F        8.35588483      14.33876927      13.53768234      -0.21997098       0.01937578      -0.45047560
F        9.92543731      15.91602467      13.81510585       1.28391653      -0.36424150       0.96627238
F        9.49980607      15.23600186      11.82707022       0.24677164       0.42227161       1.19716327
C        8.22985051      17.76221778      12.23438573      -0.05406052       0.52097671       0.38377222
F        9.11223930      18.38394815      13.01270262       1.18542647       1.07145785      -0.29042934
F        7.18710177      18.58227226      12.12248497      -0.00161757       0.24706471       0.55132754
F        8.77128392      17.64894288      10.97022070      -1.75351072      -0.80738444       0.25888894
H        7.66353828      17.40749558      14.50029379      -0.01901463      -0.25796116      -0.24048784
H        7.06677343      15.96113914      12.17508288      -0.17625284      -0.10448783       0.46334211
O        2.07319550      14.82216992      15.35367595       1.13205311      -0.44507621       0.82294728
C        2.59608198      16.09981415      14.99363747      -0.33839516      -1.20047626      -0.10321436
C        3.05485647      15.96233575      13.51702898      -0.15390673      -0.05100558      -0.46028252
F        2.10169967      15.51788254      12.65657609      -0.29712353       0.91065838       0.30173284
F        3.93108904      14.97923697      13.46223416       0.00143475       0.29074917       0.21612761
F        3.56907015      17.08460951      13.03638157       0.73251044      -0.68092959       0.57889180
C        3.73487458      16.56256854      15.93370831       0.23730192      -0.64408315      -0.80814438
F        4.75158000      15.65489830      15.96025561      -0.78106066       0.48207924       0.56594710
F        3.20351676      16.78360828      17.21209883      -0.32334144      -0.41126012      -1.06460672
F        4.24675668      17.72319123      15.65002817      -0.52580503       2.21409150       0.24401998
H        2.84825698      14.26371627      15.58272124      -0.03577946       0.16912528       0.02664111
H        1.82568280      16.91826355      14.99219822      -0.13970988       0.03149086       0.13769211
O       10.44710243      12.82215189      15.36915809       0.03234442      -0.67343564      -0.77475608
C       11.58837331      12.21864686      14.97317875       0.25690122       0.10644461      -0.03211240
C       11.29209825      11.49959821      13.59340874      -0.02673786       0.37422672      -0.30829577
F       10.79962391      12.39802289      12.74175549       0.75406246       0.75738603      -0.05827253
F       10.45474335      10.49966353      13.77169123       0.19017210      -1.25738695       0.30592085
F       12.43668356      11.03888268      13.11210296      -1.11118384       0.45716873      -0.26935179
C       12.25872710      11.32627999      16.00543654      -0.80311521       0.28887964       0.81482436
F       11.38174375      10.31287389      16.37845781       0.40106061       0.17431598       0.11126142
F       12.53148855      12.07974410      17.09044681      -0.33766530      -0.79763309       0.55280147
F       13.41586873      10.75331806      15.66077490       1.85132859       1.79918726      -0.28737802
H        9.77089519      12.14079424      15.45682043       0.16324971      -0.04511016      -0.13113901
H       12.34402479      12.96501985      14.79811212       0.08941527      -0.06764186       0.10832918
O        4.27195469      15.80159102       7.62155322       0.08186304       1.15164656      -1.15804142
C        5.01153672      15.00078195       8.44081858       0.33886166      -0.37542125      -0.41505766
C        6.38494776      15.61790039       8.73568397       0.24742585       0.05075248      -0.02169190
F        6.23355089      16.80842045       9.40348912       0.78263839       0.42319717       0.79255244
F        7.09120820      15.86953337       7.59023108      -0.73663482      -0.39551870      -0.31983086
F        7.10018574      14.84776905       9.57372273      -0.48151123       0.34578680      -1.22383630
C        5.11835741      13.60439614       7.84297928       1.22612955       0.12295673      -0.35008999
F        5.74751731      13.71961059       6.66345569       0.04166925       0.34956077       0.53178794
F        3.98228926      13.05993206       7.57834821       0.97843750      -0.49369461      -0.81648377
F        5.87741950      12.74361072       8.61451128       1.35983600      -0.45574535      -1.13588763
H        4.76271084      16.08200630       6.85086724      -0.22771040      -0.07509764      -0.03103546
H        4.54245666      14.96656741       9.42099981       0.03509230      -0.12796482      -0.07573648
O        9.92949593       5.04786731      15.66861195       1.00558268      -0.08844836      -1.14665526
C       10.81790524       6.10465670      15.69523515       0.20272658       0.19414569      -0.06590892
C       11.06939418       6.76955952      14.31719537      -0.64566334      -0.89224284       0.43308142
F        9.87452651       7.02918107      13.74330526      -0.09048661       0.67231450       0.95032467
F       11.68690921       5.90139279      13.46969399      -0.07872888      -0.90485003      -0.46708089
F       11.74419033       7.93201503      14.44307902      -0.21375161       0.16800852       0.02822622
C       12.07935021       5.84249748      16.49520401       0.16659816      -0.50469820      -1.02910546
F       12.78589712       4.86667022      15.93482265      -1.36309650      -1.10095871      -1.03394907
F       11.78852841       5.29728548      17.74329363      -1.69191418       0.13389553      -0.16652573
F       12.75731224       6.94215147      16.73147295       0.31490164      -1.04761461      -0.77056722
H       10.41900363       4.39219185      15.14647548      -0.04796815      -0.14962161       0.08450627
H       10.36544594       6.91895942      16.25169792       0.20212547      -0.10245071       0.02071796
O        0.29485785       8.99282886      16.39510842       0.37903834       0.78109849       0.00533598
C        1.28032351       9.87018771      16.87034056      -0.21382576       0.83253257       0.34414725
C        1.30625152      11.24893746      16.25391293      -1.45799905      -0.13742959       1.10375273
F        0.06033895      11.75564854      16.53897086      -0.07397274       1.07810574      -0.76257845
F        1.40162562      11.20372310      14.93875136      -0.01405770      -0.33219421       0.06545688
F        2.18938347      12.06799314      16.73118096       0.84461774      -0.13746129      -0.23979678
C        2.62003483       9.14862931      16.71509077      -0.63328607       0.29251083      -0.95872773
F        2.81957711       8.92474491      15.35996151       0.56367504       0.08067642       0.29598422
F        2.64226763       7.94188763      17.29908671      -0.53252236      -1.10900924       1.54060291
F        3.69273556       9.82706899      17.16886977       0.64157689      -0.30730906       0.15217430
H        0.31410764       8.87717662      15.44677198      -0.00086740      -0.15116903       0.00152365
H        1.07768016      10.03521448      17.92792656       0.06607448      -0.06955006      -0.17961518
O       13.31622778      15.64319959      13.60329954      -1.44772044       0.26509274      -0.66860120
C       14.28820613      16.40764718      12.86275586       0.81289306      -0.85564492       0.25836755
C       14.92040457      17.52546365      13.68735190       0.68088811       0.62534182       0.57764909
F       15.52370668      17.00034664      14.77387183      -0.05128827      -0.78596250       0.56611274
F       14.02092486      18.43566520      14.16931314      -0.52490376       0.10762821      -0.97635035
F       15.75675400      18.28341963      12.97411205       0.94867674       1.11287883       0.91903964
C       13.65500766      17.01317075      11.54763516       0.97932661      -0.20503238       0.77056781
F       12.58798501      17.82139924      11.77585515      -0.29085523      -0.52487745       0.22786457
F       13.24464040      15.96608441      10.80540108      -0.36321777      -0.54035016      -1.08918896
F       14.49413304      17.62858096      10.75061839       0.99533233      -1.35021819      -0.72474070
H       12.52783344      16.14734342      13.82342837      -0.03706146       0.01916160      -0.31131282
H       15.00766118      15.61116465      12.48477521      -0.12928183      -0.05599486      -0.11401916
O        8.01938522       2.79369518       2.31613050      -0.15774656      -0.36638391       0.09093262
C        6.67682011       2.76437522       2.76435857      -0.24447362      -0.63860746      -0.18082983
C        6.06956815       4.20158908       2.73688004       0.71676000      -0.53346145       1.22779251
F        6.04876824       4.58295339       1.46466327      -0.82270343      -1.10826546      -1.05727330
F        6.78843423       5.10330718       3.38986078       0.55800664      -1.09764897      -0.88968817
F        4.82127326       4.31354125       3.15822394       0.71592078      -0.11641034      -0.34097539
C        6.70056770       2.14617641       4.14756869      -0.83198555      -0.75576086       0.17739712
F        7.54763577       2.70036592       4.95726877      -0.70687304      -0.48311370       0.33689495
F        7.03227172       0.87299182       4.03088834      -0.01625404       1.16694116      -0.17532514
F        5.47826669       2.23360713       4.73438557      -0.74437398       0.85707241       0.64132187
H        8.56783352       3.37641295       2.81584692       0.01888453      -0.15611290      -0.14795023
H        6.14462974       2.12450185       2.02283811       0.07840501       0.05155430       0.20836578
O        8.28989978       7.11409568      10.53426356      -0.15571721       0.74818385      -0.72640032
C        6.97105912       7.02261795      11.01939672      -0.29836982      -0.03241906       0.65935286
C        6.38038552       5.62941441      10.73845852      -0.23455188       0.36253715      -0.52080509
F        7.10731519       4.61693224      11.35480319       0.46513795       0.29550027      -0.10236257
F        6.40002263       5.41154631       9.42600651       0.33064994       0.47000145       0.24871765
F        5.14801703       5.47091229      11.21874690       1.01495589      -0.44969187       0.83384787
C        6.17218754       8.17442944      10.52196912      -0.99652590       0.40537592      -0.62791982
F        6.11530336       8.15752892       9.20131348      -0.58543281      -0.43534403      -0.73458813
F        6.68682649       9.35506622      10.92289505       1.17687135       0.42151996       0.13698800
F        4.89790660       8.03485956      10.94363976       0.51927923       1.56823116       0.60754581
H        8.25544121       7.14565430       9.56851891       0.29560861      -0.19920767      -0.04787102
H        6.94598609       7.05515915      12.10300122       0.00138277      -0.14438678       0.37620421
O       14.25449951      15.08264644       5.97253323      -0.02753279      -0.80482178      -1.56720525
C       15.34753317      15.76519895       6.60645178       0.85908088       0.68197270      -0.50810285
C       15.41861423      17.13398204       5.98647983      -0.29559197      -0.06955209      -0.48586059
F       14.14333159      17.65605703       6.17518811       1.45933922      -0.13494081      -0.91984242
F       15.58887880      17.17368973       4.70462516      -0.61206965      -1.15872406      -0.31038863
F       16.27170613      17.99718190       6.64685298      -0.03594358       0.49032139      -0.73162450
C       16.70848343      15.01983414       6.47265195       0.24605244      -0.25610432       0.04204760
F       17.11388999      14.80591584       5.23110023      -0.47401884      -0.65942241       1.25141568
F       16.67954757      13.84483374       7.11765834      -0.67311995       1.06382475      -0.48064635
F       17.65352775      15.79272157       7.08232464      -0.78325987      -0.54919516      -0.41622566
H       14.64115931      14.64662770       5.20718864      -0.45684506       0.18475962      -0.00927110
H       15.16091720      15.87133515       7.64080870       0.10783473      -0.18294250      -0.10821442
O        2.69397015       7.64333813       6.23021957       0.45620461       0.48614775      -0.77972228
C        3.14716883       6.30509720       6.14725145       0.03237747      -0.49036721      -0.03801005
C        2.58792209       5.45128688       7.35358617       0.05980318      -0.03384948      -0.40940319
F        1.16100081       5.51080118       7.27490699       0.14591883      -0.07394853       0.50767400
F        2.89936851       5.95590795       8.54202856       0.63602533       0.75969049      -0.48363449
F        2.83800234       4.19826213       7.23742486      -0.46200980       0.21127937       0.54033270
C        4.68266910       6.31381087       5.98765729       0.50851390      -0.17415241      -1.37543089
F        5.27405687       6.87922524       7.06377925      -0.85846889      -1.32512150       0.14712711
F        5.03498400       7.00505341       4.94608236      -1.16002858      -0.68514099      -0.72136357
F        5.16005708       5.08648691       5.96709299       0.48324283      -0.33291250       0.72543745
H        1.77186850       7.68570226       5.93657597      -0.07024297       0.02255841       0.12193685
H        2.69279170       5.87318727       5.26162799       0.26999659      -0.08870583      -0.01502512
O        9.88661922       4.23977445       9.29602954       0.07448226      -0.38236990       0.15298398
C       10.65905575       4.13570706      10.49963840      -0.04186378      -0.26667730       0.38648458
C       12.14974171       4.29270678      10.06363145      -1.02156774      -0.10800031       0.61693352
F       12.27630198       5.55222601       9.57267150      -1.66463868      -0.31869144      -0.47815759
F       12.50670459       3.38959333       9.17592378      -0.15441054      -0.01031027       0.22612216
F       12.91704914       4.19767918      11.21336236      -0.58356879       0.02990505       0.56921057
C       10.44221999       2.76110653      11.17861979      -0.11491269       0.10867975      -0.37767995
F       10.74628130       1.69869286      10.41267129       0.05739431       0.81478698       0.20254567
F        9.09373338       2.65954113      11.55469077       0.53896202       0.78947686       1.37862337
F       11.12944910       2.70539840      12.33988504       0.94286193      -1.16543269       0.44182060
H        9.89078666       3.39091978       8.78335001       0.09160012       0.07339146      -0.11713983
H       10.36982630       4.93297126      11.16676774       0.04313142      -0.03250062       0.02523008
O        8.14188072      10.85775546      15.31347510      -0.04090435       0.28150272       0.84960507
C        7.03557579      10.85671278      14.50435987       1.03475518      -0.72303133       0.32991644
C        5.98639283      11.87068020      15.10379498       0.37343927       0.40993547       0.28715008
F        6.49426802      13.14275558      15.04438353       0.60042730      -1.02904828       0.85792911
F        5.65288898      11.50968559      16.37754525      -0.11076493       0.06786590      -1.79110251
F        4.81722240      11.90337621      14.39061375      -0.46780913      -0.93183946      -0.63719678
C        6.50170219       9.43593918      14.35962120      -0.08676925       0.60760395      -0.07924511
F        6.27584234       8.85552216      15.52730343      -0.53406481       0.30022651      -0.30171395
F        7.46131431       8.67473363      13.80058672       0.55074713      -0.44426291       0.68819017
F        5.44732565       9.43256459      13.57994419       1.63140642      -1.30723554      -0.05988755
H        8.37099327       9.95194994      15.63921853      -0.15834579       0.17591152       0.12255866
H        7.14767487      11.19070464      13.47100493      -0.03663431       0.03923060      -0.17666305
192
Lattice="18.191302741785545 0.0 0.0 0.0 18.191302741785545 0.0 0.0 0.0 18.191302741785545" Properties=species:S:1:pos:R:3:momenta:R:3 Built=T with=T Packmol=T charge=0 spin=1 external_field="_JSON [0.0, 0.0, 0.0]" pbc="T T T"
O       15.47120218       6.05614861       8.39718222      -0.58933087       0.37980167       0.16841845
C       15.27213013       7.32171787       7.80902557       0.15398215      -0.03321438       0.49736860
C       14.59995589       7.07775045       6.32199993      -0.55100688       0.81995580       0.29637963
F       13.43096813       6.47874018       6.37196941      -0.13531717       0.31819627       0.42622369
F       15.45595839       6.26035692       5.66516401      -1.08498713       0.13412800       0.76390654
F       14.46173604       8.18674665       5.59071667       0.41609082       0.48548363       0.50994561
C       16.54273740       8.13302306       7.68030525       1.38025610      -0.08032723      -0.09723158
F       17.54218170       7.48831325       6.99490812      -0.30766756      -0.47172158       0.84398599
F       16.91508429       8.43603004       8.93905375       0.45548933       0.31561232       1.29920473
F       16.26502212       9.34596306       7.13993498      -0.45551390       0.11390529       0.16204762
H       16.00861517       5.56951173       7.69471548       0.02081113      -0.19472984       0.10348917
H       14.64935842       7.86449578       8.43346700       0.16981667      -0.06280493      -0.00373561
O       14.41743609      12.31063084       4.38798299       1.09342218       0.77683674       0.57063941
C       13.73230092      11.95875822       3.23024376       0.17394944       0.60071390      -0.46178059
C       12.30356649      11.54612473       3.53458626       0.05617667       0.66464459      -1.46914998
F       11.60513505      12.56143300       4.08227868       0.60581786       0.04258814      -0.50156606
F       12.31360668      10.49852016       4.36452313       0.55690100       0.79134272       0.15349851
F       11.65542427      11.21572219       2.38764177      -0.20984818       0.18083377      -0.39837791
C       14.59413098      10.82324177       2.50105521      -0.11842963       0.15676348       1.33279002
F       14.64202686       9.78087448       3.29645483      -0.54465749       0.47101074      -0.44497406
F       15.83717522      11.21354497       2.29419851      -0.83469343       0.16047609      -0.84047128
F       14.08299415      10.44648761       1.28269100       0.66509354      -0.36640217       0.10496411
H       14.59834812      11.51575073       4.87509130      -0.01587813       0.10439551      -0.14731651
H       13.69380883      12.81954828       2.65767765      -0.00698916       0.13348362       0.18470702
O       13.12301709       2.82313500       5.15693435       1.08307045      -0.54190874      -0.61601417
C       12.63339631       3.12555317       3.82883425       0.22687987       0.39964879       0.61606025
C       11.08075589       3.46520095       4.00736674      -0.32651344      -0.84324431      -0.26551517
F       10.95874560       4.42506771       4.89653320       0.33956713      -0.66338080       0.89234584
F       10.41567559       2.41379897       4.43084217       0.20020902       0.28494480      -0.44107816
F       10.56595611       3.90815213       2.85547783       0.18010686      -0.49735309      -0.28861818
C       12.92832190       2.01551778       2.75966747      -0.04172332       0.27019076      -0.40341785
F       12.43823267       0.84534053       3.17070673       1.49496586       0.20895172      -0.69516744
F       14.24386599       1.89476973       2.63623737       1.30727592      -0.36496431      -0.86474205
F       12.46887829       2.33857620       1.58236804       0.44798050       0.41517807       0.97816392
H       12.80614264       1.93909516       5.41972157       0.22978869      -0.16581644      -0.06596815
H       13.04779350       4.05658518       3.44493957       0.17439768       0.13893496       0.26934142
O        6.82558935      16.44055379      13.62933672      -0.36435113       0.28440484       0.79149954
C        7.71873209      16.16721292      12.54970617      -0.99625901      -0.24538590      -0.14410762
C        8.90618365      15.35347172      13.07895458      -0.45771019      -0.34935528      -0.74919720
F        8.35441621      14.25227775      13.65087978      -0.23472068      -1.00329738      -0.24484622
F        9.69764176      16.03943030      13.99999638      -1.07105317      -0.08385525      -0.64025571
F        9.66598872      15.06727302      12.05824673       1.02663919       0.61559298      -0.05758541
C        8.09537566      17.40719939      11.82770751       0.03625932       0.09401531       1.33013091
F        8.72398012      18.27680112      12.70662390       0.47279646      -0.52720435       0.28339396
F        6.99291681      18.07310659      11.47820967       0.69111531       0.51302504       0.05290289
F        8.88294630      17.25374901      10.77118951       0.17502073       0.12040724      -0.52391660
H        7.17533900      17.31553145      13.98918124       0.06257502      -0.04750557      -0.03573759
H        7.16408779      15.43895503      11.89988773      -0.10370786      -0.14040290      -0.12726079
O        2.02157660      14.59108689      15.06970663      -0.69414644      -0.04629719      -0.35350247
C        2.54845038      15.87172053      14.75934855      -0.20859402       0.87518081       0.52121053
C        3.06800507      15.77970654      13.27597871      -0.04562435       0.73295363       0.41437760
F        2.17210106      15.41427069      12.36368724      -0.65156224      -0.52926131       0.92132771
F        3.98356206      14.78759185      13.27545621      -1.87640092       0.94866774      -0.52656089
F        3.59335495      16.95219823      12.91496390       0.39780882      -0.36833702      -0.56517874
C        3.63494400      16.30594112      15.75827313       0.08890456       0.19062394      -0.09785620
F        4.66241932      15.41960831      15.79105054      -0.02357671      -0.97002884       0.61779232
F        3.09820684      16.42855097      17.01736849      -1.40338763       2.24051232       0.99517913
F        4.20100892      17.48048096      15.55269008      -0.86928357      -0.42815933       0.53683113
H        2.77028402      14.00290390      15.31039846      -0.12923127       0.17773000      -0.04116324
H        1.77315428      16.61390617      14.83281573       0.29885274       0.04063376      -0.17067255
O       10.28525611      12.69631069      15.18315615       0.36007236      -0.38571524      -0.29788233
C       11.47696930      12.05168820      14.78193851      -0.85144215       0.14903620       0.62270325
C       11.18707839      11.35306276      13.43846851      -0.77633688      -0.19326306      -1.08061374
F       10.66014507      12.21372738      12.54506683      -0.30011126       1.30808199       0.15504510
F       10.26583330      10.33291734      13.55430286       1.24027233       0.59840656       0.97886801
F       12.27313181      10.88355557      12.91966981       0.12850174       0.56185563       0.32079993
C       12.10211752      11.19365647      15.83849309       0.13929383       0.18598898      -0.72190943
F       11.25168457      10.19598160      16.20260176      -0.79634134      -1.13752553      -0.45267003
F       12.36296806      11.91447387      16.90427506       0.67767961       0.59174893      -0.23473507
F       13.28203319      10.60194496      15.46907859      -0.22292449       0.03299542       0.11018255
H        9.60296822      12.01274848      15.27951208       0.03499837      -0.18411345       0.00277845
H       12.24789417      12.81779537      14.55820126       0.08302119       0.06516263       0.10832639
O        4.18768621      15.58902916       7.58864768      -0.24100588       0.23790334       0.25875864
C        4.96058822      14.80526701       8.37678111      -0.44758211       0.13271703      -0.42401895
C        6.35874507      15.44759841       8.57538844      -0.39493012      -0.37961712      -0.08001331
F        6.25013934      16.63799941       9.20998930      -0.68064818       0.07404622       1.18707952
F        6.98592017      15.65015930       7.40268249      -0.07054042       0.75497578      -0.62581143
F        7.10299299      14.69286002       9.40845461       0.00950604      -0.58124060      -0.61658142
C        5.05631125      13.39608958       7.81686263      -0.97853901       0.60628154      -0.59160894
F        5.63519632      13.50059168       6.60114147      -1.67325926       0.44492439      -1.02250059
F        3.84063438      12.84407577       7.63218078       1.21639246       0.80423963      -1.22860096
F        5.82937690      12.55438670       8.55241110       0.19872758       0.02997727      -0.74493020
H        4.61094249      15.82869474       6.73132131      -0.03382503       0.15483251       0.06308412
H        4.49233842      14.87713037       9.37048405       0.12280325       0.03128334      -0.03291252
O        9.75356615       4.94727094      15.49652511       0.53614720       0.37736496      -0.57599468
C       10.69211434       6.06068822      15.49301476      -0.14981974      -0.74895351      -0.11711689
C       10.92547863       6.69651244      14.07639569       0.15041407       0.19216889       0.44963212
F        9.70284762       6.97293137      13.57690866       0.61817221      -0.76518688      -0.95708964
F       11.57808046       5.80678363      13.28921566      -1.21289338       0.21219383      -0.57759045
F       11.58923996       7.83811545      14.25632847       0.25358762       0.66046670      -0.10438301
C       11.93896477       5.73286520      16.33485124       0.18228555       0.66136878      -0.97240136
F       12.62998324       4.80134922      15.76610921      -0.19005836      -0.27885723      -0.64596269
F       11.62429567       5.23660997      17.53266678       0.70426021      -0.80719683       0.49725555
F       12.63215215       6.88946132      16.53561956      -0.81093104      -0.71266633       0.03828219
H        9.98111568       4.20621406      14.88341645       0.49311114       0.13014019       0.07578789
H       10.23944022       6.81376109      16.15786316       0.09439578       0.03163935      -0.05437830
O        0.30481920       8.76785196      16.14551342      -0.44442475       1.01551942       0.30053670
C        1.29199387       9.63584857      16.62445888      -0.48514964       1.26600533       0.12616595
C        1.29121703      11.03419238      16.01434155       0.77462571       0.49840203       0.04621535
F        0.09727811      11.60843860      16.24532443      -1.56996692      -1.22807093       1.65998299
F        1.39234846      11.01368130      14.70116323      -0.14785514       0.25904333       0.16419534
F        2.19071915      11.89610773      16.47692837      -0.64956797      -0.43801497       0.24968370
C        2.61461791       8.94269690      16.46321204      -0.48394436       0.51084146       0.42880653
F        2.83058798       8.76046856      15.13618184      -0.68786575      -0.66764062      -0.79285147
F        2.63362996       7.76869742      17.06039951       0.05454919      -0.32474212      -0.12975218
F        3.67663608       9.61621567      16.93348174       0.36929492       0.84304334      -0.20722958
H        0.26382259       8.72935297      15.16850487      -0.02157859      -0.12655899      -0.00116314
H        1.01531172       9.76521484      17.69466288       0.03664748       0.12120125      -0.26192278
O       13.13581516      15.44281699      13.42932721      -0.28672618      -0.71556056       0.53745647
C       14.07588445      16.22234695      12.65030802       1.26979326      -0.97134022       0.59712998
C       14.77275043      17.30414104      13.52064770      -0.36873762      -0.33194618      -0.02573017
F       15.35754320      16.77426407      14.58680782      -0.61182045       0.15597430       1.02769064
F       13.83585521      18.20434507      14.02649907      -0.05583632       0.71257439      -0.46644343
F       15.61808447      18.04197799      12.75169586      -1.44304748       0.96260653       1.80930956
C       13.46607890      16.80379805      11.38653382       0.48363308      -0.00505923       0.24418743
F       12.39214917      17.60019941      11.60685758       0.20686338       0.15534564       0.19809503
F       13.02574002      15.77179770      10.64794949       1.40367944      -0.76801869      -0.22540047
F       14.33256707      17.41492383      10.56009514      -0.75382790      -0.41057003       0.79861380
H       12.36810441      15.94772944      13.83506914      -0.13017594      -0.16199697      -0.19707292
H       14.81498723      15.50069507      12.39047797      -0.30093342      -0.02776099       0.00946735
O        7.98155304       2.68581393       2.10279756       0.16154673       0.85754193       0.76813354
C        6.67755422       2.78737999       2.61444230      -0.41917884      -1.16842659      -0.08184488
C        6.07890489       4.21214740       2.61426067       0.12164723      -0.02535838      -0.20444557
F        6.04274958       4.56459487       1.36213724       0.01685221      -0.40770584      -0.90830599
F        6.89264352       5.04090167       3.22252063      -1.06128795       1.18058845      -0.81810316
F        4.85113915       4.34567040       3.05209477       0.92466421       0.27108852      -0.09372987
C        6.68024479       2.15865712       3.99501618       0.98262274      -0.17967264       0.44230051
F        7.60272926       2.68106663       4.77585738      -0.14534256      -0.31155176       0.03575022
F        6.98400303       0.85957409       3.88952708       0.71015996       0.10128072       0.54733732
F        5.53306073       2.23770203       4.65009401      -0.30989113       1.23966469      -0.27050640
H        8.64950720       3.26413727       2.46947019       0.23948457       0.19837073       0.27368764
H        5.95399720       2.21890681       2.05714929       0.14198660      -0.17650216      -0.22496125
O        8.20589159       7.02845491      10.36481153      -0.24429193      -0.01139849       0.10223108
C        6.95151892       6.90773346      10.89470352      -0.99136742       0.56325353      -0.21888112
C        6.33832425       5.53268874      10.60334281      -0.71130734       0.34537149      -0.21521751
F        7.02562935       4.56116382      11.20064091       0.27667764      -1.37543265       0.02934700
F        6.32979000       5.31997483       9.28553002      -0.88507313       0.40912950      -0.03856023
F        5.10095881       5.36103498      11.10719141      -0.78334070       0.45604529      -0.28625687
C        6.09774182       8.09893594      10.39486839       0.12543249       0.10095041       0.01383352
F        6.00996298       8.08000609       9.06702480      -0.06307866      -0.29806453       0.50131782
F        6.62308915       9.24516248      10.81734639      -0.37889338       0.68888258      -0.69176714
F        4.82244574       7.97127864      10.79924157      -0.08952776      -1.08910830       1.08691292
H        8.25122868       6.99011158       9.41307525      -0.05073878       0.17098393      -0.08498404
H        6.93053711       6.96994973      12.01737852      -0.27838454      -0.10187158      -0.34032358
O       13.89600858      15.01602219       5.75466369      -0.19746588      -0.37357955       0.23291429
C       14.99188150      15.69130860       6.40122332       0.16282578       0.18444477       0.30648725
C       15.04485967      17.10429678       5.79905692       0.89406370      -1.07942203      -0.44293450
F       13.82921682      17.59087405       5.97782694      -1.09339777      -0.58469500      -0.21745158
F       15.24782798      17.11387112       4.45025837      -0.49287641      -0.60613945       1.63265829
F       15.86826825      17.88476349       6.44463594       1.69766117       1.13947508       0.11948192
C       16.35651479      14.96262625       6.26840163      -0.03680854      -0.54436089      -0.30061722
F       16.75079276      14.73881957       4.99891763       0.56619100      -0.38964858       0.91441455
F       16.36999942      13.77943639       6.91566157      -1.26984809      -0.51440200       0.07061857
F       17.29663247      15.73365624       6.87712186       0.35878303      -0.49097530       0.20596298
H       14.21344653      14.61592846       4.94592223       0.21031694      -0.09661596      -0.02182148
H       14.80191379      15.86651032       7.49996689       0.03905938      -0.02205355       0.10088912
O        2.65813090       7.58852822       6.10095842      -0.36425651      -0.44089127       1.22512656
C        3.10788905       6.26740824       6.05228978       0.28354044      -0.48554582       0.26583175
C        2.51120386       5.39718563       7.28546989       1.00601345      -1.20899868       0.06751478
F        1.13517332       5.43990403       7.18785280      -0.97346797      -0.36636385       0.00803538
F        2.87194890       5.90650070       8.46456432      -0.60267500      -0.74126188      -0.20548005
F        2.77340908       4.12851700       7.14362311       0.32753859       0.19659402       0.15086235
C        4.61318274       6.29310386       5.92818540       0.40249670      -0.87212801      -1.00491688
F        5.23258508       6.79403861       6.99327567      -0.07541980       0.10537346      -0.45826254
F        4.97663835       6.95592137       4.83237621       0.37021980      -0.93125717       1.05646135
F        5.09841923       4.99309980       5.87920884       0.65829497       0.42035397       0.27502376
H        1.71397506       7.54601000       5.82538169       0.10628497       0.04392871       0.03568243
H        2.78766934       5.67225298       5.16337598      -0.37524852       0.03378193      -0.24232049
O        9.72989976       4.18319582       9.17954656       0.33422669       0.29539415      -0.80198229
C       10.52147783       4.05346326      10.34265883       0.14567267       0.66277692       0.80694998
C       11.94878080       4.28425443       9.95900450       1.10154808      -0.52266364      -1.06386062
F       12.12661114       5.46496688       9.45655518       0.13713154       1.29494037      -0.50977164
F       12.31709341       3.35166790       9.02890129       1.48656197      -0.38916807       0.31634691
F       12.76287938       4.16555005      11.05222480       0.44812498      -0.45537647       1.26322614
C       10.24756367       2.74636649      11.06792956       1.23435481      -0.48085367      -0.81329840
F       10.60033938       1.64808779      10.33191705       0.21023246      -0.08495991      -1.91256604
F        8.95347214       2.61308266      11.41107523      -0.46904847       0.00724724       0.47301289
F       10.98740313       2.69878105      12.19313746       0.06730015      -1.25207214       0.49869689
H        9.85594483       3.32733826       8.73962825      -0.16495013       0.18210066       0.04008358
H       10.22691008       4.91204110      10.97204782      -0.01600364       0.04198078       0.03443705
O        8.06031853      10.74525247      15.09632403      -0.14227140      -0.99223055       0.75897034
C        6.91585161      10.72360768      14.32043642       1.17810305      -0.12443834      -0.17343486
C        5.89718364      11.71901419      14.89794996       0.22135172       0.10848880       0.22265818
F        6.43247064      13.01559174      14.84163454      -0.43941394       0.32978981       0.29040353
F        5.59495768      11.37791622      16.17989308      -0.91121339      -0.40116077       0.61241287
F        4.75078330      11.78114329      14.20652418      -0.69402030      -0.41364095      -0.26984905
C        6.41627904       9.28844792      14.17978865       0.11626831      -0.20199174      -0.19771454
F        6.16514052       8.73069752      15.35815105       1.16588743      -0.28674901      -0.78649312
F        7.36291896       8.57793173      13.60593499       0.38483525      -1.12741584       0.34386296
F        5.34979804       9.31264337      13.38424605       0.70236640      -0.35312076       0.18810404
H        8.26233394       9.85317414      15.40370708      -0.02809586       0.14695966      -0.01082066
H        7.09262019      11.07377111      13.27556180      -0.22826289      -0.10076163       0.15635889
192
Lattice="18.191302741785545 0.0 0.0 0.0 18.191302741785545 0.0 0.0 0.0 18.191302741785545" Properties=species:S:1:pos:R:3:momenta:R:3 Built=T with=T Packmol=T charge=0 spin=1 external_field="_JSON [0.0, 0.0, 0.0]" pbc="T T T"
O       15.47120218       6.05614861       8.39718222      -0.58933087       0.37980167       0.16841845
C       15.27213013       7.32171787       7.80902557       0.15398215      -0.03321438       0.49736860
C       14.59995589       7.07775045       6.32199993      -0.55100688       0.81995580       0.29637963
F       13.43096813       6.47874018       6.37196941      -0.13531717       0.31819627       0.42622369
F       15.45595839       6.26035692       5.66516401      -1.08498713       0.13412800       0.76390654
F       14.46173604       8.18674665       5.59071667       0.41609082       0.48548363       0.50994561
C       16.54273740       8.13302306       7.68030525       1.38025610      -0.08032723      -0.09723158
F       17.54218170       7.48831325       6.99490812      -0.30766756      -0.47172158       0.84398599
F       16.91508429       8.43603004       8.93905375       0.45548933       0.31561232       1.29920473
F       16.26502212       9.34596306       7.13993498      -0.45551390       0.11390529       0.16204762
H       16.00861517       5.56951173       7.69471548       0.02081113      -0.19472984       0.10348917
H       14.64935842       7.86449578       8.43346700       0.16981667      -0.06280493      -0.00373561
O       14.41743609      12.31063084       4.38798299       1.09342218       0.77683674       0.57063941
C       13.73230092      11.95875822       3.23024376       0.17394944       0.60071390      -0.46178059
C       12.30356649      11.54612473       3.53458626       0.05617667       0.66464459      -1.46914998
F       11.60513505      12.56143300       4.08227868       0.60581786       0.04258814      -0.50156606
F       12.31360668      10.49852016       4.36452313       0.55690100       0.79134272       0.15349851
F       11.65542427      11.21572219       2.38764177      -0.20984818       0.18083377      -0.39837791
C       14.59413098      10.82324177       2.50105521      -0.11842963       0.15676348       1.33279002
F       14.64202686       9.78087448       3.29645483      -0.54465749       0.47101074      -0.44497406
F       15.83717522      11.21354497       2.29419851      -0.83469343       0.16047609      -0.84047128
F       14.08299415      10.44648761       1.28269100       0.66509354      -0.36640217       0.10496411
H       14.59834812      11.51575073       4.87509130      -0.01587813       0.10439551      -0.14731651
H       13.69380883      12.81954828       2.65767765      -0.00698916       0.13348362       0.18470702
O       13.04910111       2.85705886       5.09996435       1.08307045      -0.54190874      -0.61601417
C       12.55948034       3.15947704       3.77186426       0.22687987       0.39964879       0.61606025
C       11.00683992       3.49912481       3.95039674      -0.32651344      -0.84324431      -0.26551517
F       10.88482963       4.45899157       4.83956321       0.33956713      -0.66338080       0.89234584
F       10.34175962       2.44772284       4.37387218       0.20020902       0.28494480      -0.44107816
F       10.49204014       3.94207600       2.79850783       0.18010686      -0.49735309      -0.28861818
C       12.85440593       2.04944164       2.70269747      -0.04172332       0.27019076      -0.40341785
F       12.36431670       0.87926439       3.11373673       1.49496586       0.20895172      -0.69516744
F       14.16995002       1.92869360       2.57926737       1.30727592      -0.36496431      -0.86474205
F       12.39496232       2.37250006       1.52539805       0.44798050       0.41517807       0.97816392
H       12.73222666       1.97301902       5.36275158       0.22978869      -0.16581644      -0.06596815
H       12.97387753       4.09050905       3.38796957       0.17439768       0.13893496       0.26934142
O        6.82558935      16.44055379      13.62933672      -0.36435113       0.28440484       0.79149954
C        7.71873209      16.16721292      12.54970617      -0.99625901      -0.24538590      -0.14410762
C        8.90618365      15.35347172      13.07895458      -0.45771019      -0.34935528      -0.74919720
F        8.35441621      14.25227775      13.65087978      -0.23472068      -1.00329738      -0.24484622
F        9.69764176      16.03943030      13.99999638      -1.07105317      -0.08385525      -0.64025571
F        9.66598872      15.06727302      12.05824673       1.02663919       0.61559298      -0.05758541
C        8.09537566      17.40719939      11.82770751       0.03625932       0.09401531       1.33013091
F        8.72398012      18.27680112      12.70662390       0.47279646      -0.52720435       0.28339396
F        6.99291681      18.07310659      11.47820967       0.69111531       0.51302504       0.05290289
F        8.88294630      17.25374901      10.77118951       0.17502073       0.12040724      -0.52391660
H        7.17533900      17.31553145      13.98918124       0.06257502      -0.04750557      -0.03573759
H        7.16408779      15.43895503      11.89988773      -0.10370786      -0.14040290      -0.12726079
O        2.02157660      14.59108689      15.06970663      -0.69414644      -0.04629719      -0.35350247
C        2.54845038      15.87172053      14.75934855      -0.20859402       0.87518081       0.52121053
C        3.06800507      15.77970654      13.27597871      -0.04562435       0.73295363       0.41437760
F        2.17210106      15.41427069      12.36368724      -0.65156224      -0.52926131       0.92132771
F        3.98356206      14.78759185      13.27545621      -1.87640092       0.94866774      -0.52656089
F        3.59335495      16.95219823      12.91496390       0.39780882      -0.36833702      -0.56517874
C        3.63494400      16.30594112      15.75827313       0.08890456       0.19062394      -0.09785620
F        4.66241932      15.41960831      15.79105054      -0.02357671      -0.97002884       0.61779232
F        3.09820684      16.42855097      17.01736849      -1.40338763       2.24051232       0.99517913
F        4.20100892      17.48048096      15.55269008      -0.86928357      -0.42815933       0.53683113
H        2.77028402      14.00290390      15.31039846      -0.12923127       0.17773000      -0.04116324
H        1.77315428      16.61390617      14.83281573       0.29885274       0.04063376      -0.17067255
O       10.59858581      12.93774411      15.12837077       0.36007236      -0.38571524      -0.29788233
C       11.64369266      12.03314565      14.83486199      -0.85144215       0.14903620       0.62270325
C       11.39217065      11.49199392      13.41327226      -0.77633688      -0.19326306      -1.08061374
F       11.22593682      12.49739254      12.53116749      -0.30011126       1.30808199       0.15504510
F       10.24421801      10.73214035      13.32589915       1.24027233       0.59840656       0.97886801
F       12.39557844      10.78863671      13.00392820       0.12850174       0.56185563       0.32079993
C       11.88095964      10.99814015      15.89117838       0.13929383       0.18598898      -0.72190943
F       10.77015261      10.23086251      16.06017319      -0.79634134      -1.13752553      -0.45267003
F       12.15052567      11.58073254      17.03635618       0.67767961       0.59174893      -0.23473507
F       12.92294834      10.14620952      15.63182469      -0.22292449       0.03299542       0.11018255
H        9.76431434      12.44408434      15.07989741       0.03499837      -0.18411345       0.00277845
H       12.60158506      12.59013371      14.77561544       0.08302119       0.06516263       0.10832639
O        4.35927580      15.57772378       7.39957465      -0.24100588       0.23790334       0.25875864
C        4.92538179      14.77027267       8.32713146      -0.44758211       0.13271703      -0.42401895
C        6.30075290      15.33492961       8.77029497      -0.39493012      -0.37961712      -0.08001331
F        6.15187741      16.54512968       9.35750863      -0.68064818       0.07404622       1.18707952
F        7.14277384      15.47126583       7.73008732      -0.07054042       0.75497578      -0.62581143
F        6.83233227      14.55923487       9.73634636       0.00950604      -0.58124060      -0.61658142
C        5.03446534      13.34435252       7.81399880      -0.97853901       0.60628154      -0.59160894
F        5.83089608      13.38456085       6.72400434      -1.67325926       0.44492439      -1.02250059
F        3.84119086      12.85956251       7.41679412       1.21639246       0.80423963      -1.22860096
F        5.60675205      12.47775247       8.69070746       0.19872758       0.02997727      -0.74493020
H        4.94591774      15.77084191       6.63136206      -0.03382503       0.15483251       0.06308412
H        4.28894023      14.89408643       9.21678311       0.12280325       0.03128334      -0.03291252
O        9.75356615       4.94727094      15.49652511       0.53614720       0.37736496      -0.57599468
C       10.69211434       6.06068822      15.49301476      -0.14981974      -0.74895351      -0.11711689
C       10.92547863       6.69651244      14.07639569       0.15041407       0.19216889       0.44963212
F        9.70284762       6.97293137      13.57690866       0.61817221      -0.76518688      -0.95708964
F       11.57808046       5.80678363      13.28921566      -1.21289338       0.21219383      -0.57759045
F       11.58923996       7.83811545      14.25632847       0.25358762       0.66046670      -0.10438301
C       11.93896477       5.73286520      16.33485124       0.18228555       0.66136878      -0.97240136
F       12.62998324       4.80134922      15.76610921      -0.19005836      -0.27885723      -0.64596269
F       11.62429567       5.23660997      17.53266678       0.70426021      -0.80719683       0.49725555
F       12.63215215       6.88946132      16.53561956      -0.81093104      -0.71266633       0.03828219
H        9.98111568       4.20621406      14.88341645       0.49311114       0.13014019       0.07578789
H       10.23944022       6.81376109      16.15786316       0.09439578       0.03163935      -0.05437830
O        0.30481920       8.76785196      16.14551342      -0.44442475       1.01551942       0.30053670
C        1.29199387       9.63584857      16.62445888      -0.48514964       1.26600533       0.12616595
C        1.29121703      11.03419238      16.01434155       0.77462571       0.49840203       0.04621535
F        0.09727811      11.60843860      16.24532443      -1.56996692      -1.22807093       1.65998299
F        1.39234846      11.01368130      14.70116323      -0.14785514       0.25904333       0.16419534
F        2.19071915      11.89610773      16.47692837      -0.64956797      -0.43801497       0.24968370
C        2.61461791       8.94269690      16.46321204      -0.48394436       0.51084146       0.42880653
F        2.83058798       8.76046856      15.13618184      -0.68786575      -0.66764062      -0.79285147
F        2.63362996       7.76869742      17.06039951       0.05454919      -0.32474212      -0.12975218
F        3.67663608       9.61621567      16.93348174       0.36929492       0.84304334      -0.20722958
H        0.26382259       8.72935297      15.16850487      -0.02157859      -0.12655899      -0.00116314
H        1.01531172       9.76521484      17.69466288       0.03664748       0.12120125      -0.26192278
O       13.20973699      15.30121272      13.33711079      -0.28672618      -0.71556056       0.53745647
C       14.14980628      16.08074268      12.55809160       1.26979326      -0.97134022       0.59712998
C       14.84667226      17.16253676      13.42843128      -0.36873762      -0.33194618      -0.02573017
F       15.43146503      16.63265979      14.49459140      -0.61182045       0.15597430       1.02769064
F       13.90977703      18.06274080      13.93428264      -0.05583632       0.71257439      -0.46644343
F       15.69200630      17.90037371      12.65947944      -1.44304748       0.96260653       1.80930956
C       13.54000073      16.66219378      11.29431740       0.48363308      -0.00505923       0.24418743
F       12.46607099      17.45859513      11.51464116       0.20686338       0.15534564       0.19809503
F       13.09966184      15.63019343      10.55573307       1.40367944      -0.76801869      -0.22540047
F       14.40648889      17.27331956      10.46787872      -0.75382790      -0.41057003       0.79861380
H       12.44202624      15.80612516      13.74285272      -0.13017594      -0.16199697      -0.19707292
H       14.88890906      15.35909079      12.29826154      -0.30093342      -0.02776099       0.00946735
O        7.98155304       2.68581393       2.10279756       0.16154673       0.85754193       0.76813354
C        6.67755422       2.78737999       2.61444230      -0.41917884      -1.16842659      -0.08184488
C        6.07890489       4.21214740       2.61426067       0.12164723      -0.02535838      -0.20444557
F        6.04274958       4.56459487       1.36213724       0.01685221      -0.40770584      -0.90830599
F        6.89264352       5.04090167       3.22252063      -1.06128795       1.18058845      -0.81810316
F        4.85113915       4.34567040       3.05209477       0.92466421       0.27108852      -0.09372987
C        6.68024479       2.15865712       3.99501618       0.98262274      -0.17967264       0.44230051
F        7.60272926       2.68106663       4.77585738      -0.14534256      -0.31155176       0.03575022
F        6.98400303       0.85957409       3.88952708       0.71015996       0.10128072       0.54733732
F        5.53306073       2.23770203       4.65009401      -0.30989113       1.23966469      -0.27050640
H        8.64950720       3.26413727       2.46947019       0.23948457       0.19837073       0.27368764
H        5.95399720       2.21890681       2.05714929       0.14198660      -0.17650216      -0.22496125
O        8.20589159       7.02845491      10.36481153      -0.24429193      -0.01139849       0.10223108
C        6.95151892       6.90773346      10.89470352      -0.99136742       0.56325353      -0.21888112
C        6.33832425       5.53268874      10.60334281      -0.71130734       0.34537149      -0.21521751
F        7.02562935       4.56116382      11.20064091       0.27667764      -1.37543265       0.02934700
F        6.32979000       5.31997483       9.28553002      -0.88507313       0.40912950      -0.03856023
F        5.10095881       5.36103498      11.10719141      -0.78334070       0.45604529      -0.28625687
C        6.09774182       8.09893594      10.39486839       0.12543249       0.10095041       0.01383352
F        6.00996298       8.08000609       9.06702480      -0.06307866      -0.29806453       0.50131782
F        6.62308915       9.24516248      10.81734639      -0.37889338       0.68888258      -0.69176714
F        4.82244574       7.97127864      10.79924157      -0.08952776      -1.08910830       1.08691292
H        8.25122868       6.99011158       9.41307525      -0.05073878       0.17098393      -0.08498404
H        6.93053711       6.96994973      12.01737852      -0.27838454      -0.10187158      -0.34032358
O       14.02644805      15.05357828       5.67242835      -0.19746588      -0.37357955       0.23291429
C       15.12232098      15.72886469       6.31898797       0.16282578       0.18444477       0.30648725
C       15.17529914      17.14185286       5.71682158       0.89406370      -1.07942203      -0.44293450
F       13.95965629      17.62843014       5.89559159      -1.09339777      -0.58469500      -0.21745158
F       15.37826746      17.15142721       4.36802303      -0.49287641      -0.60613945       1.63265829
F       15.99870773      17.92231957       6.36240060       1.69766117       1.13947508       0.11948192
C       16.48695426      15.00018233       6.18616629      -0.03680854      -0.54436089      -0.30061722
F       16.88123223      14.77637565       4.91668228       0.56619100      -0.38964858       0.91441455
F       16.50043889      13.81699247       6.83342622      -1.26984809      -0.51440200       0.07061857
F       17.42707194      15.77121233       6.79488652       0.35878303      -0.49097530       0.20596298
H       14.26760129      14.13893241       5.53039790       0.21031694      -0.09661596      -0.02182148
H       14.93235326      15.90406640       7.41773155       0.03905938      -0.02205355       0.10088912
O        2.65813090       7.58852822       6.10095842      -0.36425651      -0.44089127       1.22512656
C        3.10788905       6.26740824       6.05228978       0.28354044      -0.48554582       0.26583175
C        2.51120386       5.39718563       7.28546989       1.00601345      -1.20899868       0.06751478
F        1.13517332       5.43990403       7.18785280      -0.97346797      -0.36636385       0.00803538
F        2.87194890       5.90650070       8.46456432      -0.60267500      -0.74126188      -0.20548005
F        2.77340908       4.12851700       7.14362311       0.32753859       0.19659402       0.15086235
C        4.61318274       6.29310386       5.92818540       0.40249670      -0.87212801      -1.00491688
F        5.23258508       6.79403861       6.99327567      -0.07541980       0.10537346      -0.45826254
F        4.97663835       6.95592137       4.83237621       0.37021980      -0.93125717       1.05646135
F        5.09841923       4.99309980       5.87920884       0.65829497       0.42035397       0.27502376
H        1.71397506       7.54601000       5.82538169       0.10628497       0.04392871       0.03568243
H        2.78766934       5.67225298       5.16337598      -0.37524852       0.03378193      -0.24232049
O        9.72989976       4.18319582       9.17954656       0.33422669       0.29539415      -0.80198229
C       10.52147783       4.05346326      10.34265883       0.14567267       0.66277692       0.80694998
C       11.94878080       4.28425443       9.95900450       1.10154808      -0.52266364      -1.06386062
F       12.12661114       5.46496688       9.45655518       0.13713154       1.29494037      -0.50977164
F       12.31709341       3.35166790       9.02890129       1.48656197      -0.38916807       0.31634691
F       12.76287938       4.16555005      11.05222480       0.44812498      -0.45537647       1.26322614
C       10.24756367       2.74636649      11.06792956       1.23435481      -0.48085367      -0.81329840
F       10.60033938       1.64808779      10.33191705       0.21023246      -0.08495991      -1.91256604
F        8.95347214       2.61308266      11.41107523      -0.46904847       0.00724724       0.47301289
F       10.98740313       2.69878105      12.19313746       0.06730015      -1.25207214       0.49869689
H        9.85594483       3.32733826       8.73962825      -0.16495013       0.18210066       0.04008358
H       10.22691008       4.91204110      10.97204782      -0.01600364       0.04198078       0.03443705
O        8.06031853      10.74525247      15.09632403      -0.14227140      -0.99223055       0.75897034
C        6.91585161      10.72360768      14.32043642       1.17810305      -0.12443834      -0.17343486
C        5.89718364      11.71901419      14.89794996       0.22135172       0.10848880       0.22265818
F        6.43247064      13.01559174      14.84163454      -0.43941394       0.32978981       0.29040353
F        5.59495768      11.37791622      16.17989308      -0.91121339      -0.40116077       0.61241287
F        4.75078330      11.78114329      14.20652418      -0.69402030      -0.41364095      -0.26984905
C        6.41627904       9.28844792      14.17978865       0.11626831      -0.20199174      -0.19771454
F        6.16514052       8.73069752      15.35815105       1.16588743      -0.28674901      -0.78649312
F        7.36291896       8.57793173      13.60593499       0.38483525      -1.12741584       0.34386296
F        5.34979804       9.31264337      13.38424605       0.70236640      -0.35312076       0.18810404
H        8.26233394       9.85317414      15.40370708      -0.02809586       0.14695966      -0.01082066
H        7.09262019      11.07377111      13.27556180      -0.22826289      -0.10076163       0.15635889
192
Lattice="18.191302741785545 0.0 0.0 0.0 18.191302741785545 0.0 0.0 0.0 18.191302741785545" Properties=species:S:1:pos:R:3:momenta:R:3 Built=T with=T Packmol=T charge=0 spin=1 external_field="_JSON [0.0, 0.0, 0.0]" pbc="T T T"
O       15.38937575       5.89250391       8.24228045      -0.11117399       0.31275586       0.34408030
C       15.17582470       7.16512992       7.65948166       0.58553711       0.58646225       0.51991407
C       14.52958969       6.94709592       6.19056988      -0.65727153      -0.38461782      -0.67237653
F       13.36197086       6.34819378       6.23421536      -0.47579140      -0.60602774      -0.59406269
F       15.36980098       6.11409633       5.51135473       0.10368043      -0.05805394       0.15268727
F       14.37378625       8.02089822       5.41723780       0.12047040       0.66053322       0.91026135
C       16.44106792       7.99055312       7.52308457       0.38558498      -0.27067944      -0.17541695
F       17.43122028       7.34570514       6.84374793       1.30711153      -0.42784563      -0.15660165
F       16.80542337       8.30153427       8.81974539       0.87200662      -0.33701464      -0.99318386
F       16.20992328       9.18729981       6.98445101      -1.24493506       0.55875900       0.41051426
H       15.85572027       5.36494998       7.63395114       0.15798118       0.15503461      -0.26247087
H       14.42006162       7.74907028       8.28639364       0.33369595      -0.09589987      -0.03693858
O       14.41211407      12.32719577       4.41280178       0.13582172      -0.41298245      -0.93317839
C       13.76969694      11.93645018       3.23306242      -0.90499922       0.37041301       0.27125830
C       12.29270184      11.53503968       3.55158286       0.06456282       0.18718420       0.01405041
F       11.65975056      12.57684786       4.06991866      -2.22718888      -0.52546316       0.40324411
F       12.32661929      10.48743732       4.35422086      -0.33320894       0.49276017       0.30069784
F       11.65447080      11.22057851       2.38569925      -0.02780362      -0.17051187      -0.14020168
C       14.57886647      10.82781280       2.47209271       0.72672849      -0.32307624       0.83096301
F       14.63420448       9.79493851       3.29320894       0.34775317      -0.21972510       0.02100584
F       15.81924992      11.19612632       2.29713803       0.48699640       0.52705269      -0.03723371
F       14.09839575      10.44278515       1.26225695      -0.64452329       0.06298872       0.54856314
H       14.58207527      11.50739539       4.93729552       0.02618315      -0.06047592      -0.15039050
H       13.70232182      12.87165356       2.56852654      -0.04288298       0.04646654       0.13877511
O       13.18906702       2.75191812       5.03638281      -0.37782950       0.16069875       0.79162204
C       12.67343016       3.06947588       3.74244252       0.64712764      -0.04075476      -0.77255867
C       11.13579128       3.43063048       3.88158297      -0.69955302      -0.38496736       0.47035550
F       11.00038153       4.36192859       4.76853384       0.58265608      -0.30783194       0.55604203
F       10.46251439       2.36625146       4.32976410       0.41927266      -0.50690201      -0.29841197
F       10.62740366       3.82938904       2.72836021      -0.14377414       0.59279850       0.91250314
C       12.98125273       1.98998483       2.67206475       0.06747965      -0.93312850      -0.90732597
F       12.48599782       0.79006038       3.07374524       0.26417056      -0.35549148      -0.42104416
F       14.29232947       1.84999488       2.54623297       0.08887958      -0.71833036      -0.78660638
F       12.49823359       2.27328246       1.46233867       1.12975721       0.06848395       0.51969992
H       12.78418381       1.93600417       5.35401465       0.18516899      -0.07707345      -0.07334457
H       13.19143673       3.95004745       3.35959083      -0.28276894      -0.02904686      -0.10692055
O        6.75864677      16.44557364      13.61146790      -0.26142258       1.81536938       0.75895964
C        7.62722481      16.20511420      12.58152841       0.13793593       0.40430163      -1.08671865
C        8.82039834      15.39918104      13.09605403       0.29050900      -0.24134364      -0.64515372
F        8.27484826      14.31621612      13.62904047      -0.19321018      -0.35364865       0.86694038
F        9.61279361      16.05922737      14.00787255       0.51470627       1.64699449      -0.20255190
F        9.60717783      15.13491559      12.08073954      -1.01002861      -0.26729157      -0.75110099
C        7.99158405      17.46153475      11.79919158       0.50553840      -0.41963801       0.24147326
F        8.62563729      18.33254033      12.72235568       0.86957686       0.16064503      -0.45735495
F        6.93085881      18.13054148      11.42800925      -0.51148385      -0.12693225       2.18758715
F        8.80771055      17.28785449      10.79706805      -0.15987469       0.87593263      -0.94607304
H        6.82359456      17.31968019      13.94420955       0.28741001       0.07953205      -0.27458764
H        7.26775526      15.51059573      11.86375299      -0.14231060       0.11910895       0.29701102
O        2.02821905      14.62145412      15.11388250      -0.31179042      -1.16731756      -1.60146317
C        2.56157300      15.87648021      14.77577332       0.09238650      -0.01339136      -0.18940279
C        3.06749890      15.76079089      13.33292939      -0.05316688       0.36365886      -1.35666073
F        2.17344103      15.41239429      12.37605896       0.03697929      -0.03964069      -0.70214921
F        3.96181392      14.78454149      13.28228658       0.70173565       0.10684564      -0.25420357
F        3.61739993      16.93818550      12.90863694      -0.96728189       0.74271386       0.21204484
C        3.63378122      16.31574856      15.73010195      -0.21546385      -0.23124000       0.01981867
F        4.66238738      15.42865169      15.78931619       0.23376219      -0.38244111       0.05517931
F        3.09761929      16.41374000      17.03462328      -0.04600302       0.78921920      -0.30391951
F        4.19660885      17.49096919      15.56773695       0.21679147      -0.59225540      -0.36664405
H        2.75022379      14.02288895      15.28654821       0.03650063       0.02182973       0.05199630
H        1.67643665      16.54737891      14.84871338       0.04646210       0.16662077       0.01373968
O       10.60916817      12.92856706      15.10159905      -0.50684112       0.35665324       0.76079080
C       11.64675909      12.03920036      14.82716018      -0.04547477      -0.33783439       0.60077436
C       11.35804593      11.53441694      13.39043071       1.00565467      -0.83206178       0.46820022
F       11.19641121      12.53036964      12.54071590       1.21323636      -1.34561929      -0.44224862
F       10.24208664      10.71742598      13.32296595      -0.12378031       0.39055007       0.08683843
F       12.38142591      10.77100287      12.98804076       0.44477821       0.81945609       0.76111551
C       11.86324914      10.98222177      15.89450387       0.36106541       0.68693150      -0.07252775
F       10.76854853      10.22018391      16.04111605       0.01652552       0.44794650       0.72343639
F       12.14886801      11.58059880      17.04453680       0.11138043      -0.03781480      -0.44570862
F       12.92578931      10.17019603      15.62779310       0.10944497      -1.12099983       0.19695825
H        9.78982835      12.39552698      15.20912002       0.02462638       0.10737329      -0.28708272
H       12.61662006      12.52106668      14.75199218       0.07857192       0.05984671       0.04415353
O        4.33956169      15.57758200       7.38834855       0.81446494      -0.18763504       0.66877100
C        4.90413117      14.75270177       8.32433611       0.11473176       0.22561535      -0.20237764
C        6.31097632      15.32447879       8.76589553      -0.10060466       0.14260059       0.19140577
F        6.13571643      16.54239494       9.34315487       0.64233131       0.22388239       0.76466857
F        7.18278373      15.47138103       7.70988563      -1.47564915       0.02734428       0.53719501
F        6.83179358      14.56599938       9.71596616      -0.13087427      -0.18469512       0.86473719
C        5.05561100      13.31756851       7.81749735      -0.36162825       0.66463117       0.06201230
F        5.80439867      13.37549968       6.70164453       1.07649536       0.48327738       0.88004987
F        3.81735101      12.89440067       7.44093659       0.77520197      -1.39380612      -1.09439229
F        5.59278926      12.46923978       8.68529850       0.66055258       0.29798345       0.30162544
H        4.92742666      15.85001176       6.70463177       0.06258864      -0.07338971      -0.26967641
H        4.34118213      14.86118588       9.24522629      -0.06105666       0.23414784      -0.05063650
O        9.76627285       4.91801915      15.49455861      -0.60758860       0.55671347       0.01947775
C       10.68884696       6.03595372      15.48819603       0.47408397       0.84251197      -0.07498323
C       10.90536665       6.73121051      14.12131593       0.56898234      -0.27010996      -1.28603755
F        9.68604876       6.98110383      13.58413071       0.41813501      -0.35101966      -0.27707030
F       11.57273094       5.81688418      13.26380263       0.42803567      -0.76978097       0.88995466
F       11.63074146       7.81175123      14.22532200      -1.69464346       1.00536207       1.40902482
C       11.91779919       5.71662762      16.34069537       0.68786936       0.10843607      -0.04398027
F       12.62441932       4.78603468      15.76798449      -0.19757381       0.82182645       0.17997740
F       11.62852832       5.21972460      17.53598350      -0.06668865       0.52871242      -0.25257097
F       12.62734282       6.90310885      16.47062713       0.24041597      -0.22311021       2.62055963
H       10.01580511       4.21333190      14.91085829      -0.22162099       0.05453920       0.07034579
H       10.15207435       6.77772367      16.06725775       0.25667873       0.01181426       0.22122090
O        0.43686439       8.92195371      16.18667679      -0.33631482      -0.11496369      -0.67508575
C        1.38631812       9.74862275      16.61907194       0.19314477       0.56022439       0.22822770
C        1.34452343      11.19449734      16.05134283       1.47815200      -0.40505272      -0.35960239
F        0.19160529      11.75585927      16.29376572       0.93766796      -0.05279622      -1.48337994
F        1.51725726      11.17767486      14.71028912      -0.52308140      -0.62947212       0.33292211
F        2.29798194      12.03889015      16.49670968       0.13817605       0.28945122      -0.34436343
C        2.75788905       9.08631016      16.47368012      -0.96926000      -0.01149251       0.16329530
F        2.95389597       8.91178548      15.15099141      -0.52559211      -0.09887810      -0.05662541
F        2.72468142       7.90210053      17.08871593       0.83865457       0.58276326      -0.54155502
F        3.81159839       9.78594481      16.95700068      -0.75373927      -0.89047066      -0.33825853
H        0.42580278       8.87390161      15.23788538      -0.13420016       0.01231543      -0.08802396
H        1.18250971       9.88227673      17.65736081      -0.19610717       0.03159880      -0.07389066
O       13.22242361      15.28900470      13.32317498      -0.90612224       0.47342033       0.83920963
C       14.12214040      16.08390335      12.54325582       0.64922447      -0.25570884      -0.16958319
C       14.83571495      17.18891555      13.44032091       0.68993424      -0.76649725      -0.19457071
F       15.45276760      16.66775692      14.51665845      -0.91888239      -1.45544706      -0.70744743
F       13.92112712      18.05307807      13.90715397      -0.53405081       0.48174991       1.13575694
F       15.67510545      17.89631913      12.67486892       0.63211274       0.28974935      -0.80089755
C       13.49032415      16.66551044      11.26687111       1.12118569      -0.06493458       0.90788932
F       12.48244447      17.48389041      11.51876779      -0.72693823      -1.01230044      -0.15471448
F       13.10260208      15.62963688      10.55128882       0.07992223       0.15791216       0.24619231
F       14.39777766      17.30248642      10.43997505       0.47774121      -1.20168770       0.87298470
H       12.38107570      15.69344409      13.43136894       0.00631692      -0.21522504       0.04884038
H       15.01860288      15.49080798      12.22986115      -0.23123237      -0.16504012       0.21173590
O        7.95417080       2.67233234       2.09508999       0.93168352       0.33338348       0.31998764
C        6.65903092       2.79046883       2.64377005       0.25075477      -0.08187344      -0.85000328
C        6.07816224       4.20114373       2.61763266      -0.18420852       0.35078986       0.18542744
F        6.02993807       4.56244624       1.32978980       0.48141243      -0.02159851       1.60938729
F        6.86599015       5.07323616       3.24184025       1.00773342      -1.43284172      -0.96177924
F        4.83699693       4.33811709       3.04480579       0.74560348       0.38333510       0.06987875
C        6.68469935       2.16984717       4.01606481      -0.07963568       0.12769034      -0.59351776
F        7.61524614       2.69732048       4.78808846      -0.66126940      -0.81002517      -0.59622981
F        6.98571972       0.82192380       3.90741100      -0.00846785       1.36318978      -0.70870725
F        5.52352851       2.25465616       4.66368072       0.49901104      -0.71077145      -0.54245795
H        8.65544734       3.18537369       2.52544709       0.23579881       0.22009300      -0.12652374
H        6.08971487       2.17879943       1.91422453      -0.16897521       0.17639344       0.32753073
O        8.09416818       7.07419900      10.43212065      -0.74128219       0.01693633      -0.78692870
C        6.84787193       6.95374951      10.94975313      -0.03571053       0.06482151      -0.19542555
C        6.22430548       5.57027295      10.64762919       0.00129896       0.24305987      -0.13652076
F        6.89475860       4.59072818      11.23584339       0.13174280       0.70780354       0.26644698
F        6.23251455       5.37114572       9.32673159      -0.91203441      -0.14147013       0.02562059
F        4.97656282       5.39242910      11.14953476       0.12972536       0.40922341       0.11219354
C        5.96771939       8.11943292      10.45434317       0.36586674       0.92187884      -0.39656495
F        5.89046302       8.14577857       9.11577199      -0.24940692      -0.86239303      -0.20634025
F        6.48278066       9.27598836      10.85061450       0.78700460       0.52331735       0.29695193
F        4.70073462       8.02299421      10.82734346       0.08121076      -0.30578975       0.32244652
H        8.09802606       7.02012401       9.45814706       0.14768622       0.05848159      -0.08805268
H        6.93633682       6.94377762      12.00068869      -0.33270012       0.05072728      -0.12465489
O       14.03998461      15.04168871       5.65952502      -0.71022933       0.31166408       0.30658067
C       15.11816805      15.69878383       6.32925454       0.04278328       1.06135975      -0.08640641
C       15.18079650      17.10745546       5.71217454       0.17701013       0.90446927       0.23905333
F       13.97477237      17.66106335       5.87198331      -0.37674167      -1.42326174       0.89576714
F       15.35454083      17.15556587       4.36743240       0.76907820      -0.11328620      -0.24367929
F       16.01109709      17.92186581       6.36698604      -0.70197462       0.00038204      -0.10087158
C       16.52675437      15.00265834       6.23019829      -0.80241763      -0.17058600      -0.79714947
F       16.87338383      14.76209076       4.90379119       0.38671501       0.50457408       0.19915458
F       16.49263297      13.82914630       6.83118393       0.32871265      -0.40545026       0.05410209
F       17.42634541      15.77357291       6.79690476      -0.05132695      -0.05578723      -0.06040791
H       14.20056879      14.09319753       5.43762853       0.08840451       0.06128328       0.18685792
H       14.93991776      15.73211281       7.39702377      -0.01484003       0.31877453       0.17470460
O        2.65966144       7.55451924       6.12760689      -1.22713918       0.76130459       0.66900539
C        2.99722671       6.23304517       6.13728437       0.27660578       0.50382003      -0.09673142
C        2.67515524       5.51694426       7.52395288       0.15176125      -0.43933230       1.07681846
F        1.35257483       5.64911504       7.76066089      -1.03653271      -0.62148339       0.74998383
F        3.32139459       6.08777734       8.58128082       1.03246960       1.40480321      -0.36531048
F        2.89347877       4.23994270       7.47063598      -1.57360516      -0.04116496       0.32322514
C        4.43354356       6.17758610       5.64600919      -0.36698654       0.12368105      -0.07948916
F        5.33835187       6.73297494       6.47990434      -1.11458601      -0.57206303       0.07709887
F        4.54069730       6.72145610       4.44111277       0.08996785      -0.72234087      -0.02245132
F        4.81402750       4.82922552       5.59529581       0.93735898      -0.02316506       1.67857434
H        1.73084963       7.71293861       6.06416862      -0.31531888      -0.29611643      -0.02070350
H        2.42483760       5.66074480       5.41637122       0.06942087      -0.17807419      -0.01181678
O        9.71434283       4.17775714       9.19262226       0.53453476       0.24496800      -0.50157243
C       10.53256173       4.04274308      10.34151474       0.07796966       0.34838110       0.33197027
C       11.94565192       4.27177387       9.98251016      -0.28877333       0.60152967      -0.51501096
F       12.12902262       5.49122078       9.45744263      -0.09279604      -1.14408003      -0.01265856
F       12.32639808       3.36276252       9.05647071      -0.42305712      -0.54616838      -1.16248042
F       12.74372234       4.13293708      11.03319134       0.75643871       1.28002536       0.84102266
C       10.26614527       2.71266035      11.02374679      -0.59238868       0.89503826       0.66672079
F       10.61591948       1.65544032      10.30912865      -0.53379931      -0.36848424       0.93394866
F        8.97585754       2.61778095      11.41250663      -1.09595331      -0.19181356       0.08980578
F       11.00617404       2.68474394      12.19578325      -0.61135961       0.61515849       0.05730663
H        9.60735981       3.35528701       8.68452465       0.50075337      -0.13821223       0.07999102
H       10.32021637       4.83803676      11.03084549      -0.04806736       0.01738670      -0.32475577
O        7.98555901      10.67751213      15.00775765       0.08887931      -0.18221793      -0.39440349
C        6.82828820      10.66943454      14.21022309       0.34799503      -0.52052291       0.33368832
C        5.80668315      11.67719234      14.77498723       0.15794122      -0.76079972       0.09486569
F        6.36576201      12.93959517      14.74104445      -0.06969945       0.78281905      -0.11265134
F        5.54236895      11.35029779      16.08419441      -0.87225411      -1.81010657       0.03234023
F        4.68990637      11.70901732      14.12090713      -0.33370107       0.18854423      -0.54594787
C        6.32498896       9.25622191      14.08354691       0.31808439      -0.93145147      -0.17947281
F        6.09111591       8.65963332      15.27709759       0.16328316       0.09824766      -0.73913784
F        7.30142228       8.45989520      13.52069688      -0.43269440       2.01515696      -0.65633564
F        5.29200115       9.25625880      13.28729398      -0.40851320      -0.27415826      -0.18179883
H        8.25867682       9.77480649      15.22432514      -0.17938158       0.06886592       0.15664489
H        6.93939192      11.06556087      13.19259984       0.04629520      -0.01429164      -0.16438916
192
Lattice="18.21540664626255 0.0 0.0 0.0 18.21540664626255 0.0 0.0 0.0 18.21540664626255" Properties=species:S:1:pos:R:3:momenta:R:3 Built=T with=T Packmol=T charge=0 spin=1 external_field="_JSON [0.0, 0.0, 0.0]" pbc="T T T"
O       15.32089529       5.95124478       8.43040070       0.41400938      -0.32806984       0.43726164
C       15.05735688       7.17416994       7.76277883       0.56973773       1.01326720       1.74032249
C       14.40219699       6.91193321       6.39211951      -1.14409038       0.44559355       0.19244934
F       13.21413833       6.45172190       6.55767201      -0.20234986      -0.05114763       0.54413045
F       15.11426859       6.04914506       5.70006690      -0.57651067       0.54666149       0.63997021
F       14.20698603       7.98694907       5.63694017      -0.49680146       0.28519602      -0.25494987
C       16.41684451       7.99414087       7.60510852       0.45332127      -0.25734324      -0.86122371
F       17.32595770       7.29355472       6.82340396       0.33335262      -1.67980386      -0.35235652
F       16.91420820       8.28056235       8.78623739      -0.38597707       0.68028501       0.62488666
F       16.22584717       9.14042923       6.97019343      -0.42347072      -0.12830823       0.61777739
H       15.74433977       5.32412389       7.93550530      -0.00886332      -0.09000616      -0.10400315
H       14.41745132       7.70068924       8.43714585       0.23859535      -0.00017002      -0.00854512
O       14.43462907      12.38447841       4.40101209       0.09889881      -0.17874810      -0.27752485
C       13.77666347      11.97512006       3.23441764       0.24508000       0.03016893       0.08762610
C       12.33588622      11.50514721       3.54962701      -0.73508133       0.14102797       0.94845651
F       11.69701139      12.51908110       4.16154446      -0.64467129       0.43003791      -0.39702458
F       12.41443546      10.44712873       4.44588386       0.44740002       0.14743476      -0.86782291
F       11.64315950      11.15821064       2.45091938      -0.09217860       0.33804804      -0.04305026
C       14.56895488      10.88469664       2.42818765       0.72429226      -0.12281721      -0.22395115
F       14.68040708       9.82920525       3.26869822       0.74594712       0.85301607      -0.37741276
F       15.79837917      11.27173165       2.22452928      -0.48875452       0.11397650      -0.07109545
F       14.03218318      10.48132867       1.25188793       0.86564777      -0.29509794      -0.62450040
H       14.61075258      11.60924263       4.95620916       0.01724292       0.05187024      -0.22844610
H       13.59524484      12.88288322       2.63458830      -0.03506381      -0.30508085       0.21858147
O       13.15638767       2.92283218       4.87219109       0.26360890      -1.80375251       0.73147048
C       12.66916272       3.17579211       3.57653457       0.24393480      -0.38569497      -0.05982713
C       11.16978771       3.51892070       3.71417927      -0.95030626       0.46458181       0.30983156
F       10.96190335       4.50793370       4.57836914       0.47296006      -1.76803545       0.94128199
F       10.42057552       2.47799024       4.20394650       0.52033473      -0.57000191      -0.25135761
F       10.57634660       3.93640130       2.58339697       0.93997375      -0.36462790       0.29964988
C       12.96211099       2.06420007       2.55808548       0.16687302       0.05664884      -0.42999973
F       12.50500208       0.90117005       2.97271022      -0.72070426      -0.44318588      -1.02777010
F       14.25621598       1.93972955       2.42304641      -0.00832346       0.05589050      -0.50287097
F       12.49549610       2.36925836       1.31291097      -0.23248954      -0.06757688      -0.10462686
H       12.84486508       2.11840383       5.29477351      -0.03539206      -0.10454040       0.06830766
H       13.14451942       4.14214911       3.30284848       0.00338696      -0.04514873      -0.04376835
O        6.74357728      16.48006196      13.61928652       0.87879675      -0.55007268      -0.09207777
C        7.61145863      16.19681866      12.59114154       0.21614009       0.73445027       0.50174521
C        8.83464196      15.47898774      13.13026115      -0.13270690      -0.87633817      -0.12727037
F        8.34966886      14.33930189      13.68838368      -1.97716577      -0.06612878      -1.09139046
F        9.58748454      16.09831915      14.03724847       1.13050119      -0.30854779      -0.20440982
F        9.63750360      15.14628894      12.05728199      -0.45152298       0.38758401       0.76297553
C        8.01246166      17.49490971      11.87607144      -0.29202183      -0.63432763      -1.54197230
F        8.67292871      18.36171595      12.74066308      -0.69955221       0.22117628       0.21717455
F        6.92462190      18.14242237      11.46329220       0.65090507       0.21208620      -0.39091245
F        8.79632612      17.32264564      10.83874960       0.38522778      -0.22194616      -0.38171534
H        6.93156849      17.34780763      13.90615000      -0.10064269       0.08083442       0.01236246
H        7.11865091      15.48175021      11.95620042       0.11569841      -0.30754596      -0.23077753
O        1.96876554      14.67344079      15.12565198      -0.50791973       0.82299286      -0.09149862
C        2.44253482      15.89073892      14.76125340       0.43422177       0.50567560       0.41963497
C        3.01459368      15.85921220      13.33804580      -0.29530097      -0.34854405       0.66270200
F        2.08302781      15.48388563      12.40129872       0.14038170      -0.09953963      -0.70036073
F        3.91341359      14.86760837      13.32915695      -1.15253665      -0.15114176      -0.74299311
F        3.56168849      17.01556672      12.92231003      -0.55393685       0.34420993      -0.15713048
C        3.56055114      16.40451693      15.80038538       0.06255328      -0.15046086      -1.48590390
F        4.54579874      15.54503270      15.82719190       0.82534599      -0.77161864      -0.66625365
F        3.01588185      16.48091773      17.03803233      -0.03103229       0.43802782       0.73890659
F        4.09956793      17.60641456      15.57749636       0.52397142      -1.14388805       0.42906702
H        2.67061066      14.03208414      15.09923873       0.10045256       0.10183712       0.26652853
H        1.69881171      16.65721118      14.83101296       0.00442577      -0.14226299       0.12469326
O       10.78068200      12.85428946      15.11105982       0.06257216       0.49973233       0.12980686
C       11.81569876      12.01675056      14.84164431      -0.19268356      -0.07249012       1.02395010
C       11.55416553      11.47455172      13.42097932      -0.52361409       0.78223064      -0.45348494
F       11.37785753      12.48216974      12.59749561      -0.38385953       0.08792329      -0.37729759
F       10.46469728      10.69483409      13.34999686      -1.52267714      -0.42140296       0.11490918
F       12.55619213      10.76204687      12.99407594      -0.72154545      -0.35982189       0.95379580
C       12.03445939      10.94647717      15.88186931      -0.11845450      -0.01472303       0.35725269
F       10.95113153      10.19384163      16.07382239      -0.34343154      -0.05196218      -0.00874778
F       12.31248038      11.53549059      17.06651926       0.11284000       0.23122877       0.25315029
F       13.04946736      10.17067714      15.64119090       0.88955557      -0.68598777       0.75100071
H        9.89344459      12.41243246      15.13070302      -0.00068244      -0.01395742       0.16353258
H       12.73139497      12.56602853      14.82265077       0.26668383      -0.22439291      -0.03730501
O        4.35644059      15.73372424       7.65176719       0.79440969      -0.10599786       0.68919669
C        5.10979885      14.99125021       8.49490865      -1.19117184      -0.32492422      -0.04843031
C        6.58057769      15.52826026       8.65478838       0.54113516      -0.08987029      -0.16572480
F        6.53391522      16.70776243       9.19676118       1.01333510       0.49763991      -1.71745239
F        7.21397447      15.48439417       7.48380288       0.03830367      -0.19947336      -1.96884059
F        7.23602259      14.73290864       9.52698962      -0.09342725       0.78326580      -0.04056587
C        4.98567655      13.49033267       8.12713581       0.62801645      -0.30981387       0.48049616
F        5.58751656      13.40081020       6.88913297      -0.44075631       0.46776433      -0.06246571
F        3.72474202      13.14080109       8.01226382       0.51750610      -0.42856272       0.95013356
F        5.70155803      12.63495942       8.92841611       0.85785382       0.81054665       0.75572046
H        4.74021521      15.77563669       6.78880772       0.09786632       0.31637909      -0.01039017
H        4.66736676      15.09474732       9.50933398       0.14339294       0.20139664       0.08186498
O        9.76263393       4.80412217      15.51836685      -0.20782722      -0.07685567       0.52799873
C       10.58629723       5.87823503      15.50912620       1.56953197       0.16041638      -0.81676728
C       10.87248771       6.55752101      14.20766346       0.31929663       1.11617058       0.02176771
F        9.66844303       6.90416096      13.63487462      -0.29593744      -1.24642977      -0.71429447
F       11.53728412       5.68133354      13.32337759       1.13894034      -0.45819978      -1.25791353
F       11.59524376       7.70870229      14.28360234       0.91823613      -0.33808791      -0.76322600
C       11.90650620       5.62709430      16.36181893       0.31752136      -0.72319642       0.44324734
F       12.66584937       4.67829009      15.80273480      -1.59239623      -0.46708229       0.17133999
F       11.62838951       5.11592329      17.56120730      -0.00754939      -0.92970309      -0.12721479
F       12.62331723       6.73626583      16.48585996      -0.06880530       1.16410004       0.23084624
H       10.06790449       4.12732470      14.89514062      -0.07931081      -0.20228033      -0.06574227
H       10.00777748       6.65121458      16.02163762       0.03435005      -0.02351664       0.00746911
O        0.37658653       8.90579461      16.21422292       1.37786949       0.44158005       0.52664283
C        1.37432057       9.81072739      16.67475139      -0.33734517      -0.77917974      -1.35683130
C        1.30508411      11.21025691      16.04653469      -0.70831253       0.15428080       0.31870481
F        0.19027792      11.74232908      16.33192277       1.20746340       0.17907495      -0.61485884
F        1.51174313      11.17771222      14.75817357       0.30607794       0.36440146      -0.25929456
F        2.30855470      12.09304057      16.54776817       0.15131470      -0.55856533      -0.72975984
C        2.75680221       9.07838972      16.49780134       0.12544174      -0.44456366       0.08551914
F        2.95463135       8.92103613      15.16971599      -0.07035991       0.30973083       0.03347192
F        2.76560420       7.92328585      17.10608573      -0.98410018       0.09449920       0.07250320
F        3.80012877       9.78747715      16.97777473       0.67177935       0.46027141       0.07751236
H        0.54853003       8.86549468      15.23698773       0.03728559       0.17813348      -0.26106961
H        1.24583800       9.95116615      17.77356865      -0.10003643      -0.06273221      -0.00723407
O       13.25819921      15.33581179      13.31940188      -0.29734218      -0.79927561       0.56100261
C       14.16934655      16.12545375      12.59541272      -0.57209442      -0.31086452      -0.77606799
C       14.83077021      17.20725708      13.44334066       0.42152368      -0.03961889       0.55662219
F       15.46500007      16.71404340      14.50297343       0.02822163      -0.50513814       0.93057260
F       13.95377698      18.04945111      13.90516015       0.04260692       0.39102862       0.28702558
F       15.70024376      17.96088247      12.70037908      -0.19120785      -0.79422587      -0.42367774
C       13.57265190      16.65827401      11.27023977      -0.98646138       0.10588351       0.42048374
F       12.52811486      17.51042575      11.51633550      -0.85082859       0.07587617       0.50352857
F       13.09776799      15.64398550      10.54720483       0.77822261       0.37713435       0.54330860
F       14.41125333      17.32434829      10.45072444       0.23484652       0.13852055      -0.23933887
H       12.43001674      15.80233277      13.50402191      -0.34423634      -0.08599661       0.02404713
H       14.89190418      15.42205950      12.26229245       0.11313168       0.24764379      -0.01245952
O        7.87388239       2.71154415       2.06731978      -0.45685502       0.24268805       0.54954082
C        6.58868336       2.81819028       2.58267129      -0.64330547       0.07605850       0.39563749
C        5.94687076       4.28676167       2.59730321      -0.23657558      -0.37094984       0.67220144
F        5.94474687       4.61982231       1.28287081      -0.59006800      -0.21461925       0.81657338
F        6.78325041       5.15034990       3.24683136      -0.35191623      -0.45209736      -0.44969896
F        4.68379509       4.40852834       3.01665947       1.06373374      -0.28202077       0.26670896
C        6.60480752       2.20911586       3.99993835       0.02089584       0.58747727      -0.05235725
F        7.54984594       2.77760249       4.77587177      -1.06579712      -0.72106077       0.01384824
F        6.86965521       0.92574394       3.89451640       0.18594183      -1.27158452      -0.05550607
F        5.39836068       2.31421616       4.65970615       0.12221784      -0.15961095      -0.01614130
H        8.56030624       3.14220400       2.61055194       0.14572563       0.05894218      -0.24190773
H        5.87638782       2.26298494       1.88574133       0.23956504       0.13415115      -0.09053248
O        8.08210989       7.05241053      10.43756524      -0.08765352       0.63286269       0.39487848
C        6.81506211       6.96707884      10.99726031       0.71883217       0.63822257      -0.58001849
C        6.21826464       5.55143682      10.62759972       0.22440294       0.38386191      -0.08361420
F        6.94639290       4.57238339      11.25685757      -1.27070537       0.49665539       0.16507481
F        6.20565629       5.36891630       9.29899540       0.96520960       0.41879984       0.93407243
F        5.00564087       5.40283776      11.17507727      -0.47243309      -0.17281423       0.01707206
C        5.97612683       8.09096282      10.45709362       0.24272158       0.27923973      -0.08869467
F        5.91101711       8.13114321       9.15005817      -0.62559906       0.62804676      -0.07523681
F        6.51626480       9.28682727      10.88344395      -0.48258993       0.15772740      -0.41700995
F        4.70039370       8.00029852      10.83368424       0.29869450       0.72838194      -0.15824279
H        8.05640877       6.98453282       9.44359049       0.14171156       0.07794981      -0.06577074
H        6.97694686       7.01045385      12.06520371       0.19012399      -0.18998401       0.17111649
O       14.07221903      15.01908517       5.69573460      -0.81745552       1.04513210      -0.74100602
C       15.15898830      15.68208113       6.28968381      -0.37902418       0.19446443       0.69501523
C       15.21186410      17.16011895       5.71524849       0.48030345      -0.24112637      -0.04411436
F       13.95956451      17.70651474       5.86653771       0.79842372      -0.61499684       0.12096905
F       15.37495442      17.16078287       4.41463947      -0.41791370       0.38055552      -0.93297333
F       16.09949555      17.92566606       6.37122347      -1.72619089       0.49506094       0.33257419
C       16.53700398      14.98468174       6.22543888       0.41984662       0.29937086       0.72461922
F       16.90245496      14.76206135       4.94604537      -0.15727682       0.51715275      -1.22762839
F       16.52719709      13.80117962       6.84936272      -0.39419887       1.34694752      -0.36870833
F       17.48498458      15.78898782       6.77651087      -0.90569880       0.40076307       0.74621030
H       14.48550147      14.23028217       5.24366494      -0.18388623      -0.19976680       0.29304210
H       14.96937904      15.93664092       7.34462031       0.02362114      -0.11144236       0.21553430
O        2.63609257       7.60126378       6.13887628       0.99751974      -0.68731432       0.06376741
C        2.95662588       6.22259845       6.12084413       0.57338363       0.28115158       0.23514987
C        2.66809075       5.61840384       7.49552950       0.58207889      -0.96409726       0.56386118
F        1.28994378       5.64758342       7.75777976       1.31060022      -0.06365926       0.43173556
F        3.31969214       6.02142045       8.54397352       0.15890701       1.62377766       1.23596537
F        2.90871136       4.28098345       7.45642570      -0.41918294      -0.75450417       0.71454700
C        4.41855274       6.13331130       5.63269260      -0.29148150       1.50694498      -0.10338616
F        5.32123077       6.74482020       6.45590744       0.97899933       0.03371725       1.10252466
F        4.54470880       6.71724974       4.44003458       0.05586206       0.45259526       0.16371043
F        4.79629618       4.78577822       5.56953063       0.80513512       0.49890546       0.95231466
H        1.71719311       7.57909253       5.91285172      -0.07268531       0.00885028       0.15347064
H        2.36702201       5.54677171       5.39688204       0.09370421       0.00208510       0.03089150
O        9.67481638       4.24778992       9.27192970       0.16006598      -0.68686127      -0.46874552
C       10.45924450       4.13676576      10.40305452       1.11528756      -0.51638106      -0.04853987
C       11.87922468       4.33664034      10.04455196      -0.47899582      -0.19098886       0.17760165
F       12.05878582       5.53411567       9.51275264       0.56921616       0.05298194       0.28634517
F       12.23675883       3.42917245       9.12173014       1.03104025      -0.40284196       0.08031596
F       12.71220203       4.20348060      11.08177196      -0.41971855      -0.59298322       0.44823369
C       10.26545612       2.76966743      11.10778853      -0.39832799      -0.13959590      -0.92929739
F       10.53891857       1.69530652      10.35577199       0.77893174       0.17425722       0.48856069
F        8.93569013       2.67248271      11.46211060      -0.69609669      -0.14227657       0.61410024
F       10.98709278       2.70122157      12.24368210      -0.53981800       0.92964391       0.72589769
H       10.00718770       3.76709069       8.55313015      -0.55293282      -0.21111967       0.13535230
H       10.11144876       4.88918481      11.11723446       0.20711524       0.11965568       0.08043613
O        7.99467323      10.69563267      14.99986791      -0.75899944      -0.30030183      -0.06596572
C        6.89823871      10.67003581      14.27331101      -0.26840012       0.13088250       0.08090871
C        5.84164444      11.66439703      14.82558315      -0.96001681       0.26599187      -0.68784326
F        6.36175103      12.93412475      14.74646142       0.52691987       1.00431257       0.20410850
F        5.54409133      11.34449765      16.06502296       0.12024900       0.25088841       1.06459616
F        4.70089858      11.70424005      14.11743689       0.07613172       0.50150607       0.70874380
C        6.35105586       9.26534445      14.09881291      -0.72006520       0.10298695      -0.38617536
F        6.09753893       8.67971454      15.28651773       0.19452323      -0.22426709       0.44680714
F        7.32751052       8.48932896      13.54043715      -0.21815287      -0.59654347      -0.02451042
F        5.26813425       9.31820364      13.36089418       1.11036434      -0.92707681      -1.23667079
H        8.35536941       9.81614514      15.11362756      -0.21156956       0.01477805       0.15111317
H        7.16255991      10.94726287      13.19559934      -0.28330150       0.09629402       0.04348007
192
Lattice="18.075901488016072 0.0 0.0 0.0 18.075901488016072 0.0 0.0 0.0 18.075901488016072" Properties=species:S:1:pos:R:3:momenta:R:3 Built=T with=T Packmol=T charge=0 spin=1 external_field="_JSON [0.0, 0.0, 0.0]" pbc="T T T"
O       15.20648897       5.88492456       8.39058362      -0.14509961       0.40261009      -0.68432010
C       14.93428968       7.12715114       7.71256507      -0.12171302      -0.31925208      -0.18462599
C       14.26827759       6.86088819       6.33851999       0.52512754      -0.38995166      -0.16557260
F       13.08942864       6.38017041       6.50936906       0.77903567       1.23394350      -0.45528189
F       14.99538627       6.00162657       5.64885281      -0.06494490      -0.42850559      -0.07446115
F       14.09103772       7.93862025       5.59081244      -0.23475547      -0.68166909      -0.43212325
C       16.33718542       7.94071882       7.53335445      -1.18900913       0.05245092       0.85194488
F       17.19259678       7.24849202       6.77589712       0.97139043      -0.74643793      -0.51045135
F       16.79534446       8.21501781       8.71505364      -0.10839202       0.63560793       0.98504901
F       16.10760466       9.10815643       6.92839213       0.00970782      -1.62333980      -0.71600682
H       15.65819590       5.24375000       7.74668422      -0.11271864       0.05380199       0.47163766
H       14.30738783       7.72709614       8.41414815      -0.03591709      -0.26829256      -0.01780591
O       14.32165310      12.40608675       4.47499747      -0.71563483       0.81905697       0.27122174
C       13.66255631      12.00405326       3.33766444      -0.23395584       0.32483728      -0.73856317
C       12.22079021      11.52050021       3.63760188      -0.47232249       0.80615863      -0.52567562
F       11.56782998      12.55641885       4.23227754       0.21723436       0.04394082       0.55814591
F       12.28311421      10.48388984       4.53063711       0.49032402      -0.16929471      -0.22746671
F       11.52536611      11.21072905       2.52826164      -0.56959902      -1.02765035      -0.03348314
C       14.41765682      10.89651748       2.49859559       0.94288868       0.84099146       0.11273499
F       14.55649634       9.86926163       3.33614280      -0.05364275      -0.11947231       0.75980004
F       15.69038988      11.32120464       2.30428857      -1.13763118      -0.92380619       0.03212078
F       13.91322820      10.51532500       1.34971185      -0.39140441       0.10083703      -1.28216953
H       14.45315474      11.65502268       5.06670109       0.10735424      -0.02109673      -0.11763864
H       13.43035151      12.87909637       2.73559518       0.04027238       0.14158749      -0.04829037
O       12.93591827       2.84341849       4.94116590      -0.80747098      -1.26455898      -0.01896110
C       12.54634233       3.12940446       3.63908950      -0.12726626       0.29685325      -0.71926276
C       11.01207357       3.48398736       3.64318779       0.77251278      -0.96076110       0.35246219
F       10.74680180       4.39502734       4.54272970      -1.02849006      -0.46481448       0.69479570
F       10.24588847       2.38818602       4.01218678       0.80445043      -0.72662356       0.21246308
F       10.52819909       3.93265372       2.47668630      -0.12557470       0.22491141       1.68740694
C       12.91055144       2.08804308       2.56348016       0.90375272       0.14545991       0.16178107
F       12.47236365       0.92085652       2.87156180      -0.04289041      -0.70638957       0.17788612
F       14.26185863       1.99042254       2.52650188      -1.36623959       0.63155677       0.73320712
F       12.57939187       2.47642574       1.32429614      -0.46707384      -0.30126480      -1.02882436
H       12.54091593       1.98720149       5.20691101       0.17359181      -0.02774005       0.27957271
H       13.05304708       4.07179308       3.43478195      -0.09332960       0.26133060       0.11353596
O        6.67793619      16.33128338      13.51155678       0.22792764       1.21118882       0.53364991
C        7.55722201      16.07422526      12.48634499      -0.50973169      -0.29889044       0.29710602
C        8.76146391      15.34213667      13.03687724       0.28174587       0.59535545       0.05090071
F        8.29258496      14.21205452      13.57221518      -0.53940760       0.02899221       1.26868661
F        9.51378703      15.97415498      13.94399122       0.67437880      -0.13925198      -0.16185139
F        9.57051830      15.01199581      11.95580282       0.26701605       0.48352240       0.11971849
C        7.94122409      17.37298475      11.78295900       0.24924921      -0.33514529      -0.21709010
F        8.60514483      18.24164151      12.63526356       0.33889775      -0.27457984       0.61863808
F        6.85356843      18.01954192      11.38996187       0.51585699      -0.25272833      -1.49020564
F        8.73003315      17.20554346      10.74991894       0.08705338      -0.56641716      -0.40447471
H        6.82944379      17.20693232      13.94295822       0.11431858       0.03413479      -0.46678264
H        7.13086182      15.37452210      11.75800498      -0.24223850      -0.08408781       0.38515095
O        1.75001757      14.69142433      14.81466373       0.91864052      -0.04722508       0.64465940
C        2.38907678      15.84182162      14.59982514      -0.02746291       0.40765182      -0.43338065
C        3.07309984      15.84286952      13.20233928      -0.15646748       0.50899762       0.26231753
F        2.16392556      15.67202033      12.19485319       0.24525681      -0.69433266      -0.55744473
F        3.85529511      14.76007044      13.15764052      -0.95278358       0.12922974       1.48292199
F        3.75842059      16.95868112      12.90703249       1.16750996       0.38816178       0.54106039
C        3.49208815      16.16083669      15.72658105       0.36284966      -0.05489661       0.27536245
F        4.37565747      15.18409646      15.74345154      -0.57282982       0.03993222       0.83850008
F        2.86314121      16.22206684      16.93686152       0.84956770      -0.35088455       0.08847744
F        4.17683300      17.28610887      15.62990522       0.67522835       0.65216802       0.60958144
H        2.38463445      13.97263517      14.71325415      -0.05935740       0.11666703       0.27471045
H        1.76613874      16.67943752      14.63121131       0.22677538      -0.08741609       0.12987266
O       10.55044546      12.79522336      15.09817162       0.41972816      -1.31042551      -0.99816686
C       11.67077766      11.98806170      14.83658704      -0.49379056       0.65069808       0.80024870
C       11.55745744      11.51130013      13.40125217      -1.09234132       0.21593482      -0.25068522
F       11.35440132      12.55368963      12.59360459      -0.28762474      -0.30610957       0.74195620
F       10.50878553      10.65499312      13.22372018      -0.90031151       1.60407952      -0.74694410
F       12.61399631      10.87765753      12.99997341      -1.27500080       0.45343965       0.96948521
C       11.86726601      10.90926391      15.84690484      -0.04079006      -0.21671927       0.24899243
F       10.79549881      10.08197211      15.94251557       1.39266609       0.03760730      -0.04234265
F       12.02611288      11.45103045      17.09420689      -0.20115695       0.04820559      -0.43392776
F       12.93972120      10.17615174      15.66950839      -0.22239012       1.55160993      -0.33109592
H        9.73309713      12.28612581      14.99190858      -0.20155512      -0.04769394       0.07624115
H       12.50101655      12.69505059      14.92957660       0.04181603      -0.30991734       0.01150925
O        4.38233459      15.38140278       7.16703368       0.90153736       0.00483654      -0.23209784
C        5.08093582      14.95142566       8.24061625      -0.15616410      -0.29573690      -0.31873483
C        6.55684065      15.44783522       8.31258891       0.47403434       0.83115428      -0.48204417
F        6.56695658      16.75741834       8.42606747      -1.15617806      -0.54616743      -0.66206506
F        7.23995714      14.99289452       7.26271744       0.15387571       1.10080743      -0.86572502
F        7.15743304      14.97451754       9.42379929      -0.85162352       0.15241056      -0.23185632
C        4.91544375      13.41352887       8.37781310      -0.88203104      -0.42798292       0.30896179
F        5.53402688      12.89348076       7.28823520       1.06342661       0.21382308      -0.47098757
F        3.62536112      13.07061089       8.32901154       0.24975745       0.52213423      -0.34124504
F        5.55862766      12.84649341       9.46983389      -0.89708254      -0.16178543      -0.32320373
H        4.80039039      15.11607433       6.33645883       0.01950253       0.01403965       0.16258600
H        4.58756795      15.34300776       9.10991793       0.04443493       0.08175992       0.09575972
O        9.68095111       4.74252145      15.38990170      -0.20805444       1.15023809       0.84757012
C       10.48949021       5.82100559      15.41051039       0.13483137       0.24354133      -0.92672393
C       10.78669486       6.50762695      14.06432391      -0.05987977       0.14851852       1.34210404
F        9.57866181       6.85824749      13.52440734       0.01233711       0.07210659      -0.43227724
F       11.42628967       5.63886540      13.19528851       1.71493744      -0.41214638       0.57907321
F       11.53478079       7.66561313      14.15002957      -1.54658112       0.09557904       1.08318193
C       11.81164683       5.58631604      16.23089352       0.45893340       0.01920064       0.61236366
F       12.56382216       4.62515846      15.67395539       0.94568679       0.45212515       0.88791577
F       11.52956362       5.05947486      17.44413239       0.85274699       0.57136494      -0.00188137
F       12.52340261       6.67978959      16.37462503       0.82295743       0.63395625      -0.38989312
H        9.91494161       4.08324621      14.68824890       0.24251822      -0.12015590       0.18657135
H        9.97057517       6.59321133      15.94818122      -0.14406062      -0.02814890      -0.23302685
O        0.35470428       8.81974037      16.10536878       0.30331343       0.29349107      -0.70653302
C        1.33375433       9.72809238      16.54450428       0.80291081       0.36207868       0.18809383
C        1.29751010      11.13609551      15.90732759      -0.71959034      -0.12462020       0.27953031
F        0.16657451      11.67275508      16.19046984       0.90587574      -0.67232423       1.06743962
F        1.49432841      11.11278569      14.65138389       0.14544237      -0.79122048      -0.73617451
F        2.29564627      12.03226459      16.42435213       0.05267915      -0.81541075       0.00665219
C        2.73070933       9.01328985      16.37462452       0.50690740      -0.74372849      -0.00153066
F        2.93262154       8.85847049      15.03954034       0.42546578      -0.87615592       0.33232095
F        2.73918054       7.84395394      16.99058247       0.75872140       0.20993711      -0.53945780
F        3.77344388       9.71478987      16.85904067       0.84780710      -0.26689517      -0.33225882
H        0.41695462       8.82309467      15.14275433       0.44998383      -0.06612304      -0.16622171
H        1.19914485       9.89766624      17.57645029       0.14065385      -0.07997367       0.15013481
O       13.26827843      15.20422784      13.32812865       0.26902465       0.20031438       0.12698160
C       14.15379359      16.04756418      12.64312679       0.04425384       0.39552465      -0.39111311
C       14.48675601      17.34885511      13.37360108      -0.68475119      -0.16350232       0.36203071
F       14.99324250      17.12497918      14.59095470      -0.51810848       0.09117911      -0.24703995
F       13.40401697      18.04877506      13.55119331       0.36130766       0.30273162       0.97904631
F       15.31502759      18.14539184      12.67264836       0.13064920       0.04944743      -0.92947925
C       13.70682478      16.27463298      11.17659782       0.43600038       0.16130299      -0.50494293
F       12.52767741      16.95141267      11.10749192      -0.64616833      -0.06485631       0.45479487
F       13.54228930      15.13625519      10.55913880      -0.06243057      -1.34947251      -0.73776868
F       14.56014416      16.98057659      10.38816627      -0.05421959       0.27139742      -0.75183376
H       12.38927875      15.54754274      13.36607227       0.03013315      -0.13832403      -0.19740947
H       15.03203426      15.42617878      12.47945582      -0.09967264       0.12763783       0.13886313
O        7.83178366       2.66705220       2.04038279      -0.24359924       1.01696328       0.18090161
C        6.52502966       2.77908742       2.55459424       0.67880008       0.36261952      -0.05710325
C        5.89401882       4.29187478       2.57307732      -0.20666424      -1.00006805       0.17648386
F        5.88782936       4.60935569       1.26068424       0.49719030      -1.02068383      -0.20183858
F        6.73571379       5.12574586       3.23048925       0.04258146       0.02480924      -0.50204957
F        4.65700433       4.39672218       2.98479743      -1.45323064      -0.81699632       0.40528721
C        6.55380055       2.18230723       3.97706641       0.26090887      -0.01638197      -0.07438192
F        7.50242817       2.75687892       4.75291626      -0.04308082      -0.24595209      -0.07267520
F        6.81862056       0.90841257       3.85773643       0.06257057      -0.30629196       0.72925990
F        5.35360713       2.28765852       4.62297495      -0.42997719       0.09736449       0.84515360
H        8.47192261       3.09160661       2.61449814       0.16264604       0.06809718      -0.12154929
H        5.82449124       2.27146393       1.92358073      -0.05075832      -0.06910325      -0.26219728
O        8.03494487       7.01744609      10.35632782      -0.17746202      -0.95895309      -0.01550664
C        6.77733741       6.91214637      10.91439252      -0.37967459       0.27510754       0.33398670
C        6.14789015       5.49783604      10.55701287       0.72372028      -0.01862067      -0.66615502
F        6.89814888       4.52200908      11.18344026       0.06515214      -0.25715511      -0.27190285
F        6.14643534       5.30915883       9.23272646       0.77529982       0.51613263      -1.00399715
F        4.95974865       5.36179418      11.08932471       0.04016235      -0.73501508       0.42161657
C        5.92033640       8.06724020      10.39413747       0.38186430      -1.23074739      -0.73529589
F        5.86508577       8.09405718       9.06610579      -0.20026927      -0.99156939       0.36863381
F        6.46210129       9.24780987      10.79114655       0.53021242      -0.76203879       0.78259330
F        4.64394580       7.94172039      10.75883083       0.59398780       0.32369424      -0.48959777
H        8.05361966       6.91181376       9.42314918      -0.11092369       0.08791886      -0.14974139
H        6.91450527       7.04687614      11.97071239       0.10534029      -0.26837060      -0.01838916
O       13.95426098      14.87949415       5.65685998      -0.29685262       0.83154531      -0.45457082
C       15.02371761      15.58329292       6.27049529       0.57530157      -1.11853964      -0.91502947
C       15.08828082      17.04313434       5.66714099       0.33786589      -0.04918830       0.12930112
F       13.84277627      17.59372018       5.80320412      -0.35712754      -0.63532024       1.06103659
F       15.25596333      17.05169061       4.34691492      -0.26855974      -0.89431519       1.50274464
F       15.98835841      17.78381479       6.30588131      -0.56211605       1.22181852       1.37818096
C       16.40886620      14.85695688       6.18005659       0.31073042      -0.01840397       0.03501444
F       16.76785301      14.62603285       4.91368366       0.91152655       0.86147303      -0.83195483
F       16.41957258      13.69895497       6.80427081      -0.82360173      -1.27084265      -0.05882241
F       17.36115664      15.65980711       6.74001727       0.28767954       0.54718320      -0.52444182
H       14.26586147      14.11165867       5.20604159       0.34819016       0.05894900       0.02882270
H       14.81129250      15.82492557       7.28960651       0.15281939       0.04139938      -0.08641186
O        2.66217394       7.53872517       6.16643380      -0.45177995       1.40466789       0.27593147
C        2.96124903       6.17385776       6.14594707       0.26230029       0.36415102       0.16286607
C        2.68787414       5.53647538       7.54232333       0.10053863       2.02585819      -0.49429732
F        1.28820452       5.60728413       7.78773102       0.81207900      -0.01153623       0.13281461
F        3.32833448       5.98713472       8.56606907       0.35661343      -0.48219664       0.49029364
F        2.92727322       4.23548793       7.45571753      -0.25826277       0.49044241       2.09110679
C        4.42861018       6.09272940       5.67272577       0.01377352       0.24355327      -0.48565814
F        5.33649230       6.70727389       6.48422337       0.14177849      -0.00231613       0.25531340
F        4.56548060       6.65668253       4.47749871      -0.33533078       1.44389697      -0.42528969
F        4.80163451       4.75574467       5.59213794       0.68327548      -0.85767121       0.54959652
H        1.72446658       7.53910638       5.87785449       0.02523358      -0.11687672       0.19750562
H        2.42955809       5.55833898       5.44151263      -0.15326068      -0.24950621      -0.07160752
O        9.58360679       4.19403858       9.21280890       0.48374830       1.38197044      -1.07771104
C       10.39748197       4.12160420      10.33320893      -0.72729914      -0.17492344      -0.39969826
C       11.79528248       4.29221768       9.95113380      -0.29086873       0.58852230       0.49605050
F       11.97509277       5.50872533       9.40969464      -0.05549448      -0.15816301       1.48292737
F       12.14388752       3.40551721       9.03078800       0.49937427      -0.15875024       0.76235010
F       12.63796707       4.18683958      11.00517943      -0.62048119      -0.69118104      -0.16303621
C       10.17117130       2.74191469      11.04161608       0.59441496      -0.08467148      -0.60943193
F       10.44599821       1.69247098      10.28931413       0.52300037      -1.57114169      -0.86226016
F        8.85353897       2.63890857      11.37415139      -0.29908245       0.38886687       0.51485351
F       10.91153496       2.69962121      12.15052080      -0.52666933      -1.60655097       0.81545968
H        9.98997843       3.78357541       8.40562789      -0.15811758       0.06075053       0.13800693
H       10.10771037       4.87941586      11.00825232      -0.23915280      -0.17376469      -0.00607901
O        7.95322560      10.60397858      14.89826829      -0.69834644       0.61342431      -0.81895750
C        6.85361069      10.60497740      14.13779159       0.19003163      -0.55330195       1.34162624
C        5.79907880      11.57809704      14.71103856      -0.30284006       0.10419380       0.27882085
F        6.30850338      12.86142725      14.60863555       0.41442277      -0.29030872       1.60908136
F        5.48022298      11.27339238      15.95130468       1.01733159      -0.65799702       0.09880290
F        4.67046512      11.62560698      13.99480313      -1.10794417      -0.05931906       0.74063875
C        6.29993813       9.16631969      13.98364583      -0.01763831       0.61395368      -0.03250638
F        6.05390456       8.59466916      15.17815178      -0.20815400       0.32117883      -0.12135147
F        7.29070281       8.40707739      13.42023288      -0.59100967       0.09318931       0.57495549
F        5.23252135       9.24143941      13.24809407      -0.67645125      -0.05520147       0.18527723
H        8.34002513       9.71126323      14.90782815      -0.13625939       0.04299316       0.31246587
H        7.05741715      10.89330571      13.11199590       0.24596262      -0.13284765      -0.12680559
192
Lattice="18.073043482587813 0.0 0.0 0.0 18.073043482587813 0.0 0.0 0.0 18.073043482587813" Properties=species:S:1:pos:R:3:momenta:R:3 Built=T with=T Packmol=T charge=0 spin=1 external_field="_JSON [0.0, 0.0, 0.0]" pbc="T T T"
O       15.20406752       5.88377335       8.38948000      -0.14509961       0.40261009      -0.68432010
C       14.93186823       7.12599993       7.71146144      -0.12171302      -0.31925208      -0.18462599
C       14.26585614       6.85973698       6.33741636       0.52512754      -0.38995166      -0.16557260
F       13.08700719       6.37901919       6.50826543       0.77903567       1.23394350      -0.45528189
F       14.99296482       6.00047536       5.64774919      -0.06494490      -0.42850559      -0.07446115
F       14.08861627       7.93746904       5.58970882      -0.23475547      -0.68166909      -0.43212325
C       16.33476397       7.93956761       7.53225083      -1.18900913       0.05245092       0.85194488
F       17.19017533       7.24734081       6.77479350       0.97139043      -0.74643793      -0.51045135
F       16.79292301       8.21386660       8.71395001      -0.10839202       0.63560793       0.98504901
F       16.10518321       9.10700522       6.92728850       0.00970782      -1.62333980      -0.71600682
H       15.65577445       5.24259879       7.74558059      -0.11271864       0.05380199       0.47163766
H       14.30496638       7.72594493       8.41304452      -0.03591709      -0.26829256      -0.01780591
O       14.31953380      12.40430867       4.47448884      -0.71563483       0.81905697       0.27122174
C       13.66043701      12.00227518       3.33715580      -0.23395584       0.32483728      -0.73856317
C       12.21867091      11.51872213       3.63709324      -0.47232249       0.80615863      -0.52567562
F       11.56571068      12.55464077       4.23176891       0.21723436       0.04394082       0.55814591
F       12.28099492      10.48211176       4.53012848       0.49032402      -0.16929471      -0.22746671
F       11.52324681      11.20895097       2.52775301      -0.56959902      -1.02765035      -0.03348314
C       14.41553752      10.89473939       2.49808696       0.94288868       0.84099146       0.11273499
F       14.55437704       9.86748355       3.33563417      -0.05364275      -0.11947231       0.75980004
F       15.68827058      11.31942655       2.30377994      -1.13763118      -0.92380619       0.03212078
F       13.91110890      10.51354692       1.34920321      -0.39140441       0.10083703      -1.28216953
H       14.45103544      11.65324459       5.06619246       0.10735424      -0.02109673      -0.11763864
H       13.42823221      12.87731829       2.73508655       0.04027238       0.14158749      -0.04829037
O       12.93402087       2.84298374       4.94065467      -0.80747098      -1.26455898      -0.01896110
C       12.54444493       3.12896970       3.63857828      -0.12726626       0.29685325      -0.71926276
C       11.01017617       3.48355260       3.64267657       0.77251278      -0.96076110       0.35246219
F       10.74490440       4.39459258       4.54221847      -1.02849006      -0.46481448       0.69479570
F       10.24399107       2.38775126       4.01167556       0.80445043      -0.72662356       0.21246308
F       10.52630169       3.93221896       2.47617508      -0.12557470       0.22491141       1.68740694
C       12.90865404       2.08760833       2.56296894       0.90375272       0.14545991       0.16178107
F       12.47046624       0.92042177       2.87105058      -0.04289041      -0.70638957       0.17788612
F       14.25996123       1.98998778       2.52599066      -1.36623959       0.63155677       0.73320712
F       12.57749447       2.47599098       1.32378491      -0.46707384      -0.30126480      -1.02882436
H       12.53901853       1.98676673       5.20639979       0.17359181      -0.02774005       0.27957271
H       13.05114968       4.07135832       3.43427073      -0.09332960       0.26133060       0.11353596
O        6.67662645      16.32869150      13.50958014       0.22792764       1.21118882       0.53364991
C        7.55591228      16.07163338      12.48436835      -0.50973169      -0.29889044       0.29710602
C        8.76015418      15.33954479      13.03490061       0.28174587       0.59535545       0.05090071
F        8.29127523      14.20946264      13.57023855      -0.53940760       0.02899221       1.26868661
F        9.51247730      15.97156310      13.94201458       0.67437880      -0.13925198      -0.16185139
F        9.56920857      15.00940393      11.95382619       0.26701605       0.48352240       0.11971849
C        7.93991436      17.37039287      11.78098237       0.24924921      -0.33514529      -0.21709010
F        8.60383510      18.23904963      12.63328692       0.33889775      -0.27457984       0.61863808
F        6.85225870      18.01695004      11.38798524       0.51585699      -0.25272833      -1.49020564
F        8.72872342      17.20295158      10.74794231       0.08705338      -0.56641716      -0.40447471
H        6.82813406      17.20434044      13.94098159       0.11431858       0.03413479      -0.46678264
H        7.12955209      15.37193022      11.75602834      -0.24223850      -0.08408781       0.38515095
O        1.74950724      14.68891579      14.81237342       0.91864052      -0.04722508       0.64465940
C        2.38856645      15.83931307      14.59753483      -0.02746291       0.40765182      -0.43338065
C        3.07258951      15.84036098      13.20004897      -0.15646748       0.50899762       0.26231753
F        2.16341523      15.66951179      12.19256288       0.24525681      -0.69433266      -0.55744473
F        3.85478478      14.75756190      13.15535020      -0.95278358       0.12922974       1.48292199
F        3.75791026      16.95617258      12.90474217       1.16750996       0.38816178       0.54106039
C        3.49157782      16.15832815      15.72429074       0.36284966      -0.05489661       0.27536245
F        4.37514714      15.18158792      15.74116123      -0.57282982       0.03993222       0.83850008
F        2.86263088      16.21955830      16.93457121       0.84956770      -0.35088455       0.08847744
F        4.17632267      17.28360032      15.62761491       0.67522835       0.65216802       0.60958144
H        2.38412412      13.97012662      14.71096384      -0.05935740       0.11666703       0.27471045
H        1.76562841      16.67692898      14.62892100       0.22677538      -0.08741609       0.12987266
O       10.54861333      12.79344201      15.09585316       0.41972816      -1.31042551      -0.99816686
C       11.66894553      11.98628036      14.83426858      -0.49379056       0.65069808       0.80024870
C       11.55562531      11.50951879      13.39893371      -1.09234132       0.21593482      -0.25068522
F       11.35256919      12.55190829      12.59128613      -0.28762474      -0.30610957       0.74195620
F       10.50695340      10.65321178      13.22140172      -0.90031151       1.60407952      -0.74694410
F       12.61216419      10.87587619      12.99765495      -1.27500080       0.45343965       0.96948521
C       11.86543388      10.90748257      15.84458638      -0.04079006      -0.21671927       0.24899243
F       10.79366668      10.08019077      15.94019711       1.39266609       0.03760730      -0.04234265
F       12.02428075      11.44924911      17.09188843      -0.20115695       0.04820559      -0.43392776
F       12.93788907      10.17437039      15.66718993      -0.22239012       1.55160993      -0.33109592
H        9.73126500      12.28434447      14.98959012      -0.20155512      -0.04769394       0.07624115
H       12.49918442      12.69326925      14.92725814       0.04181603      -0.30991734       0.01150925
O        4.38143478      15.37911816       7.16573201       0.90153736       0.00483654      -0.23209784
C        5.08003601      14.94914104       8.23931458      -0.15616410      -0.29573690      -0.31873483
C        6.55594084      15.44555060       8.31128724       0.47403434       0.83115428      -0.48204417
F        6.56605677      16.75513372       8.42476580      -1.15617806      -0.54616743      -0.66206506
F        7.23905733      14.99060990       7.26141577       0.15387571       1.10080743      -0.86572502
F        7.15653323      14.97223292       9.42249762      -0.85162352       0.15241056      -0.23185632
C        4.91454394      13.41124425       8.37651143      -0.88203104      -0.42798292       0.30896179
F        5.53312707      12.89119614       7.28693353       1.06342661       0.21382308      -0.47098757
F        3.62446131      13.06832626       8.32770987       0.24975745       0.52213423      -0.34124504
F        5.55772785      12.84420879       9.46853222      -0.89708254      -0.16178543      -0.32320373
H        4.79949058      15.11378971       6.33515716       0.01950253       0.01403965       0.16258600
H        4.58666814      15.34072314       9.10861626       0.04443493       0.08175992       0.09575972
O        9.67917633       4.74158451      15.38750910      -0.20805444       1.15023809       0.84757012
C       10.48771543       5.82006865      15.40811779       0.13483137       0.24354133      -0.92672393
C       10.78492007       6.50669000      14.06193132      -0.05987977       0.14851852       1.34210404
F        9.57688703       6.85731055      13.52201474       0.01233711       0.07210659      -0.43227724
F       11.42451489       5.63792846      13.19289591       1.71493744      -0.41214638       0.57907321
F       11.53300601       7.66467619      14.14763697      -1.54658112       0.09557904       1.08318193
C       11.80987205       5.58537909      16.22850092       0.45893340       0.01920064       0.61236366
F       12.56204738       4.62422151      15.67156279       0.94568679       0.45212515       0.88791577
F       11.52778884       5.05853792      17.44173979       0.85274699       0.57136494      -0.00188137
F       12.52162783       6.67885264      16.37223243       0.82295743       0.63395625      -0.38989312
H        9.91316682       4.08230927      14.68585631       0.24251822      -0.12015590       0.18657135
H        9.96880039       6.59227438      15.94578862      -0.14406062      -0.02814890      -0.23302685
O        0.20589321       9.05637149      15.95632510       0.30331343       0.29349107      -0.70653302
C        1.25970260       9.82334815      16.48331175       0.80291081       0.36207868       0.18809383
C        1.48480221      11.21155046      15.84143551      -0.71959034      -0.12462020       0.27953031
F        0.42092278      11.90815301      16.01491106       0.90587574      -0.67232423       1.06743962
F        1.79228410      11.13988567      14.60977224       0.14544237      -0.79122048      -0.73617451
F        2.54842492      11.96503347      16.44780117       0.05267915      -0.81541075       0.00665219
C        2.54965963       8.91446640      16.44824176       0.50690740      -0.74372849      -0.00153066
F        2.85070476       8.71062360      15.13865889       0.42546578      -0.87615592       0.33232095
F        2.33332709       7.76607465      17.06567116       0.75872140       0.20993711      -0.53945780
F        3.63240017       9.46840808      17.02692834       0.84780710      -0.26689517      -0.33225882
H        0.35729897       9.03504513      15.00388905       0.44998383      -0.06612304      -0.16622171
H        1.05529649      10.02724908      17.49742719       0.14065385      -0.07997367       0.15013481
O       13.26606638      15.20157795      13.32618054       0.26902465       0.20031438       0.12698160
C       14.15158155      16.04491428      12.64117868       0.04425384       0.39552465      -0.39111311
C       14.48454397      17.34620522      13.37165297      -0.68475119      -0.16350232       0.36203071
F       14.99103046      17.12232929      14.58900659      -0.51810848       0.09117911      -0.24703995
F       13.40180493      18.04612516      13.54924520       0.36130766       0.30273162       0.97904631
F       15.31281555      18.14274194      12.67070025       0.13064920       0.04944743      -0.92947925
C       13.70461274      16.27198308      11.17464970       0.43600038       0.16130299      -0.50494293
F       12.52546537      16.94876278      11.10554381      -0.64616833      -0.06485631       0.45479487
F       13.54007726      15.13360529      10.55719068      -0.06243057      -1.34947251      -0.73776868
F       14.55793212      16.97792669      10.38621816      -0.05421959       0.27139742      -0.75183376
H       12.38706671      15.54489285      13.36412416       0.03013315      -0.13832403      -0.19740947
H       15.02982221      15.42352888      12.47750771      -0.09967264       0.12763783       0.13886313
O        7.88589636       2.60382316       2.14575833      -0.24359924       1.01696328       0.18090161
C        6.55359902       2.75638205       2.57736105       0.67880008       0.36261952      -0.05710325
C        5.95486987       4.28108876       2.51543558      -0.20666424      -1.00006805       0.17648386
F        6.03333271       4.55998801       1.19662292       0.49719030      -1.02068383      -0.20183858
F        6.77357644       5.11730125       3.19840706       0.04258146       0.02480924      -0.50204957
F        4.69810417       4.42209598       2.84915433      -1.45323064      -0.81699632       0.40528721
C        6.48520799       2.20114591       4.01521950       0.26090887      -0.01638197      -0.07438192
F        7.39809836       2.77960780       4.83007101      -0.04308082      -0.24595209      -0.07267520
F        6.72953335       0.91937236       3.94785077       0.06257057      -0.30629196       0.72925990
F        5.25130034       2.34880904       4.58480575      -0.42997719       0.09736449       0.84515360
H        8.49812464       2.62698447       2.88350682       0.16264604       0.06809718      -0.12154929
H        5.88112912       2.24423382       1.92001626      -0.05075832      -0.06910325      -0.26219728
O        8.03397151       7.01637223      10.35468102      -0.17746202      -0.95895309      -0.01550664
C        6.77636405       6.91107251      10.91274571      -0.37967459       0.27510754       0.33398670
C        6.14691680       5.49676218      10.55536606       0.72372028      -0.01862067      -0.66615502
F        6.89717552       4.52093522      11.18179345       0.06515214      -0.25715511      -0.27190285
F        6.14546198       5.30808497       9.23107965       0.77529982       0.51613263      -1.00399715
F        4.95877529       5.36072032      11.08767790       0.04016235      -0.73501508       0.42161657
C        5.91936304       8.06616634      10.39249066       0.38186430      -1.23074739      -0.73529589
F        5.86411241       8.09298332       9.06445898      -0.20026927      -0.99156939       0.36863381
F        6.46112793       9.24673601      10.78949974       0.53021242      -0.76203879       0.78259330
F        4.64297244       7.94064653      10.75718402       0.59398780       0.32369424      -0.48959777
H        8.05264631       6.91073990       9.42150237      -0.11092369       0.08791886      -0.14974139
H        6.91353191       7.04580228      11.96906558       0.10534029      -0.26837060      -0.01838916
O       13.95178800      14.87698163       5.65593409      -0.29685262       0.83154531      -0.45457082
C       15.02124462      15.58078040       6.26956940       0.57530157      -1.11853964      -0.91502947
C       15.08580784      17.04062182       5.66621510       0.33786589      -0.04918830       0.12930112
F       13.84030328      17.59120766       5.80227823      -0.35712754      -0.63532024       1.06103659
F       15.25349035      17.04917809       4.34598903      -0.26855974      -0.89431519       1.50274464
F       15.98588543      17.78130227       6.30495542      -0.56211605       1.22181852       1.37818096
C       16.40639322      14.85444436       6.17913070       0.31073042      -0.01840397       0.03501444
F       16.76538002      14.62352033       4.91275777       0.91152655       0.86147303      -0.83195483
F       16.41709959      13.69644246       6.80334492      -0.82360173      -1.27084265      -0.05882241
F       17.35868366      15.65729459       6.73909138       0.28767954       0.54718320      -0.52444182
H       14.26338848      14.10914615       5.20511570       0.34819016       0.05894900       0.02882270
H       14.80881951      15.82241305       7.28868062       0.15281939       0.04139938      -0.08641186
O        2.66161833       7.53779118       6.16538989      -0.45177995       1.40466789       0.27593147
C        2.96069343       6.17292377       6.14490316       0.26230029       0.36415102       0.16286607
C        2.68731853       5.53554139       7.54127942       0.10053863       2.02585819      -0.49429732
F        1.28764891       5.60635014       7.78668711       0.81207900      -0.01153623       0.13281461
F        3.32777887       5.98620073       8.56502516       0.35661343      -0.48219664       0.49029364
F        2.92671761       4.23455394       7.45467362      -0.25826277       0.49044241       2.09110679
C        4.42805458       6.09179541       5.67168186       0.01377352       0.24355327      -0.48565814
F        5.33593669       6.70633989       6.48317946       0.14177849      -0.00231613       0.25531340
F        4.56492499       6.65574853       4.47645481      -0.33533078       1.44389697      -0.42528969
F        4.80107890       4.75481068       5.59109403       0.68327548      -0.85767121       0.54959652
H        1.72391098       7.53817238       5.87681058       0.02523358      -0.11687672       0.19750562
H        2.42900248       5.55740499       5.44046872      -0.15326068      -0.24950621      -0.07160752
O        9.58777775       4.19461669       9.20513355       0.48374830       1.38197044      -1.07771104
C       10.39547777       4.12065729      10.32989418      -0.72729914      -0.17492344      -0.39969826
C       11.79521721       4.29338127       9.95595227      -0.29086873       0.58852230       0.49605050
F       11.97686719       5.51116708       9.41801177      -0.05549448      -0.15816301       1.48292737
F       12.14978784       3.40890177       9.03574834       0.49937427      -0.15875024       0.76235010
F       12.63212691       4.18664170      11.01445257      -0.62048119      -0.69118104      -0.16303621
C       10.16655626       2.73930344      11.03420718       0.59441496      -0.08467148      -0.60943193
F       10.44657163       1.69166638      10.28130071       0.52300037      -1.57114169      -0.86226016
F        8.84719430       2.63436437      11.35919450      -0.29908245       0.38886687       0.51485351
F       10.90078090       2.69543864      12.14712533      -0.52666933      -1.60655097       0.81545968
H        9.99902698       3.78619601       8.39938811      -0.15811758       0.06075053       0.13800693
H       10.10122790       4.87680732      11.00486368      -0.23915280      -0.17376469      -0.00607901
O        7.80888212      10.70863087      15.03148762      -0.69834644       0.61342431      -0.81895750
C        6.70926721      10.70962969      14.27101092       0.19003163      -0.55330195       1.34162624
C        5.65473532      11.68274933      14.84425788      -0.30284006       0.10419380       0.27882085
F        6.16415989      12.96607954      14.74185487       0.41442277      -0.29030872       1.60908136
F        5.33587950      11.37804467      16.08452401       1.01733159      -0.65799702       0.09880290
F        4.52612164      11.73025927      14.12802245      -1.10794417      -0.05931906       0.74063875
C        6.15559465       9.27097198      14.11686515      -0.01763831       0.61395368      -0.03250638
F        5.90956108       8.69932145      15.31137110      -0.20815400       0.32117883      -0.12135147
F        7.14635933       8.51172968      13.55345220      -0.59100967       0.09318931       0.57495549
F        5.08817787       9.34609170      13.38131340      -0.67645125      -0.05520147       0.18527723
H        8.19568165       9.81591552      15.04104747      -0.13625939       0.04299316       0.31246587
H        6.91307367      10.99795801      13.24521522       0.24596262      -0.13284765      -0.12680559
