        1500
  Built with Packmol                                             
  O           10.656356       12.732343        5.422203
  C           10.326062       13.679069        6.376027
  C            9.452063       14.796667        5.761406
  F            8.318355       14.286148        5.280624
  F           10.080656       15.387324        4.738509
  F            9.121493       15.742941        6.637528
  C           11.597803       14.268928        7.028254
  F           12.397570       14.817484        6.106418
  F           12.297938       13.307381        7.630178
  F           11.332581       15.199131        7.942956
  H           11.176822       13.124311        4.703940
  H            9.741790       13.172915        7.154793
  O           30.933872       24.326467       23.175758
  C           32.317765       24.325443       23.174311
  C           32.866425       24.970610       21.880715
  F           32.457225       26.235688       21.784759
  F           32.413848       24.329104       20.797216
  F           34.196468       24.977925       21.823873
  C           32.866422       22.890722       23.350980
  F           32.413844       22.083296       22.384771
  F           32.457222       22.378238       24.511579
  F           34.196466       22.834695       23.338914
  H           30.581592       23.804932       22.437974
  H           32.649043       24.929281       24.028522
  O            6.706628        1.977398       18.001853
  C            5.679592        2.707388       18.574109
  C            5.657897        4.151467       18.022000
  F            5.467074        4.139882       16.702709
  F            6.825714        4.765793       18.243656
  F            4.695694        4.900686       18.555981
  C            5.798364        2.707780       20.115716
  F            6.977387        3.206936       20.504396
  F            5.727588        1.462357       20.585809
  F            4.840439        3.413032       20.713461
  H            7.571032        2.364249       18.210606
  H            4.735688        2.219149       18.300778
  O           25.899254       26.871068        7.824188
  C           25.523913       27.187364        9.118113
  C           24.123219       27.841776        9.139575
  F           23.213295       27.004326        8.641791
  F           24.098445       28.943539        8.380740
  F           23.723576       28.180932       10.363323
  C           26.572779       28.106772        9.785365
  F           26.743417       29.229673        9.078046
  F           27.756356       27.495799        9.839503
  F           26.247737       28.454000       11.028780
  H           25.958934       27.665808        7.271692
  H           25.475583       26.249797        9.686157
  O           30.869449       17.132344       18.270496
  C           31.104890       16.083842       17.398502
  C           32.622535       15.857939       17.207766
  F           33.196116       15.558605       18.373304
  F           33.217373       16.966218       16.751467
  F           32.901340       14.868309       16.362071
  C           30.408952       16.331844       16.040259
  F           30.827203       17.477929       15.490824
  F           29.090707       16.437528       16.207993
  F           30.620343       15.356648       15.159006
  H           31.229618       17.963871       17.925147
  H           30.674899       15.179187       17.846551
  O           25.313734        9.146166       21.280235
  C           25.947563        8.869439       22.478921
  C           27.416202        8.449236       22.239784
  F           28.086900        9.432016       21.638633
  F           27.483286        7.380873       21.437023
  F           28.065346        8.155238       23.364273
  C           25.183141        7.780081       23.266078
  F           25.072083        6.658338       22.545188
  F           23.945366        8.190972       23.542046
  F           25.764278        7.465703       24.421823
  H           25.285787        8.363109       20.708863
  H           25.944855        9.791292       23.074086
  O            7.663136       29.531679       22.659427
  C            9.018237       29.757462       22.492433
  C            9.264223       31.056741       21.691170
  F            8.750721       32.103473       22.337500
  F            8.665480       31.002034       20.495830
  F           10.555555       31.309314       21.488767
  C            9.696181       28.549187       21.806049
  F            9.131896       28.294443       20.619873
  F            9.551851       27.452854       22.550559
  F           11.000668       28.725393       21.607143
  H            7.218583       29.415973       21.805372
  H            9.457931       29.878925       23.490410
  O           18.054574       11.479361       29.986420
  C           17.819109       12.791909       29.616369
  C           17.398758       13.640495       30.838607
  F           18.365269       13.640405       31.756720
  F           16.305824       13.132893       31.420121
  F           17.143754       14.910252       30.530403
  C           16.751511       12.865145       28.500335
  F           15.606944       12.295689       28.895316
  F           17.164857       12.202409       27.420057
  F           16.476794       14.111288       28.120920
  H           17.253667       11.066568       30.344995
  H           18.759343       13.197190       29.221719
  O           13.814385       20.050267       19.252852
  C           14.931425       20.419941       18.524341
  C           15.693591       21.565156       19.230205
  F           16.102266       21.174178       20.437349
  F           14.900555       22.627728       19.410088
  F           16.769463       21.968946       18.558079
  C           14.539421       20.823528       17.084164
  F           13.654311       21.826937       17.092850
  F           13.961693       19.798721       16.457206
  F           15.580142       21.204734       16.346681
  H           13.188964       20.786867       19.334660
  H           15.593681       19.546730       18.469935
  O           31.228238       31.844308       15.651804
  C           30.385422       31.820679       14.554413
  C           28.913847       31.645529       14.995375
  F           28.541011       32.659017       15.776983
  F           28.758355       30.523568       15.707661
  F           28.063609       31.599475       13.972011
  C           30.801495       30.707008       13.565838
  F           30.796589       29.510179       14.164085
  F           32.041925       30.918396       13.125698
  F           30.008744       30.632371       12.498938
  H           31.186615       31.010091       16.144526
  H           30.480231       32.787758       14.044697
  O           10.715451       30.212440       28.257835
  C           11.381432       30.714533       27.153509
  C           11.134657       32.233821       27.006794
  F           11.580025       32.881290       28.083598
  F            9.827066       32.498150       26.903547
  F           11.741977       32.761880       25.946315
  C           10.962887       29.961047       25.869867
  F            9.641593       30.044067       25.675923
  F           11.261455       28.666103       25.975000
  F           11.564974       30.419890       24.774762
  H            9.756427       30.327872       28.171975
  H           12.454852       30.553123       27.314001
  O           13.228777        5.825185        9.603843
  C           14.361074        5.780439       10.398240
  C           15.452749        4.898120        9.749843
  F           15.803822        5.393386        8.563026
  F           15.000956        3.656573        9.538256
  F           16.558386        4.809331       10.486038
  C           14.016179        5.276713       11.818791
  F           13.449784        4.065369       11.772251
  F           13.139497        6.095541       12.400189
  F           15.078065        5.199452       12.617996
  H           12.840622        4.943100        9.495738
  H           14.747804        6.804102       10.479446
  O           18.641583       10.795116        7.779284
  C           18.456218       12.014747        7.152145
  C           17.193370       12.724369        7.692803
  F           17.313524       12.950108        9.001115
  F           16.107178       11.961262        7.524939
  F           16.961759       13.897164        7.106963
  C           18.375412       11.837310        5.618311
  F           17.383517       11.003438        5.284957
  F           19.505791       11.304932        5.153670
  F           18.179799       12.983089        4.969293
  H           17.897100       10.196949        7.610858
  H           19.328358       12.639776        7.381825
  O           26.067211       16.817637       15.616477
  C           25.741952       15.473671       15.672404
  C           24.321840       15.228192       15.112332
  F           24.253662       15.613884       13.838100
  F           23.412028       15.940809       15.786678
  F           23.954952       13.949373       15.160461
  C           25.865327       14.938092       17.117601
  F           25.078645       15.627568       17.951914
  F           27.116281       15.075851       17.557159
  F           25.545445       13.650439       17.226801
  H           25.462761       17.348030       16.158462
  H           26.459716       14.933983       15.041854
  O            5.877605       31.293558       28.107486
  C            4.648782       30.667820       27.990817
  C            4.710138       29.227677       28.550176
  F            5.039801       29.246322       29.841706
  F            5.644364       28.508357       27.917623
  F            3.553843       28.576402       28.444710
  C            4.168903       30.668894       26.520996
  F            5.059954       30.064546       25.726568
  F            4.036000       31.919267       26.078300
  F            2.996125       30.061510       26.353731
  H            6.558126       30.829055       27.596063
  H            3.928922       31.240189       28.589346
  O           17.878101        8.480010       15.140841
  C           16.827664        7.734528       15.646809
  C           16.973820        7.545221       17.174376
  F           16.971212        8.727747       17.789763
  F           18.134333        6.950273       17.473660
  F           15.994044        6.818101       17.706950
  C           16.726939        6.368933       14.928712
  F           17.867758        5.680149       15.048850
  F           16.513334        6.546150       13.624855
  F           15.739646        5.605988       15.392895
  H           18.726571        8.032174       15.282143
  H           15.903501        8.294228       15.455235
  O            6.577197       11.477612       13.938162
  C            7.399051       11.026633       14.956169
  C            6.633989       10.065489       15.895072
  F            6.200777        9.002869       15.216661
  F            5.556569       10.663330       16.416681
  F            7.378815        9.616634       16.903072
  C            7.994862       12.213512       15.747995
  F            7.026004       12.982710       16.257870
  F            8.724714       12.986687       14.943886
  F            8.781132       11.830075       16.751516
  H            5.824906       11.978312       14.289989
  H            8.224513       10.471920       14.492544
  O           17.520496       30.557068       11.818345
  C           17.887682       31.727721       11.178101
  C           19.234313       31.550863       10.439207
  F           19.134199       30.593282        9.517202
  F           20.199936       31.178758       11.287402
  F           19.640009       32.657455        9.820205
  C           17.958296       32.903194       12.180067
  F           18.822125       32.638969       13.167138
  F           16.767642       33.101377       12.745877
  F           18.325133       34.050971       11.614083
  H           18.172004       30.305631       12.491207
  H           17.113120       31.954048       10.434547
  O            5.727134        1.690112       26.691323
  C            6.718417        2.633366       26.898192
  C            7.827234        2.072538       27.818331
  F            8.391292        1.000004       27.262827
  F            7.321531        1.684350       28.994724
  F            8.797834        2.950533       28.061965
  C            6.124151        3.936268       27.481245
  F            5.482586        3.696757       28.630746
  F            5.232681        4.456563       26.637651
  F            7.042884        4.871024       27.714614
  H            5.295212        1.446130       27.524594
  H            7.163616        2.863642       25.922071
  O           29.127239       16.894658       32.420383
  C           28.907025       16.264612       31.208066
  C           30.112485       16.460714       30.259874
  F           31.214829       15.939472       30.798595
  F           30.353388       17.760869       30.055213
  F           29.941289       15.886109       29.071253
  C           27.601759       16.773124       30.553579
  F           27.642371       18.098202       30.372350
  F           26.558324       16.518881       31.343313
  F           27.354099       16.208035       29.373902
  H           29.232786       17.851681       32.304658
  H           28.797018       15.191521       31.409105
  O           29.038980       18.132145       20.490810
  C           28.329972       18.388617       19.330339
  C           27.156426       19.356846       19.605987
  F           27.614570       20.518804       20.071855
  F           26.333811       18.858633       20.536262
  F           26.431715       19.621808       18.521142
  C           27.822744       17.073761       18.694311
  F           27.053285       16.393417       19.551859
  F           28.850353       16.284493       18.381020
  F           27.118324       17.269191       17.581702
  H           28.479455       17.703010       21.156543
  H           29.016955       18.871239       18.623818
  O           30.719172       21.028562       28.702073
  C           29.396591       21.044840       28.295034
  C           29.179218       22.088029       27.174693
  F           29.930957       21.792058       26.114333
  F           29.540637       23.310084       27.582471
  F           27.915885       22.154004       26.760042
  C           28.456515       21.316735       29.492109
  F           28.760282       22.477260       30.084757
  F           28.590599       20.361581       30.412314
  F           27.171172       21.359222       29.148035
  H           30.983900       21.885882       29.069967
  H           29.163280       20.051421       27.891640
  O           20.556061       21.794562       32.218387
  C           19.781225       21.309759       33.257502
  C           19.706607       19.766012       33.213490
  F           20.925862       19.240044       33.331172
  F           19.209042       19.344393       32.045162
  F           18.956396       19.251172       34.185304
  C           18.366064       21.931755       33.224326
  F           17.761560       21.682906       32.056861
  F           18.439632       23.256725       33.351270
  F           17.575026       21.482871       34.196469
  H           20.174177       21.562490       31.357729
  H           20.266196       21.605247       34.196402
  O           25.376754       11.447797        8.097864
  C           26.372939       10.820101        8.825035
  C           26.595396       11.531137       10.179877
  F           25.477980       11.503292       10.906294
  F           26.912629       12.818239        9.998066
  F           27.558326       10.973572       10.910758
  C           27.687524       10.754923        8.013692
  F           28.091879       11.980104        7.659074
  F           27.503489       10.063689        6.888791
  F           28.683715       10.173720        8.678602
  H           25.617447       12.364118        7.890868
  H           26.039179        9.794001        9.024447
  O           18.572724       16.409404       15.643030
  C           17.819658       15.248502       15.662096
  C           17.228798       14.999804       17.069112
  F           16.434030       16.009968       17.422649
  F           18.198179       14.923666       17.988258
  F           16.508364       13.882774       17.143391
  C           18.662522       14.038996       15.195908
  F           19.746277       13.886211       15.965621
  F           19.093076       14.228008       13.948522
  F           17.985753       12.892703       15.213140
  H           19.326167       16.349199       16.250586
  H           16.989056       15.382423       14.957676
  O           17.909953       23.177905       16.558501
  C           18.642641       22.437191       15.647635
  C           20.120743       22.890687       15.632903
  F           20.669327       22.720146       16.835835
  F           20.218731       24.192237       15.338472
  F           20.865069       22.217932       14.757872
  C           18.021779       22.533636       14.234876
  F           17.952324       23.806703       13.828920
  F           16.776498       22.057943       14.242992
  F           18.702183       21.850009       13.317268
  H           17.906215       24.118825       16.323807
  H           18.606438       21.388866       15.969729
  O            7.462652       18.877321       20.816750
  C            6.673971       19.592854       21.700582
  C            7.181537       19.423330       23.151202
  F            8.431495       19.873729       23.259928
  F            7.197883       18.132862       23.504402
  F            6.443496       20.080499       24.043235
  C            5.191788       19.169035       21.581538
  F            5.049405       17.858282       21.809518
  F            4.741218       19.402105       20.348760
  F            4.393149       19.818459       22.425768
  H            7.432364       17.927307       21.009052
  H            6.752665       20.653102       21.429062
  O           11.943032       10.759694       33.243520
  C           13.108373       11.139404       32.600895
  C           12.964659       12.553542       31.992438
  F           12.714968       13.446462       32.950260
  F           11.939596       12.602833       31.133871
  F           14.056446       12.958150       31.346998
  C           13.498509       10.109010       31.516118
  F           12.516031        9.963291       30.619553
  F           13.705071        8.912726       32.066855
  F           14.606553       10.439170       30.856169
  H           11.198117       10.717725       32.624032
  H           13.906293       11.166987       33.353625
  O           20.347178       19.081460       18.282544
  C           19.554586       18.555228       19.287553
  C           18.879375       17.243469       18.824910
  F           19.801789       16.333584       18.511323
  F           18.140751       17.446875       17.727921
  F           18.090752       16.706073       19.753123
  C           18.498969       19.585456       19.751193
  F           17.730000       19.975692       18.728097
  F           19.096272       20.677136       20.229250
  F           17.698760       19.119384       20.707615
  H           19.819661       19.305207       17.500184
  H           20.209137       18.325305       20.137694
  O           31.926499        7.214240       21.708006
  C           33.063748        7.723962       21.106330
  C           33.125922        9.261021       21.262035
  F           33.160023        9.594640       22.552233
  F           32.039838        9.839270       20.736324
  F           34.195886        9.802027       20.683425
  C           33.126160        7.317369       19.615879
  F           32.040093        7.740565       18.958848
  F           33.160466        5.989859       19.499198
  F           34.196130        7.799183       18.987134
  H           31.122869        7.564974       21.293773
  H           33.931198        7.289721       21.619173
  O           12.409805        4.358013        6.481541
  C           11.068512        4.050685        6.628673
  C           10.273818        5.281303        7.123342
  F           10.371857        6.279325        6.245039
  F           10.763304        5.731553        8.284377
  F            8.977887        5.031087        7.297280
  C           10.881367        2.851511        7.586596
  F           11.419322        3.107926        8.784586
  F           11.498644        1.772925        7.104211
  F            9.603939        2.527296        7.774644
  H           12.805288        4.618261        7.327880
  H           10.684862        3.766399        5.640728
  O           22.006922       17.197894       30.416191
  C           22.260877       16.064647       31.168802
  C           20.941074       15.388062       31.605851
  F           20.233280       15.020726       30.537598
  F           20.179461       16.234660       32.308375
  F           21.132624       14.300086       32.348763
  C           23.139024       16.404772       32.395110
  F           22.552749       17.332479       33.160595
  F           24.309694       16.906361       32.001391
  F           23.397511       15.347761       33.162059
  H           21.516880       17.858239       30.930223
  H           22.814147       15.362857       30.532073
  O           15.393593       16.769805       12.420601
  C           15.854148       15.700113       11.673064
  C           15.362719       14.360866       12.269364
  F           14.030398       14.316222       12.271498
  F           15.761293       14.228127       13.539735
  F           15.794704       13.298215       11.593745
  C           17.396685       15.725269       11.570082
  F           17.957517       15.701375       12.784668
  F           17.802683       16.846702       10.974576
  F           17.890616       14.704170       10.873167
  H           15.730133       16.733876       13.329378
  H           15.439058       15.800882       10.662328
  O           11.871529       28.700969       10.758714
  C           12.214222       29.680329        9.842973
  C           13.654717       30.184528       10.090798
  F           14.524318       29.182152        9.963869
  F           13.786803       30.662926       11.333381
  F           14.026103       31.142245        9.243951
  C           11.204813       30.850740        9.886478
  F           11.141461       31.382283       11.112762
  F            9.980619       30.417738        9.584925
  F           11.501588       31.828747        9.033409
  H           11.889719       29.045781       11.664914
  H           12.174207       29.226964        8.844525
  O           25.057520        7.832897        8.990208
  C           25.579647        7.107231       10.046597
  C           24.526427        6.127917       10.614338
  F           24.142557        5.264624        9.673889
  F           23.431001        6.783388       11.015242
  F           24.976351        5.417180       11.646191
  C           26.109331        8.049607       11.152047
  F           25.140180        8.858380       11.595845
  F           27.078282        8.828674       10.671149
  F           26.607462        7.397396       12.200277
  H           24.304373        8.373839        9.274067
  H           26.422680        6.521125        9.659535
  O            3.025761       17.655864       12.808462
  C            2.942858       16.827455       13.913917
  C            2.226237       15.504715       13.556886
  F            2.899525       14.855115       12.607266
  F            0.999732       15.739844       13.076548
  F            2.106088       14.678973       14.594197
  C            2.229685       17.542857       15.084491
  F            1.003456       17.940577       14.726016
  F            2.905921       18.635142       15.440432
  F            2.109640       16.779186       16.168326
  H            2.144462       17.899502       12.485386
  H            3.967722       16.591221       14.226789
  O           33.355948       18.447699        8.040363
  C           32.170293       17.748279        8.182493
  C           31.339738       18.308258        9.360313
  F           31.037275       19.588746        9.145972
  F           32.034150       18.255567       10.502827
  F           30.194737       17.655848        9.549084
  C           32.442298       16.237588        8.368195
  F           33.224667       16.019712        9.431563
  F           33.082130       15.748390        7.305945
  F           31.330876       15.522116        8.526753
  H           33.910199       18.363680        8.831673
  H           31.594227       17.884240        7.258532
  O           13.587248       22.467747       29.778939
  C           14.502220       22.199731       30.782014
  C           14.157729       20.874593       31.500342
  F           14.186341       19.859092       30.637200
  F           12.923454       20.916584       32.015245
  F           15.001161       20.580729       32.487543
  C           14.572681       23.371026       31.788872
  F           13.371508       23.612168       32.326791
  F           14.955931       24.489086       31.172321
  F           15.428749       23.153190       32.784861
  H           12.693091       22.574787       30.138733
  H           15.486768       22.090636       30.309992
  O           11.259875       16.997376        9.605790
  C           10.799501       17.851651       10.592419
  C           11.829967       17.973305       11.738716
  F           12.980694       18.462705       11.276777
  F           12.098749       16.774758       12.269345
  F           11.424800       18.772950       12.722946
  C            9.428409       17.381416       11.130606
  F            9.505610       16.135652       11.612722
  F            8.526658       17.364964       10.148949
  F            8.950104       18.163034       12.096317
  H           11.393218       16.101191        9.951472
  H           10.670598       18.841906       10.137644
  O           10.708882       25.399655       18.013328
  C           10.406991       26.641773       18.543583
  C            9.580557       27.480840       17.541770
  F            8.432239       26.865535       17.259206
  F           10.238966       27.631503       16.386728
  F            9.278983       28.693852       17.999978
  C           11.694879       27.389647       18.959138
  F           12.521957       27.533034       17.917165
  F           12.353555       26.696406       19.887921
  F           11.457698       28.599883       19.460511
  H           11.249367       25.481751       17.212353
  H            9.797971       26.478018       19.441537
  O           17.076002       28.495501       22.660785
  C           16.318964       27.465374       23.190780
  C           17.020704       26.844102       24.420511
  F           17.186417       27.762787       25.372158
  F           18.237323       26.389982       24.098115
  F           16.338205       25.834893       24.957160
  C           16.028412       26.389312       22.119179
  F           17.165871       25.898913       21.613195
  F           15.346065       26.919313       21.104005
  F           15.315694       25.366251       22.585741
  H           17.937849       28.175210       22.352469
  H           15.363084       27.893161       23.518398
  O            7.953882       10.335659        9.671833
  C            6.850147        9.500937        9.658633
  C            5.607997       10.223299       10.229524
  F            5.318646       11.297324        9.494798
  F            5.834854       10.651274       11.476800
  F            4.521563        9.454300       10.253997
  C            7.137587        8.197442       10.438978
  F            7.486467        8.463807       11.702962
  F            8.155489        7.540079        9.883259
  F            6.097735        7.366746       10.469831
  H            8.182227       10.601554       10.576036
  H            6.646850        9.239288        8.612568
  O            7.643097       17.637322        6.487627
  C            8.277644       18.845308        6.256792
  C            9.689695       18.853481        6.886637
  F           10.439519       17.888192        6.354607
  F            9.627596       18.620977        8.202847
  F           10.335759       20.003404        6.706141
  C            7.428852       20.022601        6.789889
  F            7.186396       19.883360        8.098381
  F            6.246460       20.056494        6.175173
  F            8.006063       21.208129        6.606448
  H            7.521338       17.480411        7.436825
  H            8.383503       18.960138        5.170675
  O           21.031403       14.971486       13.223649
  C           21.197002       14.004184       12.247909
  C           22.506442       13.213765       12.474323
  F           22.478818       12.601507       13.658153
  F           23.564381       14.032935       12.481398
  F           22.720075       12.280481       11.549314
  C           21.171112       14.636559       10.837204
  F           22.122525       15.569232       10.713680
  F           20.002254       15.240282       10.621878
  F           21.344078       13.746607        9.862336
  H           21.751521       15.620573       13.200390
  H           20.354162       13.306248       12.328815
  O            7.834448       14.545051        8.513534
  C            6.776155       13.718153        8.847331
  C            5.702763       13.722985        7.734467
  F            6.221979       13.282130        6.588545
  F            5.252764       14.962822        7.509458
  F            4.653549       12.953845        8.017082
  C            6.164105       14.130271       10.206085
  F            5.750909       15.402599       10.178246
  F            7.077602       14.037500       11.172517
  F            5.128939       13.373536       10.563972
  H            7.543968       15.465138        8.416135
  H            7.170987       12.698713        8.941622
  O            5.868297       27.376440       11.319409
  C            4.502954       27.240946       11.138731
  C            3.730562       28.273149       11.992327
  F            4.069918       29.512888       11.638830
  F            4.029177       28.139993       13.289795
  F            2.409189       28.171671       11.865940
  C            4.045466       25.800873       11.466685
  F            4.369203       25.470494       12.722219
  F            4.653950       24.927696       10.663950
  F            2.733682       25.624103       11.324291
  H            6.118425       27.212178       12.241840
  H            4.288912       27.438608       10.080829
  O           29.193884        9.403915       16.502330
  C           28.147095       10.309055       16.513222
  C           26.874336        9.684741       15.895991
  F           26.497934        8.614103       16.595371
  F           27.102400        9.274072       14.643129
  F           25.841405       10.524123       15.867871
  C           28.537683       11.609858       15.774296
  F           28.898440       11.352763       14.511728
  F           29.582850       12.184513       16.369672
  F           27.555409       12.507870       15.742469
  H           29.425850        9.146240       15.596670
  H           27.936455       10.557293       17.561101
  O           18.021184       28.221103       19.858727
  C           18.314402       27.741082       18.594303
  C           17.062481       27.780005       17.687751
  F           16.622662       29.031857       17.559288
  F           16.063814       27.066524       18.220604
  F           17.289617       27.311082       16.462671
  C           18.895990       26.310501       18.670815
  F           18.043589       25.479793       19.282093
  F           20.023169       26.306450       19.382521
  F           19.178964       25.796823       17.475675
  H           17.349268       27.674437       20.294743
  H           19.076057       28.400512       18.159474
  O           27.222266       23.829799       19.928468
  C           26.768727       25.122149       20.126707
  C           27.159562       25.632038       21.533092
  F           28.485384       25.636963       21.671827
  F           26.668840       24.830781       22.485722
  F           26.729833       26.867824       21.778992
  C           25.239511       25.206500       19.914471
  F           24.595620       24.371295       20.737977
  F           24.924373       24.847742       18.669861
  F           24.751306       26.429325       20.111078
  H           26.822525       23.216030       20.564014
  H           27.256597       25.761217       19.379970
  O            8.637337       17.659634       19.189239
  C            7.838976       16.554582       18.951236
  C            8.482984       15.628955       17.893348
  F            9.668901       15.193933       18.319295
  F            8.695316       16.287032       16.747847
  F            7.742888       14.557554       17.616475
  C            6.419299       16.985749       18.516184
  F            6.467003       17.752064       17.420369
  F            5.841499       17.710302       19.474434
  F            5.616353       15.955670       18.258278
  H            8.746206       18.193485       18.387008
  H            7.757105       15.997673       19.893144
  O           11.432879        7.666229       24.077647
  C           12.797944        7.566849       23.872988
  C           13.376739        6.339252       24.613704
  F           12.812035        5.218562       24.163996
  F           13.121186        6.407838       25.925311
  F           14.692910        6.209697       24.461360
  C           13.515254        8.864526       24.311350
  F           13.270750        9.134563       25.598836
  F           13.068933        9.902045       23.603235
  F           14.835643        8.811877       24.149798
  H           11.226778        7.790018       25.017128
  H           12.961032        7.429035       22.796674
  O           24.102238       19.252495       22.554564
  C           23.430088       18.195318       23.142573
  C           22.235676       18.702850       23.983079
  F           21.370879       19.359157       23.209475
  F           22.644485       19.558373       24.927155
  F           21.565731       17.722174       24.584532
  C           24.390750       17.345372       24.005928
  F           24.971477       18.092604       24.951826
  F           25.367772       16.841515       23.251852
  F           23.786437       16.323354       24.608078
  H           24.471281       19.849636       23.223634
  H           23.040029       17.562492       22.335463
  O           29.559449        2.822369        9.836218
  C           28.666473        3.878339        9.784381
  C           27.233321        3.372619        9.499809
  F           26.834101        2.545063       10.465651
  F           27.187419        2.686442        8.352038
  F           26.338101        4.354969        9.423208
  C           29.105066        4.917505        8.726823
  F           29.208482        4.354570        7.517388
  F           30.305521        5.410281        9.032039
  F           28.266849        5.946905        8.626680
  H           29.597225        2.352549        8.988712
  H           28.672138        4.363833       10.768406
  O            7.973092        3.657986        9.505751
  C            7.633453        3.172702       10.756475
  C            6.496968        4.013808       11.382255
  F            5.408456        3.965475       10.614218
  F            6.851656        5.300356       11.478769
  F            6.145336        3.596013       12.596381
  C            8.868687        3.136047       11.685730
  F            9.412577        4.352572       11.806452
  F            9.807149        2.337538       11.177058
  F            8.589285        2.691521       12.909099
  H            8.303036        4.568269        9.560032
  H            7.270264        2.145714       10.624444
  O           10.093065       30.856598       13.823985
  C           10.716450       30.631007       15.038755
  C           10.936057       31.959449       15.798801
  F            9.767164       32.552559       16.041666
  F           11.664472       32.812777       15.069714
  F           11.549658       31.796739       16.968980
  C           12.054195       29.881831       14.839177
  F           12.871807       30.569418       14.033535
  F           11.840912       28.699315       14.261907
  F           12.701850       29.655847       15.980131
  H           10.637651       31.415578       13.248319
  H           10.051497       29.996356       15.638003
  O           31.956230        3.768308        8.481121
  C           32.212765        4.706752        7.496908
  C           33.020039        4.079765        6.336798
  F           32.333499        3.080838        5.781925
  F           34.172591        3.564438        6.779953
  F           33.307418        4.949157        5.370429
  C           32.951451        5.931410        8.084459
  F           34.098531        5.563795        8.667032
  F           32.206293        6.514982        9.023213
  F           33.236743        6.857193        7.171315
  H           32.779098        3.432540        8.869159
  H           31.245940        5.043555        7.102123
  O            8.215702       22.937955       26.367345
  C            8.346298       22.718609       25.007199
  C            9.773359       22.232832       24.663431
  F           10.035752       21.086219       25.290730
  F           10.690574       23.119322       25.067380
  F            9.954688       22.023747       23.361239
  C            7.989988       23.993520       24.208259
  F            8.764937       25.020466       24.575899
  F            6.728234       24.351667       24.446546
  F            8.117007       23.838057       22.892205
  H            8.822316       23.630907       26.671093
  H            7.636798       21.928513       24.730794
  O           29.746829        9.617682       13.484063
  C           29.068198        8.709178       12.690813
  C           29.146065        7.287518       13.293705
  F           28.591775        7.267728       14.505911
  F           30.418068        6.898286       13.438039
  F           28.521160        6.372180       12.556176
  C           29.615304        8.726016       11.244766
  F           30.924739        8.451540       11.225649
  F           29.462043        9.935630       10.705858
  F           29.004690        7.854486       10.444837
  H           30.689016        9.396144       13.544305
  H           28.014970        9.015909       12.664954
  O           17.915730       31.883377       21.971308
  C           18.492889       31.836038       23.228213
  C           18.276447       33.168093       23.982826
  F           16.973981       33.405697       24.138392
  F           18.782687       34.196483       23.292565
  F           18.829557       33.178567       25.193717
  C           19.997997       31.496140       23.129334
  F           20.641572       32.391151       22.370986
  F           20.166845       30.304818       22.555471
  F           20.603538       31.455696       24.314233
  H           18.318579       32.576628       21.425836
  H           17.994582       31.036081       23.790174
  O           27.076423        4.839087        6.323063
  C           27.330447        4.536530        4.996754
  C           26.012978        4.276850        4.230268
  F           25.237392        5.360599        4.262336
  F           25.319340        3.281715        4.794977
  F           26.205776        3.964065        2.950700
  C           28.283461        3.324363        4.882408
  F           27.770949        2.253245        5.499142
  F           29.448331        3.594075        5.471822
  F           28.545406        2.982569        3.622701
  H           26.637400        4.101106        6.773694
  H           27.824650        5.407627        4.548430
  O           27.611714       25.574959       14.797474
  C           28.418881       25.870722       13.712960
  C           28.843229       27.357392       13.732993
  F           29.531585       27.627446       14.842187
  F           27.772878       28.160304       13.730793
  F           29.608815       27.696303       12.697949
  C           27.707746       25.517718       12.386184
  F           26.546813       26.173872       12.276546
  F           27.425670       24.215506       12.344335
  F           28.438751       25.800604       11.310123
  H           26.793110       26.094509       14.777954
  H           29.321926       25.252879       13.795554
  O           13.907562       32.985348       18.878550
  C           14.961738       32.976893       17.981998
  C           14.446387       33.065938       16.526957
  F           13.763360       34.196355       16.346106
  F           13.612654       32.056106       16.252273
  F           15.424326       33.043913       15.623935
  C           15.841395       31.720830       18.179908
  F           15.118947       30.603693       18.037087
  F           16.350606       31.701658       19.411740
  F           16.861819       31.657839       17.327225
  H           13.327243       32.219888       18.745407
  H           15.575255       33.863532       18.185733
  O           28.965159       31.992764        5.493377
  C           29.453478       30.699393        5.555830
  C           28.296477       29.680067        5.669770
  F           27.497531       29.765792        4.606091
  F           27.543120       29.930176        6.746905
  F           28.716700       28.419426        5.750376
  C           30.444897       30.542501        6.731897
  F           29.862926       30.861412        7.893762
  F           31.482085       31.365299        6.575958
  F           30.930548       29.308125        6.844851
  H           28.475157       32.222317        6.298131
  H           29.993738       30.505187        4.620712
  O            3.258503       11.502080       20.273187
  C            3.953573       12.662959       19.982664
  C            2.980639       13.815324       19.641911
  F            2.178856       14.065641       20.677074
  F            2.195974       13.488895       18.608438
  F            3.603138       14.952077       19.337627
  C            4.956896       12.428803       18.829767
  F            4.329884       11.991765       17.731506
  F            5.844112       11.494140       19.170835
  F            5.639581       13.523330       18.500748
  H            2.737066       11.205067       19.511405
  H            4.518788       12.942592       20.880650
  O           29.348719       14.528659       12.252971
  C           29.809297       14.732508       10.963988
  C           28.778805       15.530285       10.131943
  F           28.562958       16.724372       10.683886
  F           27.600751       14.896923       10.095014
  F           29.169266       15.737814        8.876248
  C           30.146275       13.386630       10.281552
  F           29.077309       12.582261       10.256559
  F           31.099129       12.748657       10.961356
  F           30.578381       13.528874        9.030413
  H           28.531077       14.007238       12.255328
  H           30.730401       15.324881       11.032566
  O            5.171281       18.436442        2.867586
  C            5.821630       17.810345        3.916496
  C            6.929019       16.867326        3.392033
  F            7.835995       17.557756        2.700820
  F            6.421206       15.947915        2.563097
  F            7.573989       16.226918        4.364757
  C            4.817080       17.041127        4.805227
  F            4.140788       16.135582        4.089027
  F            3.919101       17.880095        5.321794
  F            5.397731       16.406011        5.820990
  H            4.732617       17.791505        2.291344
  H            6.293494       18.591624        4.525585
  O           10.615836        7.125980       17.910821
  C           11.992974        6.989946       17.898652
  C           12.663720        8.244018       17.291969
  F           12.364734        9.324006       18.013986
  F           12.221760        8.468804       16.049203
  F           13.991046        8.154358       17.242301
  C           12.412433        5.714417       17.132010
  F           11.950426        5.737407       15.876484
  F           11.898688        4.632496       17.717321
  F           13.732106        5.547719       17.077469
  H           10.264113        7.217772       17.011771
  H           12.323980        6.891206       18.940154
  O           25.747170        9.294323       29.728833
  C           25.495108        9.057715       28.388816
  C           26.623447        9.639659       27.506290
  F           27.789708        9.070341       27.810898
  F           26.763028       10.954129       27.713673
  F           26.417931        9.452225       26.204394
  C           24.120450        9.634149       27.978085
  F           24.060358       10.948180       28.223106
  F           23.147541        9.060122       28.685908
  F           23.838707        9.446550       26.690557
  H           25.780603       10.245000       29.917302
  H           25.470347        7.970207       28.244754
  O            8.491979       22.096976       13.784448
  C            9.342213       22.968493       14.442268
  C           10.094346       22.245836       15.583637
  F           10.829307       21.247177       15.094161
  F            9.235208       21.708412       16.457354
  F           10.914072       23.048168       16.259368
  C            8.565542       24.191987       14.981251
  F            7.584445       23.809814       15.806912
  F            7.993922       24.856595       13.976950
  F            9.338708       25.053588       15.638638
  H            7.813314       21.749294       14.383577
  H           10.080870       23.322791       13.712267
  O           13.869078        5.634511       21.121068
  C           15.102815        5.961143       20.585933
  C           15.984989        4.701005       20.429470
  F           15.401368        3.826108       19.610314
  F           16.152281        4.085311       21.605590
  F           17.191527        4.966084       19.933186
  C           15.812525        7.027490       21.451887
  F           15.966057        6.597389       22.709569
  F           15.081509        8.140911       21.506531
  F           17.013811        7.363422       20.986741
  H           13.960972        5.251821       22.007369
  H           14.928180        6.386113       19.589467
  O            9.974278       10.198965       11.984450
  C           10.968996        9.689850       11.168054
  C           11.834106        8.661070       11.932159
  F           11.082374        7.641396       12.347174
  F           12.382522        9.212273       13.021076
  F           12.818156        8.153966       11.192706
  C           11.843838       10.827626       10.592923
  F           12.393028       11.551663       11.575004
  F           11.100423       11.659584        9.863365
  F           12.828185       10.386504        9.812684
  H           10.350351       10.667733       12.745535
  H           10.478589        9.175321       10.332110
  O           17.349769       26.359469       12.536020
  C           17.459679       26.721160       11.204756
  C           16.246296       27.572405       10.764594
  F           16.177447       28.689563       11.488676
  F           15.100855       26.908550       10.958461
  F           16.297112       27.931715        9.483729
  C           17.612120       25.471828       10.306652
  F           16.575637       24.640401       10.463989
  F           18.710565       24.793740       10.639355
  F           17.704530       25.767164        9.011841
  H           16.562263       25.814314       12.687894
  H           18.365292       27.332278       11.102577
  O           32.560472       26.141156       15.792334
  C           31.497334       25.442669       16.337328
  C           30.792927       26.278992       17.430504
  F           30.317111       27.411352       16.912396
  F           31.651267       26.621121       18.398245
  F           29.771279       25.641997       17.998635
  C           31.965358       24.080823       16.900344
  F           32.917229       24.247596       17.825791
  F           32.491553       23.334530       15.929138
  F           30.979417       23.376884       17.452331
  H           33.232401       26.337696       16.463384
  H           30.778254       25.253775       15.530306
  O            1.000243       16.386936        7.569105
  C            1.817127       16.716830        8.636361
  C            3.120687       17.386920        8.144053
  F            2.842244       18.508140        7.478914
  F            3.781737       16.585138        7.301151
  F            3.949550       17.708326        9.135004
  C            2.128294       15.470004        9.496163
  F            2.710176       14.515303        8.761124
  F            1.001708       14.952945        9.986600
  F            2.926935       15.733031       10.528292
  H            1.432028       15.748367        6.980704
  H            1.272060       17.437852        9.258512
  O           26.669292       11.189445       21.360692
  C           26.980249       11.385122       20.026458
  C           27.647588       12.763618       19.814169
  F           28.778910       12.843097       20.514788
  F           26.851953       13.750964       20.241296
  F           27.950932       13.006828       18.540932
  C           25.720675       11.239723       19.141590
  F           24.771323       12.105502       19.515063
  F           25.205174       10.016814       19.267391
  F           25.965335       11.436524       17.847870
  H           26.035224       11.852753       21.674387
  H           27.697108       10.606387       19.737103
  O            6.560158       13.359145       25.513985
  C            6.196618       14.015413       26.676876
  C            7.398583       14.784024       27.272843
  F            7.839341       15.697128       26.407367
  F            8.419445       13.955915       27.522644
  F            7.103205       15.419522       28.404741
  C            5.610318       13.023128       27.707547
  F            6.488524       12.054546       27.992025
  F            4.522745       12.431295       27.213591
  F            5.260480       13.604998       28.852685
  H            7.250696       12.699862       25.684068
  H            5.417294       14.742360       26.415640
  O            9.378828        9.570233       30.142798
  C            9.631428        9.034948       28.891868
  C           10.488873        7.753332       29.005483
  F            9.849538        6.830841       29.724744
  F           11.645060        8.005284       29.630043
  F           10.774017        7.208965       27.824527
  C           10.314800       10.076650       27.976161
  F           11.457100       10.513943       28.518610
  F            9.526694       11.139769       27.815717
  F           10.594644        9.603039       26.763858
  H           10.201359        9.828567       30.586792
  H            8.665211        8.765486       28.447057
  O            4.688879       21.991513       18.471195
  C            3.326337       22.145980       18.284690
  C            2.576830       22.089417       19.635874
  F            2.994463       23.068596       20.438287
  F            2.817441       20.935069       20.268259
  F            1.257847       22.216353       19.507530
  C            2.781265       21.079996       17.306307
  F            3.038187       19.845123       17.752853
  F            3.373617       21.196480       16.117767
  F            1.468509       21.176188       17.107016
  H            4.894023       21.128538       18.863133
  H            3.164217       23.136500       17.841263
  O           24.510529       27.204610       32.784077
  C           23.432971       27.658622       32.043870
  C           23.407094       29.204014       32.002010
  F           24.519737       29.670472       31.434986
  F           23.352938       29.715039       33.237423
  F           22.376502       29.690965       31.314217
  C           22.105520       27.099562       32.605995
  F           21.947534       27.442706       33.889590
  F           22.105780       25.767462       32.555161
  F           21.035288       27.522423       31.936597
  H           24.454771       27.503395       33.704970
  H           23.557132       27.287604       31.018701
  O           29.277486       11.125913       30.497365
  C           29.749767       11.463944       31.753490
  C           30.406830       10.244309       32.440088
  F           31.438576        9.806833       31.718153
  F           29.541265        9.229047       32.541898
  F           30.862776       10.514905       33.661231
  C           28.615588       12.045255       32.628918
  F           27.607128       11.173662       32.745791
  F           28.116462       13.146949       32.068367
  F           29.016982       12.370698       33.855812
  H           28.593884       10.440258       30.552064
  H           30.515046       12.239025       31.620677
  O           33.117916        4.608999       24.926547
  C           31.860769        4.060798       24.741558
  C           31.905007        2.926254       23.692029
  F           32.721267        1.953009       24.096491
  F           32.378124        3.374113       22.523309
  F           30.713611        2.377050       23.465642
  C           30.840989        5.149433       24.334642
  F           31.229226        5.774644       23.217186
  F           30.747891        6.076215       25.288311
  F           29.617189        4.667937       24.127825
  H           33.452006        5.005741       24.107154
  H           31.543539        3.631815       25.700402
  O           29.552780       20.234607       22.944027
  C           28.226974       20.588031       23.124291
  C           28.068143       22.125604       23.160359
  F           28.482708       22.660907       22.012030
  F           28.813887       22.660702       24.133940
  F           26.809733       22.516671       23.349496
  C           27.656377       19.944086       24.408975
  F           28.369275       20.305155       25.482162
  F           27.719027       18.614968       24.327767
  F           26.385428       20.268716       24.636139
  H           30.103181       20.550434       23.677332
  H           27.663118       20.202848       22.265372
  O           14.434131       29.068168       29.207429
  C           14.838541       27.755173       29.041116
  C           16.285743       27.690163       28.500709
  F           17.125943       28.272776       29.356105
  F           16.392313       28.345459       27.339006
  F           16.715839       26.445239       28.307110
  C           13.866907       26.994730       28.109283
  F           13.780516       27.594548       26.916355
  F           12.639863       26.982991       28.630150
  F           14.223338       25.728626       27.903762
  H           14.433664       29.545064       28.363039
  H           14.816711       27.275707       30.027866
  O           22.792243        2.284015       13.357549
  C           22.891336        3.462923       12.639550
  C           22.255308        4.636600       13.419683
  F           22.880821        4.811678       14.583795
  F           20.971099        4.385152       13.698798
  F           22.310349        5.792418       12.761386
  C           22.243176        3.312471       11.243874
  F           20.958000        2.955391       11.349416
  F           22.858322        2.355892       10.548442
  F           22.297847        4.427963       10.519313
  H           21.865475        2.042429       13.509739
  H           23.958773        3.677391       12.503080
  O           22.082132       24.379037       26.689191
  C           22.273635       23.377286       27.624597
  C           20.925141       22.738113       28.029174
  F           20.331344       22.197477       26.965128
  F           20.087479       23.659007       28.519685
  F           21.054973       21.778009       28.942214
  C           23.021563       23.919037       28.864665
  F           22.351141       24.934138       29.421825
  F           24.219461       24.387669       28.514667
  F           23.215240       22.994898       29.803151
  H           21.535621       25.095070       27.048423
  H           22.895735       22.603752       27.156967
  O           14.650146        5.055797       31.190080
  C           14.139400        3.988698       31.908136
  C           14.605920        4.043973       33.381215
  F           14.181721        5.167777       33.959312
  F           15.941615        4.042675       33.460209
  F           14.153698        3.026601       34.111111
  C           14.536657        2.645422       31.253571
  F           15.866827        2.532557       31.162834
  F           14.053262        2.573961       30.013290
  F           14.082327        1.585457       31.918671
  H           15.619514        5.035107       31.172124
  H           13.045418        4.071683       31.889201
  O           17.139388        3.464940       13.617625
  C           17.518020        2.752734       12.493096
  C           16.341204        1.904780       11.957619
  F           15.319603        2.691743       11.619838
  F           15.893318        1.062101       12.895496
  F           16.661116        1.186178       10.883577
  C           18.746829        1.863704       12.793616
  F           18.490849        1.017749       13.798184
  F           19.781182        2.615560       13.170313
  F           19.140004        1.143849       11.745034
  H           16.878784        2.870719       14.338328
  H           17.798774        3.480062       11.720948
  O           19.674298        2.028981       30.557203
  C           20.478056        3.146303       30.413228
  C           19.627211        4.437246       30.399534
  F           18.954701        4.560622       31.543905
  F           18.722001        4.402963       29.414778
  F           20.355079        5.541233       30.245519
  C           21.341608        3.041030       29.135005
  F           20.573163        2.895365       28.049373
  F           22.134300        1.971140       29.198653
  F           22.121687        4.102496       28.942477
  H           19.056481        1.942844       29.814702
  H           21.148837        3.184215       31.280786
  O           20.558825        6.488654        9.713591
  C           20.087842        7.691781       10.209400
  C           18.659591        7.978359        9.691104
  F           17.823143        7.017481       10.083713
  F           18.631585        7.999879        8.353540
  F           18.167764        9.135919       10.127522
  C           21.048231        8.848545        9.848554
  F           21.210776        8.939481        8.523551
  F           22.253218        8.631367       10.375729
  F           20.629149       10.032607       10.289766
  H           20.616258        6.506129        8.745696
  H           20.047405        7.604993       11.302503
  O           34.267861        6.120622       12.388041
  C           33.509294        6.069748       13.544394
  C           32.350556        5.056651       13.397358
  F           32.830586        3.834385       13.167764
  F           31.568499        5.372047       12.358496
  F           31.579618        4.983709       14.480240
  C           32.972536        7.472482       13.911663
  F           32.240098        7.980599       12.913828
  F           33.984138        8.314893       14.121618
  F           32.220539        7.473115       15.010207
  H           33.737209        6.418025       11.632802
  H           34.165593        5.728258       14.354763
  O           13.679318       14.387162        4.342491
  C           14.120422       15.696128        4.257639
  C           14.831425       15.950052        2.908322
  F           13.992640       15.733523        1.895095
  F           15.864260       15.114784        2.747376
  F           15.290279       17.193686        2.785331
  C           15.049578       16.040936        5.444414
  F           16.099815       15.212917        5.485782
  F           14.397236       15.902083        6.598643
  F           15.515078       17.287338        5.398658
  H           14.420704       13.763418        4.301069
  H           13.237719       16.345824        4.310286
  O           15.647210       25.778395       14.692564
  C           14.268471       25.857413       14.781991
  C           13.841051       27.097513       15.600603
  F           14.278508       28.212204       15.014796
  F           14.371549       27.066014       16.828570
  F           12.520740       27.208597       15.729978
  C           13.682403       24.563836       15.393418
  F           14.200247       24.330216       16.604857
  F           13.984271       23.513136       14.630542
  F           12.357261       24.597757       15.516486
  H           16.050933       25.681454       15.568941
  H           13.877353       25.965272       13.762465
  O           14.936657       23.520196       26.242476
  C           16.190429       22.934348       26.243982
  C           16.102467       21.449071       26.664546
  F           15.334142       20.771176       25.811781
  F           15.546210       21.327020       27.875333
  F           17.288004       20.844357       26.698082
  C           17.159266       23.712008       27.164448
  F           16.687313       23.770482       28.415113
  F           17.294129       24.968118       26.738920
  F           18.376987       23.176212       27.213210
  H           14.542569       23.508512       27.128469
  H           16.577305       22.980283       25.218185
  O           23.703381        8.037107       32.825674
  C           23.685025        7.502755       31.549235
  C           22.238533        7.418223       31.009628
  F           21.693688        8.633558       30.953246
  F           21.468762        6.680812       31.818332
  F           22.166230        6.893429       29.788292
  C           24.365052        6.114365       31.524877
  F           23.764922        5.272941       32.374685
  F           25.637625        6.215365       31.908847
  F           24.357511        5.549861       30.319233
  H           23.210622        7.479008       33.447076
  H           24.256505        8.178425       30.900450
  O           22.219235       10.562556       18.460103
  C           20.985201        9.972379       18.250303
  C           21.120634        8.718659       17.355595
  F           21.912322        7.817836       17.937681
  F           21.678156        9.028504       16.179376
  F           19.955350        8.123638       17.109906
  C           19.989725       10.983592       17.636190
  F           20.457031       11.474120       16.482357
  F           19.814886       12.018480       18.458086
  F           18.790000       10.457550       17.399046
  H           22.611727       10.861940       17.625391
  H           20.599080        9.658428       19.228254
  O           24.032608       10.788290       13.194691
  C           23.180770        9.701916       13.291281
  C           21.764393       10.150544       13.719381
  F           21.254295       10.992968       12.820941
  F           21.801450       10.799924       14.888678
  F           20.910304        9.136893       13.843252
  C           23.744841        8.646652       14.270515
  F           23.939887        9.176063       15.483778
  F           24.927320        8.203783       13.843097
  F           22.951066        7.587202       14.411172
  H           24.132442       11.233379       14.050467
  H           23.112314        9.246735       12.295205
  O           27.307819       14.850870        6.377063
  C           27.770641       15.739699        5.422631
  C           27.119960       15.458576        4.048498
  F           25.796067       15.593649        4.126843
  F           27.363080       14.204001        3.651939
  F           27.546922       16.278559        3.090568
  C           29.312761       15.686555        5.324138
  F           29.730809       14.450167        5.029344
  F           29.862934       16.016472        6.492701
  F           29.806506       16.513481        4.405057
  H           27.536961       13.937230        6.146454
  H           27.479759       16.748249        5.742406
  O           23.503924       13.264220       22.095666
  C           22.263057       12.653436       22.047122
  C           22.377218       11.149385       22.386913
  F           22.865648       10.988391       23.616788
  F           23.216912       10.531944       21.547863
  F           21.209413       10.512196       22.336715
  C           21.603575       12.858073       20.663697
  F           22.381553       12.376942       19.687179
  F           21.430813       14.157398       20.420836
  F           20.412209       12.272920       20.561017
  H           24.109946       12.880457       21.443065
  H           21.630111       13.131505       22.805325
  O            6.531423       10.452622        3.253015
  C            5.502046       11.152413        3.857861
  C            5.669701       12.673972        3.640124
  F            5.650612       12.960222        2.338290
  F            6.845272       13.098725        4.117556
  F            4.710908       13.393507        4.219163
  C            5.420295       10.816369        5.364862
  F            6.575971       11.092933        5.979883
  F            5.188052        9.515030        5.537065
  F            4.453908       11.479332        5.996428
  H            7.390259       10.691688        3.634687
  H            4.564718       10.836936        3.382539
  O           19.653881       13.965079       22.182454
  C           19.648411       15.333241       21.974450
  C           20.834791       16.004751       22.703995
  F           21.991216       15.525018       22.246161
  F           20.796214       15.747998       24.016593
  F           20.863518       17.326562       22.548147
  C           18.303913       15.951778       22.422107
  F           18.063438       15.690798       23.712217
  F           17.297338       15.426773       21.723357
  F           18.255562       17.271976       22.257675
  H           19.553539       13.752557       23.123300
  H           19.764881       15.503592       20.896741
  O           33.136362       15.518057       23.320707
  C           32.252013       16.580125       23.249267
  C           32.883460       17.861726       23.840396
  F           33.979762       18.194452       23.158860
  F           33.255387       17.669276       25.111206
  F           32.063504       18.910087       23.810232
  C           30.924324       16.238757       23.964368
  F           31.139963       15.916836       25.245067
  F           30.346260       15.184424       23.388783
  F           30.044703       17.237691       23.937981
  H           33.364772       15.312599       24.240512
  H           32.036506       16.759232       22.188362
  O           19.683043        6.822312       20.956498
  C           20.689167        7.275342       21.791748
  C           21.666724        6.130826       22.145478
  F           22.236570        5.650519       21.040193
  F           21.021361        5.113433       22.727495
  F           22.645381        6.513388       22.962897
  C           20.097019        7.910397       23.071093
  F           19.326434        7.034969       23.726949
  F           19.325328        8.950992       22.756879
  F           21.027871        8.347156       23.916703
  H           19.154123        6.132311       21.386110
  H           21.245840        8.049093       21.248179
  O           24.112518        7.773885        4.677341
  C           23.184247        8.788939        4.829472
  C           23.332943        9.467082        6.211018
  F           24.548153       10.000562        6.336479
  F           23.192408        8.575662        7.198917
  F           22.448578       10.441507        6.412743
  C           21.747396        8.254185        4.629079
  F           21.480376        7.266007        5.490780
  F           21.607526        7.751072        3.402544
  F           20.814742        9.191671        4.782628
  H           23.983565        7.077899        5.340213
  H           23.384888        9.538530        4.053650
  O           26.092914       15.170848       25.043443
  C           27.020838       14.144158       25.037829
  C           26.466192       12.898159       25.766192
  F           25.364511       12.458479       25.157869
  F           26.126934       13.192516       27.026582
  F           27.330532       11.886288       25.802714
  C           28.354249       14.605111       25.670440
  F           28.165608       15.035639       26.923190
  F           28.866186       15.624267       24.980282
  F           29.276089       13.645225       25.704047
  H           25.885149       15.451407       25.948178
  H           27.210034       13.876151       23.990729
  O           29.988652        1.308555       14.460451
  C           30.428230        2.469722       13.849201
  C           29.351572        3.576279       13.932842
  F           29.078528        3.861242       15.206152
  F           28.207571        3.174157       13.367258
  F           29.721193        4.710731       13.342335
  C           30.829087        2.199770       12.380494
  F           29.802954        1.687838       11.691074
  F           31.818795        1.308310       12.327099
  F           31.243704        3.292301       11.742710
  H           29.199088        0.957331       14.020389
  H           31.317991        2.812098       14.392475
  O            6.658012        8.937503       22.072469
  C            6.590991        7.623599       22.501806
  C            7.880358        6.856720       22.127524
  F            8.940023        7.423192       22.704840
  F            8.089721        6.889329       20.806377
  F            7.857373        5.580268       22.504936
  C            5.342296        6.919264       21.922727
  F            5.349188        6.956864       20.585244
  F            4.232822        7.539187       22.325016
  F            5.242015        5.644716       22.293901
  H            6.737137        8.987897       21.107262
  H            6.503096        7.637942       23.595475
  O           23.018429       14.468832       28.533086
  C           22.285034       15.528134       28.027937
  C           21.540530       15.115133       26.737278
  F           20.695940       14.115158       26.989853
  F           22.399221       14.677810       25.808989
  F           20.832587       16.107447       26.202086
  C           23.193192       16.753265       27.773059
  F           24.183724       16.446621       26.927399
  F           23.761040       17.153311       28.910858
  F           22.535582       17.795468       27.269410
  H           23.698096       14.180779       27.904195
  H           21.538755       15.803012       28.783948
  O           27.252144       22.802122       14.992989
  C           26.411752       21.823898       15.494968
  C           25.652970       22.337455       16.740427
  F           24.907052       23.396077       16.424200
  F           26.507104       22.730232       17.692533
  F           24.842366       21.424763       17.271667
  C           27.201802       20.535782       15.822437
  F           28.179493       20.784834       16.701310
  F           27.779583       20.054614       14.721655
  F           26.438368       19.568221       16.325721
  H           27.927594       23.051859       15.642468
  H           25.676274       21.588893       14.715298
  O           30.958754       20.312996        6.008443
  C           29.769618       21.000345        5.839113
  C           29.711523       22.235077        6.767941
  F           30.711699       23.071274        6.489557
  F           29.846245       21.875971        8.049822
  F           28.576543       22.921526        6.654328
  C           28.558178       20.070501        6.080903
  F           28.600895       19.538718        7.307976
  F           28.572653       19.056758        5.215346
  F           27.388073       20.691028        5.946368
  H           31.045362       19.979171        6.914801
  H           29.735135       21.348791        4.799191
  O            7.667704        4.790396       13.642945
  C            8.365206        5.983649       13.712228
  C            9.648804        5.821511       14.558837
  F           10.451641        4.908414       14.012228
  F            9.356739        5.397510       15.793845
  F           10.347472        6.949264       14.669907
  C            7.470520        7.111171       14.276933
  F            7.004684        6.790049       15.489451
  F            6.411701        7.300275       13.489395
  F            8.102849        8.278200       14.379419
  H            7.381554        4.499365       14.522630
  H            8.657897        6.254564       12.689985
  O           24.008258       19.851890        3.699902
  C           23.714445       18.829154        4.584690
  C           24.882859       18.604047        5.572007
  F           25.107791       19.709163        6.282781
  F           26.014996       18.322265        4.916883
  F           24.654908       17.616267        6.434927
  C           23.375065       17.525903        3.825074
  F           24.386920       17.158114        3.030590
  F           22.311369       17.709589        3.042843
  F           23.101195       16.505288        4.634790
  H           24.785626       19.637627        3.161186
  H           22.830742       19.133784        5.159416
  O           24.008846       33.794687       11.051986
  C           24.874324       32.764333       11.375227
  C           24.313115       31.405034       10.897722
  F           24.155857       31.408383        9.573965
  F           23.110476       31.168985       11.434624
  F           25.103487       30.377670       11.201261
  C           25.157720       32.741078       12.895031
  F           24.022458       32.611611       13.591265
  F           25.722300       33.886267       13.278262
  F           25.973813       31.754402       13.259398
  H           23.150749       33.682816       11.489683
  H           25.819864       32.950844       10.850623
  O           33.351974        3.181525       30.768044
  C           32.007631        3.442676       30.568777
  C           31.334246        2.291461       29.786526
  F           31.433646        1.149322       30.466755
  F           31.935875        2.098722       28.607027
  F           30.040777        2.504118       29.554119
  C           31.812078        4.792727       29.840917
  F           32.451827        4.799523       28.665758
  F           32.319852        5.788280       30.567632
  F           30.533161        5.081559       29.610165
  H           33.824524        3.109598       29.924274
  H           31.534930        3.511497       31.556632
  O           15.082937       32.382758       22.020254
  C           13.755724       31.991417       22.043115
  C           12.909553       32.967485       22.892788
  F           12.965877       34.196485       22.379502
  F           13.378982       33.043261       24.143475
  F           11.625238       32.623490       22.959878
  C           13.618817       30.542999       22.566565
  F           14.144828       30.425364       23.791228
  F           14.281306       29.699924       21.774474
  F           12.356102       30.125165       22.623722
  H           15.466631       32.375174       22.910841
  H           13.384942       32.021846       21.010818
  O           15.322105        7.874309        6.130555
  C           14.176162        8.631614        6.299283
  C           14.524603       10.050110        6.806348
  F           15.304910       10.677630        5.926340
  F           15.201253        9.993039        7.959263
  F           13.451597       10.813665        7.001136
  C           13.189659        7.928934        7.260382
  F           13.759816        7.702647        8.449516
  F           12.829063        6.743603        6.768410
  F           12.075998        8.627888        7.468998
  H           15.792816        7.757833        6.970370
  H           13.694614        8.724565        5.317696
  O           12.650242       22.450235       12.284196
  C           12.403702       22.911992       11.003117
  C           12.822108       24.393879       10.863095
  F           14.125823       24.531653       11.104802
  F           12.176036       25.159110       11.750415
  F           12.588299       24.890539        9.650263
  C           10.916279       22.720684       10.626774
  F           10.118173       23.352437       11.495243
  F           10.591188       21.428472       10.666509
  F           10.624428       23.166389        9.406745
  H           12.135112       22.944264       12.940703
  H           13.013707       22.314512       10.313948
  O           22.369542       20.645721        9.746604
  C           21.121366       20.130486        9.443694
  C           20.683295       20.551582        8.021924
  F           21.547168       20.092553        7.116336
  F           20.662071       21.884154        7.903070
  F           19.478307       20.093699        7.689287
  C           20.076079       20.568344       10.495508
  F           20.006416       21.902253       10.573983
  F           20.420998       20.123638       11.703954
  F           18.852598       20.110972       10.238204
  H           22.360693       21.615396        9.737860
  H           21.200660       19.036396        9.470572
  O            7.796301       25.770956       28.508719
  C            8.652563       26.812151       28.821600
  C            9.767885       26.944653       27.758982
  F            9.238809       27.194691       26.561220
  F           10.462776       25.806367       27.650552
  F           10.629418       27.924090       28.024998
  C            9.254839       26.623114       30.233049
  F            9.908801       25.459177       30.321985
  F            8.287291       26.598353       31.149734
  F           10.100747       27.592758       30.574412
  H            8.265461       24.922342       28.495719
  H            8.062050       27.736991       28.819341
  O           17.403345       10.689928       11.914628
  C           16.508383        9.921375       12.638186
  C           15.565396        9.140751       11.693696
  F           16.268270        8.322849       10.910065
  F           14.896230        9.974897       10.889494
  F           14.672355        8.397781       12.343906
  C           15.700922       10.798785       13.622470
  F           15.042568       11.765200       12.972133
  F           16.519622       11.397910       14.487255
  F           14.812007       10.106311       14.331420
  H           16.942604       11.352750       11.377218
  H           17.091291        9.196541       13.220317
  O           21.521913       29.583041       18.548307
  C           21.318742       30.951830       18.565698
  C           22.357254       31.650039       19.473804
  F           23.591645       31.424418       19.023860
  F           22.301074       31.169902       20.721456
  F           22.192597       32.969566       19.537323
  C           19.878079       31.287875       19.015391
  F           19.624126       30.778846       20.226474
  F           18.993658       30.752734       18.173668
  F           19.637919       32.596373       19.064952
  H           21.414164       29.200810       19.433019
  H           21.454724       31.318618       17.540507
  O           22.441492       18.024497       14.124105
  C           22.370861       19.112012       14.977033
  C           23.543464       20.087129       14.722458
  F           23.502055       20.544245       13.470897
  F           24.720652       19.469751       14.875413
  F           23.529487       21.143893       15.531997
  C           22.346186       18.652105       16.453019
  F           23.427863       17.920248       16.744028
  F           21.281531       17.882788       16.680474
  F           22.295748       19.665165       17.315263
  H           23.255942       17.518035       14.267604
  H           21.431881       19.638183       14.763720
  O           23.110196        1.000030       19.263014
  C           21.939246        1.717953       19.093817
  C           21.941939        2.462249       17.738577
  F           22.038612        1.592521       16.732941
  F           22.992824        3.285416       17.647145
  F           20.841108        3.182969       17.536011
  C           21.725566        2.704718       20.264839
  F           22.759191        3.547227       20.374938
  F           21.637314        2.042216       21.418259
  F           20.618146        3.432824       20.139210
  H           23.882924        1.585878       19.272968
  H           21.109437        1.000002       19.091653
  O           16.832120       25.749733        6.411420
  C           17.765911       24.893845        5.854055
  C           17.073510       23.676205        5.199384
  F           16.253360       24.077035        4.227908
  F           16.329307       23.012463        6.091534
  F           17.932801       22.812558        4.662697
  C           18.795960       24.439054        6.913688
  F           18.189163       23.836168        7.942596
  F           19.447894       25.491848        7.407331
  F           19.707707       23.598639        6.429211
  H           16.327960       25.310163        7.113579
  H           18.297918       25.450081        5.071999
  O            6.203520       18.204126       12.836229
  C            6.228875       19.245140       13.747718
  C            6.277488       18.706282       15.196141
  F            7.375298       17.972902       15.380650
  F            5.229551       17.912943       15.446668
  F            6.285945       19.671630       16.112837
  C            5.014168       20.180581       13.547483
  F            3.865450       19.504852       13.666488
  F            5.032288       20.707204       12.322977
  F            4.984149       21.190828       14.413970
  H            5.412330       17.655416       12.951818
  H            7.143433       19.822791       13.563479
  O           22.069862       23.127601       11.357339
  C           22.845632       23.306611       12.489285
  C           22.562492       24.681367       13.137773
  F           21.282497       24.767515       13.500081
  F           22.792359       25.675083       12.271741
  F           23.298780       24.908655       14.223370
  C           24.347606       23.152521       12.156138
  F           24.719878       24.024275       11.211795
  F           24.593250       21.932051       11.679498
  F           25.138260       23.333251       13.211838
  H           22.271774       23.795672       10.684035
  H           22.568963       22.523284       13.206150
