12
Properties=species:S:1:pos:R:3:energies:R:1:forces:R:3:charge:R:1 energy=-1085.8629070931152 free_energy=-1085.8629070931152 dipole="-0.09331018281801357 0.19020345524077625 -0.1446510364420498" pbc="F F F"
O       -0.65657090       1.36286667      -0.74995921    -112.65694405       0.00172353      -0.00352179       0.00258239      -0.38953129
C       -0.07822169       0.11810093      -0.57322440     -58.80467306       0.00158056      -0.00343980       0.00007219       0.08243498
C       -1.01823454      -0.81661452       0.22260324     -58.11981266      -0.00024811       0.00117822       0.00163548       0.47651519
F       -2.16587146      -0.98717270      -0.43383744    -129.07307361       0.00168606       0.00103589      -0.00260503      -0.17784404
F       -1.32273888      -0.28765927       1.41332041    -129.21845413       0.00050659       0.00092320       0.00274448      -0.18788135
F       -0.49836364      -2.02380728       0.43407335    -129.15445008       0.00184563       0.00165556      -0.00115271      -0.18231607
C        1.29525045       0.24450513       0.12552817     -58.11981271      -0.00061742       0.00100831       0.00165093       0.47651519
F        1.17530149       0.85811127       1.30850057    -129.21845374      -0.00083771       0.00030657       0.00280047      -0.18788132
F        2.12482073       0.98082497      -0.61387779    -129.07307342      -0.00206144      -0.00068202      -0.00244793      -0.17784402
F        1.88557810      -0.93037122       0.33404339    -129.15445043      -0.00253208      -0.00035286      -0.00096855      -0.18231611
H       -0.82041631       1.79794208       0.10109252     -10.89757786      -0.00141549       0.00311245       0.00027253       0.33531023
H        0.07946665      -0.31672607      -1.56826284     -12.37213135       0.00036989      -0.00122373      -0.00458425       0.11483860
