192
Lattice="14.05790476106759 0.0 0.0 0.0 14.05790476106759 0.0 0.0 0.0 14.05790476106759" Properties=species:S:1:pos:R:3 Built=T with=T Packmol=T charge=0 spin=1 external_field="_JSON [0.0, 0.0, 0.0]" pbc="T T T"
O       13.46480700       5.70260300       6.77791100
C       12.49285700       4.70730800       6.69284700
C       11.12028900       5.26567000       7.08561400
F       10.79820800       6.27288000       6.26850700
F       11.13687000       5.74961300       8.33880400
F       10.15445200       4.34716300       7.00665300
C       12.91192500       3.47969600       7.50977100
F       13.09347200       3.79914200       8.80200900
F       14.07249600       3.00897100       7.04365800
F       12.01329300       2.49419900       7.44664700
H       13.54029800       5.99611900       7.69498600
H       12.42554900       4.39237200       5.65110400
O        1.76077700       9.10114900       2.18963500
C        2.87511100       9.87117600       2.51804100
C        2.76121300      11.26817000       1.89722200
F        1.65653600      11.86861500       2.35002000
F        2.66363400      11.19510700       0.55927500
F        3.80426500      12.04599100       2.19683300
C        4.16469200       9.13465100       2.13787700
F        4.19638700       8.86513400       0.82211100
F        4.22141900       7.96953000       2.78983200
F        5.26036600       9.83245200       2.44658400
H        1.73235600       8.97448500       1.23254400
H        2.88616700      10.00056100       3.60066700
O        7.51702100      11.90075300      13.48203800
C        8.01358400      12.15700700      12.20520900
C        9.40059700      12.80415400      12.29108700
F       10.23570800      11.98480200      12.93693700
F        9.35298800      13.95807000      12.97750600
F        9.92096400      13.05663700      11.08767500
C        7.00388800      12.97657000      11.39351600
F        6.73558200      14.14636200      11.99724200
F        5.85564000      12.29988300      11.29661600
F        7.43436800      13.23545100      10.15642500
H        7.40111300      12.73653000      13.95205800
H        8.13595300      11.20123600      11.69484600
O       13.39314500       8.47088800       2.59630400
C       12.10522600       8.55380000       3.12253800
C       11.98724200       9.76170300       4.05903700
F       12.26372200      10.87990000       3.38149200
F       12.86493500       9.67410600       5.07241900
F       10.76336900       9.88719900       4.57780000
C       11.71026800       7.22686200       3.78076100
F       12.56241600       6.90583600       4.76852200
F       11.75755900       6.24739800       2.87291500
F       10.47597900       7.25729900       4.28902200
H       14.02157200       8.32333900       3.31476400
H       11.41485500       8.72006900       2.29508000
O       10.35678300       4.97772800       0.47993100
C       10.19189700       3.86391800       1.30137500
C        9.30829600       4.21315800       2.50439600
F        8.11347600       4.62932600       2.07418500
F        9.84843200       5.20871400       3.22694900
F        9.11320400       3.16947200       3.31395700
C       11.55494600       3.28038100       1.69072700
F       12.30196700       4.19000200       2.33836400
F       12.21929800       2.92465700       0.58715600
F       11.44408200       2.20167500       2.46971900
H       10.82106900       5.66855500       0.96990300
H        9.66683600       3.09922500       0.72822800
O        8.45227500       7.14550000      11.50158500
C        8.20691000       8.47082000      11.85634700
C        8.99202800       8.83993400      13.12020000
F       10.29919500       8.67379300      12.89753000
F        8.65172900       8.04555400      14.14884800
F        8.79582400      10.10767600      13.49042100
C        6.69936500       8.72185800      11.97594100
F        6.14793400       7.91664400      12.89921600
F        6.10929100       8.45798900      10.80634500
F        6.41720400       9.98519600      12.30318600
H        8.13213300       6.56381600      12.20303200
H        8.57581400       9.10729300      11.05151500
O        4.16685900       1.61356100      12.00042100
C        2.88893400       1.82762600      11.48698700
C        2.87672200       1.59903300       9.97121100
F        3.25843000       0.34607200       9.70614800
F        3.73681400       2.42458500       9.35180100
F        1.66651800       1.78182000       9.43761600
C        2.37023100       3.20893500      11.90285700
F        3.18364200       4.18274000      11.46132200
F        2.33281800       3.28820600      13.23630600
F        1.14100400       3.45204700      11.44174600
H        4.77495100       2.26069700      11.62053200
H        2.22150700       1.08729000      11.92901200
O        2.39532400       6.96986600      10.52154200
C        2.13089200       7.42808100      11.81097800
C        2.90519500       8.72185300      12.08772500
F        2.54532700       9.65512200      11.20151100
F        4.22853100       8.52913200      11.95887500
F        2.67174600       9.20426200      13.31063700
C        2.39957200       6.32137900      12.83715300
F        3.67632800       5.90761400      12.77735100
F        1.62127700       5.26817500      12.57109200
F        2.14709100       6.71376900      14.08815700
H        3.33283100       6.74947400      10.44815700
H        1.06932400       7.67005600      11.86984200
O        4.14598700      13.35539300       6.81782300
C        4.74889700      12.20304100       6.31670600
C        6.27420900      12.30508100       6.43068700
F        6.61588000      12.46426000       7.71279200
F        6.73875000      13.36761000       5.75231000
F        6.89394900      11.21489800       5.97226500
C        4.25819200      11.91914900       4.89240700
F        4.53709100      12.94610100       4.07236400
F        2.93153100      11.75896900       4.90155300
F        4.80229200      10.81445100       4.37634200
H        4.41115000      14.11276500       6.28028100
H        4.43568700      11.36337700       6.93784000
O       11.54431300      12.99718900       8.24429000
C       10.69443400      11.89530800       8.16620800
C       11.35615500      10.76536000       7.36913800
F       12.49614100      10.40632500       7.96696600
F       11.66046500      11.16739300       6.12385700
F       10.58022500       9.68250500       7.27920400
C        9.32601300      12.31359700       7.61623200
F        9.44334500      12.85817500       6.39371400
F        8.78600600      13.23579400       8.41855100
F        8.47394400      11.28880000       7.53563700
H       11.69972900      13.34278400       7.35587300
H       10.53383700      11.52317900       9.17846800
O       14.11677600       8.73882500      10.22230800
C       12.90711900       8.83551700      10.90781000
C       11.79919700       8.10253500      10.14281000
F       12.12994500       6.81524000      10.00371000
F       11.64204500       8.61618000       8.91137400
F       10.62235300       8.15918000      10.77094900
C       12.57811400      10.30254400      11.20715000
F       12.49266300      11.01878400      10.07375600
F       13.55346500      10.83581800      11.94882500
F       11.43050900      10.44166400      11.87526400
H       14.03453300       9.18137700       9.36775600
H       13.02380100       8.33018500      11.86695900
O        2.36879800      12.12709800       7.09322900
C        2.32053700      11.38552200       8.27232600
C        2.21331600       9.88887800       7.95841800
F        3.27125400       9.50783100       7.23631000
F        1.11235800       9.62526900       7.23498000
F        2.17638200       9.13775400       9.06167600
C        1.20141700      11.90251000       9.18353800
F        0.00728100      11.82431700       8.57295500
F        1.42198900      13.18782200       9.47524000
F        1.12659700      11.22692800      10.33276300
H        1.54243500      12.00716700       6.60782600
H        3.26162000      11.53614800       8.80206000
O        8.78537900      10.88570200       4.08485900
C        8.66625100      12.17819700       3.57711900
C        7.46483100      12.27157600       2.62957000
F        6.34927300      11.94890000       3.29084400
F        7.59115900      11.41278600       1.60415200
F        7.30514000      13.49858000       2.12788400
C        9.98640000      12.62569700       2.93918100
F       10.34493300      11.79955700       1.94227000
F       10.95752000      12.59605200       3.85668700
F        9.92126900      13.86601000       2.44917200
H        8.96053600      10.27343100       3.35869100
H        8.46926300      12.85009900       4.41299400
O        7.00992300       4.10231700       8.93696900
C        6.55628600       4.49476000      10.19503700
C        6.10557200       5.95971300      10.16765500
F        5.12256200       6.10717000       9.27444800
F        7.11341100       6.76780000       9.79858000
F        5.65074700       6.37559000      11.35210000
C        7.61689500       4.19949600      11.26178200
F        8.76389100       4.84549100      10.99349900
F        7.88455100       2.89030500      11.27397900
F        7.21869800       4.54931000      12.48726000
H        7.78790400       4.62430400       8.70212600
H        5.67984000       3.89338000      10.43819600
O       10.24165700       3.53057700      10.00598300
C       10.77734500       3.32031800      11.27537700
C       11.56279000       4.55390300      11.73507800
F       10.74999600       5.61424300      11.76535400
F       12.56318000       4.83400700      10.88318500
F       12.08474400       4.40092400      12.95445900
C       11.59837800       2.02600700      11.30143200
F       12.60205100       2.07331300      10.40964300
F       10.81501500       0.99443600      10.97283700
F       12.12160200       1.77821400      12.50457800
H       10.96113300       3.64934300       9.37264000
H        9.94855200       3.18919700      11.97169000
O        6.34289200       6.94924700       7.48074700
C        6.98051100       7.61688400       6.43660400
C        6.04829700       8.67047300       5.82758400
F        5.69536500       9.55103800       6.76881500
F        4.92320700       8.10576600       5.35828600
F        6.62380900       9.34448300       4.82897100
C        7.52323400       6.61327500       5.41277100
F        6.53399400       5.85914400       4.90525100
F        8.39085600       5.79143800       6.01075400
F        8.15411200       7.21015600       4.39864500
H        5.57876300       6.47142800       7.13336800
H        7.83770200       8.14773900       6.85176800
