12

O      -0.653041686006279      1.355837935523742     -0.742430374350362
C      -0.070993494795591      0.105114038182673     -0.543830307004787
C      -1.029004372771215     -0.814749011033650      0.221706429817658
F      -2.161643783930281     -0.956540151438172     -0.473199896304629
F      -1.349285213249919     -0.290827016575930      1.416648821936856
F      -0.515823604632940     -2.030638791556763      0.424159365122226
C       1.300816620849934      0.253877661540228      0.124017706270300
F       1.195103806157102      0.876172845958478      1.309959529532497
F       2.096168866683965      0.996426482191372     -0.651743943011970
F       1.901380045198457     -0.921945960092460      0.322736583282238
H      -0.808887150639097      1.773941477245661      0.114177764921363
H       0.095209967135866     -0.346669509945181     -1.522201680211391
