         192
  Built with Packmol                                             
  O           13.464807        5.702603        6.777911
  C           12.492857        4.707308        6.692847
  C           11.120289        5.265670        7.085614
  F           10.798208        6.272880        6.268507
  F           11.136870        5.749613        8.338804
  F           10.154452        4.347163        7.006653
  C           12.911925        3.479696        7.509771
  F           13.093472        3.799142        8.802009
  F           14.072496        3.008971        7.043658
  F           12.013293        2.494199        7.446647
  H           13.540298        5.996119        7.694986
  H           12.425549        4.392372        5.651104
  O            1.760777        9.101149        2.189635
  C            2.875111        9.871176        2.518041
  C            2.761213       11.268170        1.897222
  F            1.656536       11.868615        2.350020
  F            2.663634       11.195107        0.559275
  F            3.804265       12.045991        2.196833
  C            4.164692        9.134651        2.137877
  F            4.196387        8.865134        0.822111
  F            4.221419        7.969530        2.789832
  F            5.260366        9.832452        2.446584
  H            1.732356        8.974485        1.232544
  H            2.886167       10.000561        3.600667
  O            7.517021       11.900753       13.482038
  C            8.013584       12.157007       12.205209
  C            9.400597       12.804154       12.291087
  F           10.235708       11.984802       12.936937
  F            9.352988       13.958070       12.977506
  F            9.920964       13.056637       11.087675
  C            7.003888       12.976570       11.393516
  F            6.735582       14.146362       11.997242
  F            5.855640       12.299883       11.296616
  F            7.434368       13.235451       10.156425
  H            7.401113       12.736530       13.952058
  H            8.135953       11.201236       11.694846
  O           13.393145        8.470888        2.596304
  C           12.105226        8.553800        3.122538
  C           11.987242        9.761703        4.059037
  F           12.263722       10.879900        3.381492
  F           12.864935        9.674106        5.072419
  F           10.763369        9.887199        4.577800
  C           11.710268        7.226862        3.780761
  F           12.562416        6.905836        4.768522
  F           11.757559        6.247398        2.872915
  F           10.475979        7.257299        4.289022
  H           14.021572        8.323339        3.314764
  H           11.414855        8.720069        2.295080
  O           10.356783        4.977728        0.479931
  C           10.191897        3.863918        1.301375
  C            9.308296        4.213158        2.504396
  F            8.113476        4.629326        2.074185
  F            9.848432        5.208714        3.226949
  F            9.113204        3.169472        3.313957
  C           11.554946        3.280381        1.690727
  F           12.301967        4.190002        2.338364
  F           12.219298        2.924657        0.587156
  F           11.444082        2.201675        2.469719
  H           10.821069        5.668555        0.969903
  H            9.666836        3.099225        0.728228
  O            8.452275        7.145500       11.501585
  C            8.206910        8.470820       11.856347
  C            8.992028        8.839934       13.120200
  F           10.299195        8.673793       12.897530
  F            8.651729        8.045554       14.148848
  F            8.795824       10.107676       13.490421
  C            6.699365        8.721858       11.975941
  F            6.147934        7.916644       12.899216
  F            6.109291        8.457989       10.806345
  F            6.417204        9.985196       12.303186
  H            8.132133        6.563816       12.203032
  H            8.575814        9.107293       11.051515
  O            4.166859        1.613561       12.000421
  C            2.888934        1.827626       11.486987
  C            2.876722        1.599033        9.971211
  F            3.258430        0.346072        9.706148
  F            3.736814        2.424585        9.351801
  F            1.666518        1.781820        9.437616
  C            2.370231        3.208935       11.902857
  F            3.183642        4.182740       11.461322
  F            2.332818        3.288206       13.236306
  F            1.141004        3.452047       11.441746
  H            4.774951        2.260697       11.620532
  H            2.221507        1.087290       11.929012
  O            2.395324        6.969866       10.521542
  C            2.130892        7.428081       11.810978
  C            2.905195        8.721853       12.087725
  F            2.545327        9.655122       11.201511
  F            4.228531        8.529132       11.958875
  F            2.671746        9.204262       13.310637
  C            2.399572        6.321379       12.837153
  F            3.676328        5.907614       12.777351
  F            1.621277        5.268175       12.571092
  F            2.147091        6.713769       14.088157
  H            3.332831        6.749474       10.448157
  H            1.069324        7.670056       11.869842
  O            4.145987       13.355393        6.817823
  C            4.748897       12.203041        6.316706
  C            6.274209       12.305081        6.430687
  F            6.615880       12.464260        7.712792
  F            6.738750       13.367610        5.752310
  F            6.893949       11.214898        5.972265
  C            4.258192       11.919149        4.892407
  F            4.537091       12.946101        4.072364
  F            2.931531       11.758969        4.901553
  F            4.802292       10.814451        4.376342
  H            4.411150       14.112765        6.280281
  H            4.435687       11.363377        6.937840
  O           11.544313       12.997189        8.244290
  C           10.694434       11.895308        8.166208
  C           11.356155       10.765360        7.369138
  F           12.496141       10.406325        7.966966
  F           11.660465       11.167393        6.123857
  F           10.580225        9.682505        7.279204
  C            9.326013       12.313597        7.616232
  F            9.443345       12.858175        6.393714
  F            8.786006       13.235794        8.418551
  F            8.473944       11.288800        7.535637
  H           11.699729       13.342784        7.355873
  H           10.533837       11.523179        9.178468
  O           14.116776        8.738825       10.222308
  C           12.907119        8.835517       10.907810
  C           11.799197        8.102535       10.142810
  F           12.129945        6.815240       10.003710
  F           11.642045        8.616180        8.911374
  F           10.622353        8.159180       10.770949
  C           12.578114       10.302544       11.207150
  F           12.492663       11.018784       10.073756
  F           13.553465       10.835818       11.948825
  F           11.430509       10.441664       11.875264
  H           14.034533        9.181377        9.367756
  H           13.023801        8.330185       11.866959
  O            2.368798       12.127098        7.093229
  C            2.320537       11.385522        8.272326
  C            2.213316        9.888878        7.958418
  F            3.271254        9.507831        7.236310
  F            1.112358        9.625269        7.234980
  F            2.176382        9.137754        9.061676
  C            1.201417       11.902510        9.183538
  F            0.007281       11.824317        8.572955
  F            1.421989       13.187822        9.475240
  F            1.126597       11.226928       10.332763
  H            1.542435       12.007167        6.607826
  H            3.261620       11.536148        8.802060
  O            8.785379       10.885702        4.084859
  C            8.666251       12.178197        3.577119
  C            7.464831       12.271576        2.629570
  F            6.349273       11.948900        3.290844
  F            7.591159       11.412786        1.604152
  F            7.305140       13.498580        2.127884
  C            9.986400       12.625697        2.939181
  F           10.344933       11.799557        1.942270
  F           10.957520       12.596052        3.856687
  F            9.921269       13.866010        2.449172
  H            8.960536       10.273431        3.358691
  H            8.469263       12.850099        4.412994
  O            7.009923        4.102317        8.936969
  C            6.556286        4.494760       10.195037
  C            6.105572        5.959713       10.167655
  F            5.122562        6.107170        9.274448
  F            7.113411        6.767800        9.798580
  F            5.650747        6.375590       11.352100
  C            7.616895        4.199496       11.261782
  F            8.763891        4.845491       10.993499
  F            7.884551        2.890305       11.273979
  F            7.218698        4.549310       12.487260
  H            7.787904        4.624304        8.702126
  H            5.679840        3.893380       10.438196
  O           10.241657        3.530577       10.005983
  C           10.777345        3.320318       11.275377
  C           11.562790        4.553903       11.735078
  F           10.749996        5.614243       11.765354
  F           12.563180        4.834007       10.883185
  F           12.084744        4.400924       12.954459
  C           11.598378        2.026007       11.301432
  F           12.602051        2.073313       10.409643
  F           10.815015        0.994436       10.972837
  F           12.121602        1.778214       12.504578
  H           10.961133        3.649343        9.372640
  H            9.948552        3.189197       11.971690
  O            6.342892        6.949247        7.480747
  C            6.980511        7.616884        6.436604
  C            6.048297        8.670473        5.827584
  F            5.695365        9.551038        6.768815
  F            4.923207        8.105766        5.358286
  F            6.623809        9.344483        4.828971
  C            7.523234        6.613275        5.412771
  F            6.533994        5.859144        4.905251
  F            8.390856        5.791438        6.010754
  F            8.154112        7.210156        4.398645
  H            5.578763        6.471428        7.133368
  H            7.837702        8.147739        6.851768
