12
Properties=species:S:1:pos:R:3 pbc="F F F"
O       -0.65657090       1.36286667      -0.74995921
C       -0.07822169       0.11810093      -0.57322440
C       -1.01823454      -0.81661452       0.22260324
F       -2.16587146      -0.98717270      -0.43383744
F       -1.32273888      -0.28765927       1.41332041
F       -0.49836364      -2.02380728       0.43407335
C        1.29525045       0.24450513       0.12552817
F        1.17530149       0.85811127       1.30850057
F        2.12482073       0.98082497      -0.61387779
F        1.88557810      -0.93037122       0.33404339
H       -0.37796901       1.76370801      -1.58789249
H        0.07946665      -0.31672607      -1.56826284
