65
Properties=species:S:1:pos:R:3 pbc="F F F"
C       -5.18432822       0.39220141       0.09489305
C       -3.64950398       0.50580534      -0.05483993
C       -3.36264759       1.08539490      -1.44611608
C       -3.20821818       1.43639424       1.08470806
O       -3.13531292       1.08976649       2.25774004
O       -2.93299619       2.69286286       0.64175095
C       -2.49850070       3.59426268       1.66117336
C       -3.04339137      -0.92036524       0.14217423
C       -1.52530026      -1.24376325      -0.15482852
C       -1.29956837      -1.33664246      -1.67386471
C       -1.33710064      -2.66203680       0.43293013
O       -1.32164372      -3.69360089      -0.22701923
O       -1.24941873      -2.62086412       1.79097484
C       -1.13043807      -3.89456194       2.42492645
C       -0.57143971      -0.21692509       0.53558170
C        0.99848227      -0.22858910       0.37480076
C        1.52456567       0.72660660       1.47771422
C        1.56226821      -1.62444473       0.68297521
O        1.90078939      -2.00673214       1.79557337
O        1.61730196      -2.39601416      -0.43488035
C        2.14449641      -3.70895070      -0.23289914
C        1.41447586       0.30323643      -1.04324780
C        2.87149327       0.79587800      -1.33446089
C        3.93572970      -0.24071114      -0.94403047
C        3.10533890       2.17642966      -0.70446990
O        2.28695306       3.08841735      -0.74672568
O        4.33028808       2.27569556      -0.12256986
C        4.59675475       3.54521142       0.47528930
C        2.99735380       1.03245587      -2.85823292
H       -5.46018271      -0.04099977       1.06362612
H       -5.66349560       1.37668534       0.03457750
H       -5.61490827      -0.23972806      -0.69000871
H       -2.31876948       1.39320828      -1.55455347
H       -3.96800250       1.98007978      -1.63709137
H       -3.60136660       0.36365225      -2.23448465
H       -3.28487167       3.73353630       2.40944917
H       -2.29065006       4.56014071       1.19267461
H       -1.57735313       3.23010970       2.12710824
H       -3.25332511      -1.21528087       1.18116546
H       -3.64405676      -1.62349871      -0.45545086
H       -2.14172901      -1.83193430      -2.17174896
H       -1.17383746      -0.35689833      -2.13842689
H       -0.41784959      -1.93414214      -1.92275651
H       -2.00842485      -4.51163666       2.21043136
H       -1.07735185      -3.73122093       3.50475965
H       -0.21474509      -4.39990310       2.10623062
H       -0.88245854       0.78532842       0.22088867
H       -0.79044285      -0.25353708       1.61186519
H        1.17421423       1.75161424       1.31754250
H        2.61599976       0.73083604       1.53949813
H        1.17200809       0.42116575       2.47098995
H        1.53448994      -4.26685846       0.48230312
H        3.18359282      -3.65235109       0.10570270
H        2.12005058      -4.23338763      -1.19195220
H        1.20048407      -0.47157976      -1.78605614
H        0.73495875       1.12951679      -1.29679046
H        4.93670731       0.07868878      -1.25894343
H        3.98463046      -0.40049293       0.13636036
H        3.74657033      -1.20422894      -1.42816607
H        4.58341967       4.33525650      -0.28195877
H        5.59540841       3.50741053       0.91901850
H        3.87275624       3.75450221       1.26903531
H        2.86483246       0.10011710      -3.41865076
H        2.24608710       1.74686626      -3.21518204
H        3.98112825       1.44254675      -3.11602606
