192
Lattice="14.05790476106759 0.0 0.0 0.0 14.05790476106759 0.0 0.0 0.0 14.05790476106759" Properties=species:S:1:pos:R:3:momenta:R:3:forces:R:3:charge:R:1:energies:R:1 Built=T with=T Packmol=T charge=0 spin=1 external_field="_JSON [0.0, 0.0, 0.0]" energy=-17.316848754882812 stress="-0.003461063141003251 -0.0034744383301585913 -0.0016117560444399714 -0.0034744383301585913 -0.004477831535041332 0.0032063669059425592 -0.0016117560444399714 0.0032063669059425592 -0.006326929200440645" dipole="-1.0414633750915527 -1.2180352210998535 -0.5637403726577759" free_energy=-17.316848754882812 pbc="T T T"
O       13.15146617       5.75007701       6.86770040      -0.10020823       0.21422986      -0.29720505      -0.27151185      -0.28527173       0.53546858      -0.02843683      -0.11220421
C       12.32278864       4.63026260       6.65530945      -0.18052616      -0.08299698       0.34811145       0.65035719       0.17355755       0.04705966       0.01311967      -0.23352720
C       10.88696751       4.94082496       7.09961260       0.33899100       0.00146007      -0.42625151       0.27449396      -0.31598645      -0.01479334       0.02171047      -0.11647774
F       10.51995310       5.97489731       6.34891405      -0.62881603       0.07891944      -1.07344897      -0.20229696       0.61495006       0.51126903      -0.01193130      -0.22204432
F       10.66606414       5.18896582       8.41901682       0.05693339      -0.17110699      -0.10141559       0.61644614       0.42988455      -1.09484386      -0.01059429      -0.24723884
F       10.11160178       3.91704849       6.79779930       0.40483561      -0.31448140      -1.15710207      -0.67584383      -0.83158958      -0.22917807      -0.00903297      -0.24803877
C       13.00879127       3.41501068       7.32969856      -0.47454198       0.17287567      -0.89641513      -0.10369350      -0.17050202      -1.96207809       0.02314961      -0.10675025
F       13.41347424       3.74813872       8.50716859       1.43677047      -1.39293916      -0.20939314       0.15539804       0.46603483       2.27541351      -0.00632448      -0.19055089
F       14.12424548       3.06250518       6.66988242      -0.44218852       0.76795564      -0.34488063      -0.39835817      -0.15930495      -0.53059763      -0.01032383      -0.25727543
F       12.21381261       2.31786324       7.41772698       0.51140869      -0.65566692       0.25841321       0.07942649       0.26898229       0.05598295      -0.00801962      -0.30676109
H       13.22161407       5.86403524       7.83714539       0.05120360       0.28552283      -0.08152198       0.09371388       0.10148445      -0.55351782       0.02318236      -0.04821890
H       12.24654253       4.46922493       5.56156025       0.06011452       0.04721336       0.06556889       0.11973478      -0.05920169       0.59353703       0.01401216      -0.04731696
O        1.94653146       9.04243464       2.12293714       0.00214533      -0.00145421       0.00227168       0.93659163       0.52026677      -0.44688773      -0.03029217      -0.15173963
C        2.99086960       9.94970087       2.46848428       0.12894791       0.06654043      -0.05037804       0.37301940      -2.04216242       0.05850548       0.01239890      -0.24082078
C        2.68407079      11.28843996       1.88209575       0.55571214      -0.36587164      -0.64938339      -0.69166726       1.12826717      -0.92737180       0.02135885      -0.13155977
F        1.45449267      11.63586947       2.26845730       0.47236341       0.14773542      -0.17200074      -0.75956535      -0.39399445      -0.47152144      -0.01189643      -0.22447540
F        2.76021259      11.34044290       0.51766248       0.31310225       0.32556047       0.08899330      -0.12142070       0.08291288       1.08457482      -0.01205165      -0.21316238
F        3.41984360      12.26875131       2.32826499      -0.64462877       0.21711855       1.48710121       1.73409951       0.69099599       0.20243089      -0.00689953      -0.17929734
C        4.38303139       9.31385588       2.10894941      -0.12269934       0.60154798      -0.19983063      -0.68393481      -0.64912623       0.49302614       0.02207366      -0.12462589
F        4.41666800       8.72532955       0.92031777      -0.83484720      -0.10421050       0.42100511      -0.35612136       0.02797763      -0.41514289      -0.00982017      -0.24008694
F        4.66059974       8.30466574       2.99681751       0.73010264       0.38055187      -0.10882713      -0.14622794       1.22174811      -0.52551502      -0.01291756      -0.24336621
F        5.33497181      10.22955665       2.11674071      -0.41656079       1.56831634      -0.33882000       0.05014801      -0.31399876       0.27874362      -0.00944879      -0.21651317
H        2.03077392       8.92107149       1.15015348      -0.15158172      -0.08281297       0.04734155      -0.19877845      -0.09032813       0.82512605       0.02102349      -0.05372553
H        3.01605861      10.07030519       3.55122813      -0.03435640       0.04855172       0.10526439      -0.20842166      -0.01131552      -0.02615468       0.01188505      -0.05222984
O        7.38219330      12.51347419      13.47732417      -0.31143303       0.71559316      -0.33009732       0.47260866       0.25324452      -0.67117321      -0.03220042      -0.09513991
C        7.85459985      12.63015714      12.17024895      -0.06164287       0.58297255      -0.10195753      -0.67623001       0.27373382      -0.05386344       0.00877239      -0.26071942
C        9.28728386      13.17111595      12.10350390      -0.16227000       0.28778929      -0.53886348       0.31561780       0.31438851       1.25152659       0.02160656      -0.12843913
F       10.05101375      12.66497611      13.11970310      -0.41987342       0.68343481       0.23441621      -0.59003520       0.11763574      -1.10616875      -0.01408583      -0.25384647
F        9.28443255      14.52620954      12.33020156       0.22233519       1.06227646      -0.87151121      -0.04450905      -0.99450779      -0.47567189      -0.01236607      -0.24456845
F        9.87925055      12.87201926      10.93945228      -0.68714622       0.17454818      -0.26891541      -0.36852354       0.23129392       0.67695236      -0.01094028      -0.20697227
C        6.80082582      13.48135601      11.39541646      -0.25439728       0.25215134      -0.20902122       0.84487021      -0.40578109       1.60776043       0.02115500      -0.13565528
F        6.54477022      14.58510426      12.10361369      -1.21910862       0.73921973      -0.04645424      -0.49374378       0.06311868       0.26313359      -0.01030010      -0.22401592
F        5.68724726      12.74223398      11.37355232      -1.18433536       0.34880122      -0.25190577      -0.45499223       0.03486386      -0.50770593      -0.01353117      -0.28655422
F        7.15053878      13.84600051      10.19295450       0.13807544       1.68394956       1.37757559       0.10539076       0.00447590      -0.80666804      -0.00938158      -0.23106043
H        7.46509464      13.36118196      13.94123662      -0.15318929       0.06177604      -0.08692991      -0.07050139      -0.24025427      -0.31255919       0.02443936      -0.01106033
H        7.79719301      11.63507552      11.74282386      -0.02287676      -0.11398365      -0.05187780       0.39310509      -0.04080981      -0.16743281       0.00999096      -0.04249740
O       13.19031081       8.60683858       1.62204099       1.23028824       0.36858630      -1.93919219       0.96478045       0.05225055      -0.13633741      -0.03174386      -0.12480753
C       12.26181084       8.89011232       2.60397898       0.27914887      -0.00656829      -0.01024003      -1.21311140      -2.47624207      -1.21215892       0.01061655      -0.15786436
C       12.58074215      10.07229579       3.47741584       0.47274026      -0.29579900      -1.00091849       0.58855879      -1.68885446       1.61497831       0.02147922      -0.09635289
F       13.05782437      11.04803817       2.77940429       0.95127631      -0.23493172      -1.93292306       0.26789740       1.15151787      -0.46310270      -0.00716303      -0.22345182
F       13.49879462       9.80209316       4.49827405       1.16051551       0.41170404      -1.41395270      -0.73072046       0.26828414      -1.18088734      -0.01750386      -0.27496248
F       11.44776507      10.38523026       4.07873186       1.57784549       1.86591784      -0.43412652      -0.46140826       0.65279204       0.58415437      -0.00952935      -0.20182164
C       11.88507796       7.54530500       3.34504491      -0.57737667       0.24606680      -0.69208258      -0.13473128       1.87898946      -0.16116446       0.02325686      -0.09384532
F       12.74116248       7.32282962       4.30270539      -0.28059083       0.88974245      -0.41071975       0.75368392      -0.98355484       0.94317281      -0.00892093      -0.24378297
F       11.93067499       6.51558283       2.46927696       0.57890406       1.66390927      -1.48549687      -0.33023584       0.32930344       0.46265018      -0.00686939      -0.26541319
F       10.65272780       7.62852372       3.90359320       0.39994088      -0.08598881       0.48498027       0.39725840      -0.34023303      -0.56497270      -0.01341719      -0.27789962
H       14.07462693       8.42172865       1.99921332       0.39643876       0.12148786       0.07387867      -0.41522482       0.29980889       0.02417456       0.02153694      -0.07069196
H       11.30416460       9.05623017       2.07510240      -0.21049964       0.02283365       0.20378450       0.48118144       0.71731180       0.09382306       0.01252807      -0.02062485
O       10.69335034       4.55264109       0.70739117       1.10566180      -1.00251265      -0.73894293      -0.19281429       0.64596742      -0.90454137      -0.02590867      -0.06196515
C       10.46674963       3.37244360       1.33912507      -0.22670644      -0.94915820       1.00509409      -0.53147113      -0.98883730       1.48696792       0.01335268      -0.19076030
C        9.29885999       3.57898020       2.36279048       0.34381990      -0.26439840       0.19853686       0.94827104      -0.37880245       0.88058889       0.02340585      -0.11252446
F        8.30391393       4.10685470       1.68409879       0.78720956      -0.97551191      -0.61169195      -0.70808673      -0.09107466       0.00955690      -0.00700691      -0.24425074
F        9.65567460       4.48339056       3.32661178      -0.04012817      -2.06558789       0.06593041      -0.13610664      -0.74371243      -0.47335857      -0.01254418      -0.28124666
F        8.87399983       2.43771799       2.99955987       0.22705181      -2.16727014      -0.24920466       0.43184942       1.22051501      -0.79243660      -0.01025649      -0.26648206
C       11.73939078       2.77400069       1.88330584      -0.22517553       0.26013138       0.16005132       1.65251327      -0.44947138       1.00707483       0.02154632      -0.15103915
F       12.53982123       3.61958321       2.57644017      -0.77165740      -1.25580804       0.82882088      -0.66222435       0.40085950       0.04408541      -0.01123933      -0.28460857
F       12.52407342       2.30145116       0.91254662       0.17798156      -0.86313099       1.08003002      -0.24871013       0.12605166      -0.59666842      -0.01111075      -0.23585135
F       11.49608727       1.73645353       2.68108938       0.30379789       0.51738588       0.20843544      -0.41704690      -0.18010515       0.45808601      -0.01015744      -0.24472603
H       11.12913944       5.19276192       1.29174406      -0.24494527       0.21895947      -0.01823034      -0.10450452      -0.25594479      -0.02815979       0.02299043      -0.07844926
H       10.14749765       2.52247355       0.71979914      -0.03819979      -0.08559160       0.00185717      -0.36284357       0.68737060      -0.68329602       0.01410411      -0.01452025
O        8.71506448       7.00970667      11.70243392       1.05111839       0.09163763       0.97092225      -0.16716209       1.47644866      -0.10412908      -0.02877339      -0.08851778
C        8.48055478       8.32987961      12.11121622       0.31617471       0.46247292       0.63369845      -0.38369927       0.47387430      -0.51881003       0.01107114      -0.26952308
C        9.14012092       8.61858207      13.43832922       0.11393503      -0.41312396       0.44969930       1.83982348      -1.33701468       0.81916773       0.02145260      -0.12497403
F       10.44898889       8.15758035      13.33150823       0.10333618      -1.99605991       1.03023544      -1.35813713      -0.26548678       0.49410033      -0.01684934      -0.22034860
F        8.54765920       7.96167382      14.46297227      -0.21355830      -0.09986980       0.70894816       0.39962429       0.12388292      -0.42466491      -0.01070111      -0.29086199
F        9.26099636       9.87686063      13.78694478       1.13565624      -1.02840180      -0.29743021      -0.56266946       0.75901949      -0.13405809      -0.01002142      -0.22145534
C        6.97975792       8.72432689      12.12104665       0.37095143       0.15312512       0.40618511      -0.58638108      -1.17131591      -0.14542599       0.02279683      -0.12402587
F        6.33451572       7.85136168      12.92756847       0.45065133      -0.96997690      -0.46577093       0.27407977       0.27724904      -0.17981371      -0.01122124      -0.22889006
F        6.44648949       8.58256219      10.88432113       0.31171449      -0.80068820       0.59454321       0.41021854       0.30965090       0.52301502      -0.01407013      -0.26885632
F        6.69575853       9.96308518      12.54898933       0.01395184       0.31429335       0.80407253       0.44019398      -0.49265322      -0.10747500      -0.00887039      -0.23938291
H        8.25861076       6.43115274      12.29729664      -0.20772210      -0.19702093      -0.06854409      -0.44783559      -0.89062178       0.61531776       0.02492031      -0.04050574
H        8.98695123       8.95841761      11.39258236       0.03271122       0.07285153       0.05526380       0.03719534       0.29620767      -0.22348382       0.01124300      -0.04109354
O        3.73860549       1.25027623      11.90593887      -0.21636961      -0.49873561      -0.34232850      -0.28847486      -0.80130380       0.87810361      -0.02064534      -0.01558756
C        2.55762780       1.67210300      11.28971959      -0.33707432      -0.46140363       0.37735966       0.49215001       0.43057665       0.36530057       0.01343157      -0.23252109
C        2.81261423       1.55569213       9.79618372       0.09950363      -0.60051537      -0.48626300       0.45492545       0.71234381      -0.85565460       0.02302688      -0.13257885
F        3.36952879       0.35326229       9.50880661       0.02598557      -0.72177325      -0.63014606      -0.28647274       1.47407627       0.16860336      -0.01112019      -0.19773866
F        3.64858120       2.55095157       9.32599237      -0.01611385      -0.13386603      -0.30628335      -0.47680566      -1.50958967       0.37370113      -0.01162636      -0.21865402
F        1.66698311       1.72605892       9.12398827      -0.31306861       0.85248037      -1.77152366       0.07349904      -0.33051753      -0.17182018      -0.01253639      -0.24964333
C        2.17687058       3.10062157      11.78004823      -0.63994452      -0.32930859       0.03194979       1.62638628      -0.02993621       0.21541445       0.02249444      -0.13560724
F        2.83600497       4.05450436      11.11043216      -0.84516341      -0.22367976       0.81746837      -0.04709921       0.27809021      -0.18500367      -0.01086229      -0.23730786
F        2.60139870       3.20693661      13.05705468       0.43117997       0.41235120       0.20523996      -0.79186428      -0.19908777      -0.21389081      -0.01013743      -0.24062914
F        0.88705912       3.36941505      11.68412829      -0.60892362       0.44002660       0.25514232      -0.02049359      -0.32968771       0.18896210      -0.00992816      -0.21799216
H        3.53043634       0.47113860      12.47428832       0.29201173      -0.09842705      -0.30177979       0.44809240       0.92286801      -0.58974516       0.02663599      -0.01707936
H        1.71008066       1.08329694      11.57611026       0.06956475      -0.19414009       0.05934106      -0.57525539      -0.68379766      -0.16101436       0.01372478      -0.04000431
O        2.33490473       7.00231231      10.85716669       0.39660164       0.27111460       0.16918511       0.15104064      -0.34591383       0.44681934      -0.02968330      -0.10323191
C        1.94099085       7.46760347      12.12071597      -0.73531294      -0.21365541       1.04786237       0.50891119      -1.72048712       0.23531657       0.00952352      -0.26887578
C        2.67095136       8.72969957      12.39837121      -0.32915745      -0.54900964       0.28529245       1.28755283       0.24334525       0.52422237       0.02045031      -0.11252297
F        2.51021866       9.55826850      11.44055883      -0.11431548      -0.20270863       0.54232163      -0.65804231       1.83479977      -2.42664337      -0.01176887      -0.11772343
F        4.00415937       8.56156024      12.46737424       0.30212525      -0.21496610       0.80346263      -0.01567945      -0.58507800       0.53554803      -0.01239699      -0.23099925
F        2.25161993       9.38773206      13.47787535      -1.03331638      -0.51356011      -0.18469061      -0.37128669      -0.47394836       0.73245621      -0.00463391      -0.15306658
C        2.11798873       6.42533063      13.28131554      -0.21738195       0.42707455       0.49464498       1.33370280       0.89927018      -0.38316864       0.02350358      -0.12257784
F        3.35513105       5.86053815      13.26969515       0.09848050       0.33485979       1.07926579      -0.90680206       0.29366076      -0.22141069      -0.01031026      -0.25899139
F        1.20019282       5.49629655      13.25926136      -1.85149133      -0.00179719       1.08813941      -0.48190314      -0.53802234      -0.23241234      -0.00785673      -0.23144262
F        2.01848345       7.05254556      14.46877810      -0.15223380      -0.03756575       0.37067889      -0.20718130      -0.09649622       0.16470380      -0.00693546      -0.23530427
H        3.28786556       6.79281411      10.85945476      -0.03039808      -0.05212488      -0.15619335      -0.40242121      -0.00635981       0.11399062       0.02185685      -0.06698254
H        0.90040423       7.72117521      12.05668843       0.28372655      -0.14445981       0.06942993      -0.41539976      -0.06431539       0.07393669       0.00984516      -0.02354821
O        4.11000736      14.33696625       6.87673792      -0.46278765       1.54605152       0.34448148      -0.08367098      -0.58831638      -0.39237708      -0.02544558      -0.11784668
C        4.58071122      13.06993357       6.49022509       0.25531194       0.89853748       0.60610086      -0.76301020      -0.50324786      -0.19660506       0.00950588      -0.24651009
C        6.07500316      13.00996703       6.72214569       0.47742776       1.38417178      -0.03455358       0.03872091       1.65573382       0.08847535       0.02155200      -0.15777163
F        6.25582910      12.82760905       8.03708708      -0.51599677       0.87772822       1.44835237       0.07458694       0.06809579      -0.06936704      -0.01258357      -0.22583976
F        6.60986657      14.19930417       6.37058594       0.98773563       1.93774955       1.08474492       0.38214153      -0.44760591       0.20382449      -0.01096816      -0.27109841
F        6.71767371      12.05909900       6.07075432      -0.98827252       1.35770908       0.73053123      -0.15263152      -0.30005589      -0.25230381      -0.00991731      -0.25122011
C        4.20058084      12.80710541       5.02448303      -0.28784769       1.23820693       0.32258934      -1.14704847       0.06375826      -0.99540567       0.02319895      -0.09891496
F        4.84455201      13.63780144       4.17547344       0.17023968       1.85708257       0.30614247      -0.18695040      -0.86075521       0.77254558      -0.00811340      -0.22889575
F        2.84898943      13.07428860       4.78522475      -0.08452490       1.89231851      -0.36766859       1.57445931      -0.36158615       0.58605027      -0.01289984      -0.20888048
F        4.39905120      11.49582302       4.68195464      -1.76426728       2.03663494      -0.77195854      -0.01622846       1.33867204       0.38404280      -0.01220278      -0.23088017
H        3.18115667      14.38563042       6.58605980       0.06933544       0.15864644      -0.46050611       0.30325276      -0.02848233       0.28776139       0.02424924      -0.04299577
H        4.21668511      12.24047890       7.12871844       0.02123173       0.22009632      -0.23875220      -0.17120406       0.41202870      -0.66307086       0.00947895      -0.01813459
O       11.63466178      12.84869623       8.78670072       0.27375539      -0.20075277      -0.64067014      -0.10992464      -0.07802415       0.90357518      -0.02623512       0.05705740
C       10.83518944      11.83606959       8.33541655       0.63579810      -0.60074768      -0.70292662      -1.82233858       0.68547416      -1.26106691       0.00967279      -0.24083436
C       11.41157489      11.10861107       7.11780714       0.11433689       0.40135963      -0.62120188       0.76921296      -0.89968097       0.84158289       0.01957493      -0.15005429
F       12.46444117      10.34770516       7.46784023       0.06975209       0.15096535      -0.43699324      -0.27980912       0.08416485      -0.34502047      -0.01434581      -0.13247733
F       11.90245130      11.93433084       6.20938129       0.07627948       2.50350426       0.31845926      -0.26049340       0.71898890      -0.46044230      -0.00990008      -0.26439482
F       10.47571764      10.31413890       6.58861905      -0.74518080       1.38546378      -1.31250864       0.18533012      -0.17986922      -0.09236408      -0.01255427      -0.24805419
C        9.41963950      12.34064637       7.86054626      -0.29641277       0.16410334      -0.24932786       0.28062037       1.75022316       0.00510816       0.02150579      -0.10282350
F        9.40971485      12.61982185       6.53266289      -0.76749400       0.37533676       0.29342361      -0.12740017       0.01048546       0.58539861      -0.01045537      -0.22233704
F        9.10360056      13.49808110       8.48911963      -0.25863518      -0.59495154      -0.12111013       0.45394120      -0.21244663      -0.36656302      -0.01245029      -0.23682387
F        8.43240741      11.51352160       8.13503966       0.01721639       1.21065503       1.30822546       0.06821617      -1.04328179       0.01852426      -0.01143260      -0.23502600
H       11.69348583      13.59292123       8.19649359      -0.06564070       0.07892623      -0.23199686      -0.13655460       0.38306254      -0.64635944       0.02577484      -0.04150260
H       10.57250788      11.17554555       9.15370169       0.01868192      -0.02687297       0.09001982       0.55520248      -0.39534280       0.05772636       0.01053065      -0.05161941
O       14.07743186       8.69335447      10.40330180      -0.29446936      -0.40720999       0.58162260      -0.00936617      -0.06240787       0.42620832      -0.02797539      -0.06218908
C       12.81038548       8.70459326      10.98656440       0.31557284      -0.74381661       1.16749061       0.01774621      -0.03993410      -0.09628293       0.01142383      -0.15626033
C       11.91385461       8.02118284       9.93553736      -0.56382464       0.08962517      -0.10918625      -1.19978666       1.01108348       0.83766270       0.02309366      -0.07570258
F       12.25273402       6.75642041       9.89662031      -0.24189516      -0.57221595      -0.02391562       0.06169281      -0.48607033      -0.28010941      -0.00741077      -0.19108833
F       12.15858377       8.54035893       8.74902562       0.39497445       0.72698318       0.31283964       0.17869326      -0.03026658      -0.84820497      -0.00776562      -0.17015244
F       10.57621561       8.12271644      10.09627955      -0.50136443       0.71706645      -0.93171188       0.56137514      -0.01058867       0.40627962      -0.01211721      -0.25027552
C       12.56839892      10.10559200      11.58914086      -0.36733603      -0.22463215       0.39222783      -0.58979326       0.41098753       0.60923415       0.02197384      -0.14467435
F       12.43872450      11.09223027      10.68779122       0.56004105      -0.58789430      -0.11529285      -0.31517828      -0.57146955       0.18196167      -0.01044956      -0.24026316
F       13.64717985      10.39013620      12.33054573       0.11391302      -1.01528004       0.29146641      -0.20152551      -0.14224370       0.05229973      -0.01162568      -0.23954235
F       11.49376066      10.16059356      12.43316682      -0.49760908      -1.06724770       0.42377798       0.91003573       0.04579181      -1.22507453      -0.01229145      -0.23267446
H       13.95205964       8.79199570       9.46238857      -0.17938956       0.08411610      -0.16700670       0.36155510       0.22670121      -0.66077423       0.02370074      -0.01337778
H       12.84617762       8.03882184      11.83225563      -0.00715863      -0.05349077       0.09071413      -0.25108135      -0.30441338       0.57666504       0.01373116      -0.02628120
O        1.96897966      12.15934094       7.03244779       0.00195440       0.83007010      -1.50427592       0.60883534       0.62371367       0.17716916      -0.02077239      -0.07750823
C        2.06475629      11.47085421       8.23857978      -0.14191589       0.42002159      -0.72706571       0.59952575      -1.16447401      -1.25455213       0.01386545      -0.21384148
C        2.07207220       9.97349175       7.88649540       0.70771955       0.11871196      -0.79547894      -0.26754680      -0.41642743      -0.05628453       0.02290453      -0.13328125
F        3.06658946       9.75169443       6.99312989      -0.01803564      -0.48263574      -1.02734382      -0.84587967       0.07406156       0.45672697      -0.01093460      -0.27049798
F        0.89961069       9.52435614       7.35224609      -0.45434838      -0.42812991       0.13650821       0.68934220       0.47354606       0.03204308      -0.01070207      -0.28650323
F        2.29588863       9.22961201       8.96025874       0.63476402       0.61786635      -0.08336575       0.27823818      -0.19168451      -0.05829779      -0.01012994      -0.21545073
C        1.00018648      11.96369802       9.17184988      -0.10030989      -0.14001918      -0.23074143       0.02476117       0.80246323       0.31768125       0.02114100      -0.13688277
F       -0.19204682      12.06361170       8.56995332      -0.50429073       1.05705728       1.41654825       0.86828220      -0.49549717       0.14638232      -0.00993165      -0.18683413
F        1.32079364      13.20010108       9.56155413       0.26465985      -0.49988004       0.60635746      -0.26376793       0.33673340       0.03347941      -0.01214072      -0.20775786
F        0.92480689      11.24637897      10.26876766      -0.82012755       0.53822518       1.53343113      -0.21940388      -0.56360102       0.31818449      -0.00999656      -0.20037569
H        1.12440886      11.99453118       6.61217280      -0.04348920       0.04824098      -0.18743967      -0.46347582      -0.12616083      -0.13736641       0.02660597      -0.04398563
H        3.07713091      11.58773581       8.67560861      -0.07716985       0.04929666       0.02309742      -0.62551725       0.50157356      -0.01841944       0.01442143      -0.02699564
O        8.83709626      11.31614836       4.13935438       0.67587051       0.79760910       0.64999214       0.22723530      -0.24258417       0.14206451      -0.02908349      -0.07977656
C        8.74715431      12.43050041       3.32633319       0.33994355       0.44508835      -0.06192186      -0.18512774       1.49487090       0.70795453       0.01093308      -0.24776573
C        7.57314516      12.25308333       2.39420676       0.37641079       0.15264698      -0.66838330      -0.81209981      -0.11185406      -0.22054100       0.02411634      -0.12346838
F        6.44667604      12.00220655       3.09726314       0.25784799      -0.05884663      -0.18701667       1.32223129       0.10644130      -0.48506254      -0.01144651      -0.15674351
F        7.83371745      11.21618793       1.55138591       0.81663238       0.13691654       0.53726366      -0.53802598       0.65147078       0.80878329      -0.01217100      -0.22271490
F        7.29839527      13.37430709       1.68065334       0.21941434      -0.25740792       0.27321251       0.14525089      -0.23757650       0.60730487      -0.00639415      -0.16085453
C       10.06411102      12.74789067       2.58787510       0.09657885       0.33787009      -0.32715756      -0.70412952       0.40083534       0.77592814       0.02087272      -0.17214042
F       10.53842158      11.67893419       1.98131043      -0.31896673      -0.39182004      -0.04616296       0.41533217      -0.51344955      -0.52944058      -0.00840339      -0.25018200
F       10.96491325      13.17458507       3.49450543       0.21903828       0.34175891      -1.23870632      -0.13133676      -0.08236343      -0.51529098      -0.01195413      -0.26723295
F        9.87740898      13.70309233       1.66149041      -0.61972357      -0.29755588      -1.32855227       0.27189368       0.04917651       0.21815926      -0.01013040      -0.26114762
H        8.87530236      10.51372536       3.59659607       0.13319229       0.05840193       0.10970724       0.02889534       0.13541649       0.06163155       0.02514242      -0.03853095
H        8.53560424      13.34757343       3.96230275       0.06833912      -0.08470564      -0.11929360       0.17545322      -1.13534641      -0.54947644       0.01436677      -0.04249725
O        6.79642375       3.60310719       8.90741151      -0.38240427      -1.32271188      -0.29771619      -0.37832278      -0.15309078       0.37128890      -0.02724350      -0.13612269
C        6.25365911       3.90157736      10.15363090      -0.68890136      -0.09835116       0.89113976      -0.08470555      -1.74847019       1.18523479       0.01132455      -0.25786844
C        5.76064935       5.30552404      10.26477820      -0.53446935      -0.98181428      -0.17270500      -1.12238598       0.25685224      -0.80430013       0.02277300      -0.10158858
F        4.76012823       5.53247983       9.38616763      -1.33895991      -0.84507743       0.70911623      -0.62536961      -0.24750206      -0.10224319      -0.01194602      -0.25658384
F        6.73658778       6.08204738       9.89559491      -0.70019548      -1.42737797       0.78485739       1.30623853       1.28675747       0.17987815      -0.00915924      -0.14603280
F        5.29287123       5.70178520      11.45011748      -1.07513781      -0.89151388       0.37346817       0.19932753      -0.30127260       0.18642043      -0.00912144      -0.26856339
C        7.28192688       3.63800942      11.26933035       0.03952587      -0.68165265       0.32700927       2.15809488       0.15193884       0.07619190       0.02328502      -0.12703437
F        8.41367367       4.40711680      11.11749418      -0.91638051      -0.47438555       0.93406885      -1.11459255       0.09738092       0.16549699      -0.01471376      -0.20692325
F        7.75667922       2.39339463      11.16589350       1.01246896      -1.02325303       0.08610476      -0.57151580       0.27460545       0.18488020      -0.01179602      -0.19378170
F        6.85719936       3.86801379      12.53846035      -0.46542784      -1.59561889      -1.47572913      -0.10247405      -0.40146399      -0.95406497      -0.01039875      -0.27932888
H        7.13729815       4.40244088       8.51759681       0.08211237      -0.12499108      -0.14275202       0.49792957       0.60338545      -0.40788519       0.02302480      -0.05030037
H        5.46174626       3.16576270      10.32394649       0.00491044      -0.04154348      -0.08741681      -0.07965068       0.35374767       0.15633593       0.01203150      -0.04353879
O       10.54526060       3.19196613      10.18526384      -0.30213615      -0.22371056       0.21817124      -0.71076465       0.22615004      -1.28612065      -0.02817914      -0.01495387
C       11.25411884       3.10527808      11.35143964       1.77398178      -0.31939850      -0.12545279      -0.26774383      -1.00337672       0.04056227       0.00879713      -0.26451665
C       11.97244233       4.40026071      11.67811375      -0.24211364      -0.63243154      -0.49574540      -0.22814137       0.73180449       2.16286898       0.01947367      -0.17062876
F       11.07782255       5.42521526      11.69699898       2.11140927      -1.06973835       0.38643110       0.24746192      -0.84666926       0.10341325      -0.01561521      -0.24873914
F       12.95106900       4.76599124      10.89732526       0.15881916      -1.11153919      -0.05554978       0.72615618      -0.31455457      -0.77088618      -0.01028343      -0.16634189
F       12.49452138       4.31766631      12.94685570       0.72189499      -1.05563449       0.50653632      -0.12055955      -0.06152537      -1.06414998      -0.01495424      -0.22447509
C       12.08783781       1.81316575      11.28380326       1.26115449      -0.51003875       0.06407145       1.06867647       1.80642176       1.59318507       0.02169742      -0.09156420
F       13.10447950       2.05564128      10.40607717       1.19218287       0.20000511      -0.46671583      -0.64271837      -1.19822860       0.02298793      -0.01200448      -0.25694627
F       11.34625991       0.79136497      10.95708232       2.40888174      -0.36866681       0.08979394       0.25528562      -0.28881112      -1.13250434      -0.00820754      -0.19956544
F       12.64392527       1.50397343      12.47185468       0.85652482      -0.69138660       0.65851007       0.20724146       0.12498628      -0.27525938      -0.01231245      -0.26632556
H       11.01907473       2.87084439       9.40716313      -0.19066170       0.04082420       0.19147223       0.17244172       0.07430628       0.24730895       0.02297685      -0.05312468
H       10.51457448       2.98195447      12.13693230       0.23949563      -0.24788240       0.24006750      -0.04706895      -0.02374100       0.37248027       0.01182745      -0.03190560
O        6.21411790       6.74813280       7.52257924      -0.43683116       0.02407160       0.16667055      -0.64853597       0.06795433       0.53645843      -0.02520022      -0.08928909
C        6.80817783       7.39599915       6.46323629      -0.12547798       0.16018728      -0.44433480       1.34465313       0.14777955       0.68041384       0.01255664      -0.19872279
C        6.00279995       8.55390182       5.96905206      -0.41289735      -0.62966549       0.21930875       0.02137192       0.94563699      -1.00456774       0.02181191      -0.13380042
F        5.75627208       9.52433445       6.89132735       0.69521084      -0.65749875       0.93698708       0.51481277      -0.99310738      -0.71702576      -0.01216700      -0.26820424
F        4.82364611       8.11704574       5.51556478      -0.24175189       1.21640494      -0.34015905      -0.18932362       0.22879869       0.15370581      -0.00877060      -0.25023451
F        6.69422125       9.10387648       4.92656889      -0.14553281      -0.53250258      -0.54983300      -0.67976856       0.08853700       0.73498666      -0.01277861      -0.25833893
C        7.10303482       6.26279941       5.43997278      -1.43051346      -0.19569796       0.14863069       1.39778757       0.48301309       0.69547343       0.02344015      -0.08607838
F        6.02405862       5.50154810       5.29581820      -1.59881484      -0.10140427       1.10857095       0.03809074      -0.17757669      -0.41367126      -0.00410217      -0.26911989
F        8.07484278       5.54552076       6.07487984      -1.28154089      -1.23975715      -0.43101346      -0.79511595      -0.32726163      -0.52626109      -0.01265615      -0.21493654
F        7.60420867       6.58677183       4.24653448       0.24215618      -0.59596321      -0.49672293      -0.52650118       0.13403340       0.26430142      -0.00959360      -0.26102036
H        5.34053031       6.42925801       7.25735837      -0.06266781      -0.07688071       0.15797353      -0.01257439      -0.02272503       0.07243754       0.02744531      -0.03127407
H        7.76488034       7.81737300       6.87432576       0.04561174      -0.08111642      -0.23097938      -0.62121791      -0.46676084      -0.74361545       0.01317548      -0.03634988
192
Lattice="14.066892161465892 0.0 0.0 0.0 14.066892161465892 0.0 0.0 0.0 14.066892161465892" Properties=species:S:1:pos:R:3:momenta:R:3:forces:R:3:charge:R:1:energies:R:1 Built=T with=T Packmol=T charge=0 spin=1 external_field="_JSON [0.0, 0.0, 0.0]" energy=-17.56961441040039 stress="-0.0017058072844520211 -0.0019970685243606567 -0.0019173137843608856 -0.0019970685243606567 -0.001955336658284068 -0.0006751461769454181 -0.0019173137843608856 -0.0006751461769454181 -0.0026589524932205677" dipole="-0.9951494932174683 -1.1017266511917114 -0.8103651404380798" free_energy=-17.56961441040039 pbc="T T T"
O       13.15515593       5.75828980       6.86326976      -0.18754177       0.08810127      -0.38429560      -0.01637969      -0.14117828      -0.51960766      -0.02700889      -0.07169498
C       12.33091461       4.63476248       6.67668652       0.20163510       0.22111443       0.54123983       0.74785376       0.89004457       0.48552576       0.01475786      -0.26129782
C       10.90621142       4.94152885       7.08753941       0.16328353      -0.10464856      -0.36818797      -0.88237464      -0.11851677       0.18254325       0.02233141      -0.13346407
F       10.51005859       5.98334519       6.32937915      -0.62125581       0.22482848      -0.71848610       0.20540214      -0.02662415       0.89098781      -0.01292897      -0.23050308
F       10.67828263       5.19030391       8.41362678       0.35723772       0.00631483      -0.76797864       0.57559943       0.29045209      -1.53522587      -0.01062632      -0.24236444
F       10.12510029       3.90710398       6.77125223       0.17618704      -0.60585987      -1.21266634      -0.23303491      -0.33608675      -0.01596612      -0.00967876      -0.25270224
C       13.00108013       3.42044319       7.28960569      -0.20385847      -0.05706045      -0.99542428       1.12425733      -0.68110120       1.52633643       0.02394605      -0.11041610
F       13.45820731       3.71753964       8.51797115       1.28299332      -1.16112263       0.46858654      -0.72125190       0.42624509       0.46219397      -0.01091575      -0.20571482
F       14.11955895       3.08316618       6.66025064      -0.60491901       0.67155358      -0.78782825      -0.23836234      -0.23367161      -1.23772025      -0.00896725      -0.23010990
F       12.23504408       2.30484929       7.42853127       0.51560131      -0.43750859       0.17215877      -0.04379634       0.59377074      -0.39596200      -0.00798658      -0.29306835
H       13.25668588       6.00337688       7.78757678       0.03914646       0.24390482      -0.04877307      -0.15296587      -0.27089071       0.34033728       0.02318963      -0.06569555
H       12.28834834       4.48049260       5.61343701       0.06054843      -0.02302131       0.01853837      -0.09438954      -0.16084631      -0.57346439       0.01486655      -0.03230736
O        1.95368732       9.05197638       2.12692857       0.33549898       0.22960436       0.32987094       0.37690759       0.24635893       1.05021679      -0.02888054      -0.13747013
C        3.00039489       9.94057252       2.47058428       0.19561759      -0.72292428       0.03851806      -0.17926355      -0.87070829      -0.38489622       0.01250144      -0.27729321
C        2.70002459      11.29446621       1.85307269       0.13165772       0.31882889      -0.66671064      -0.80525053       1.27564359       0.99025166       0.02154034      -0.11990030
F        1.46314679      11.64395632       2.26189492       0.13811884      -0.11367921      -0.46649329      -0.60137779      -0.58724236      -0.70377564      -0.01354451      -0.21593226
F        2.76983565      11.35665713       0.52583873       0.31266283       0.37519885       0.44939948       0.10223229       0.17994758       0.27184498      -0.00846693      -0.22560987
F        3.41623510      12.28538039       2.36804784       0.17642131       0.41451249       1.41544875       1.50063109       0.13134630      -0.48009706      -0.00853784      -0.17869708
C        4.37615259       9.33640950       2.10827810      -0.28836597       0.18809000       0.11414132       0.04500514      -0.90599477       0.65229726       0.02187620      -0.13758714
F        4.39595991       8.72891030       0.92892425      -0.97265768      -0.03062971       0.19520837      -0.22109029       0.26152587      -0.46216881      -0.00941494      -0.23852195
F        4.68142841       8.32806312       2.99250502       0.65081991       1.02153388      -0.36606012      -0.12629989       1.27725446      -0.44908541      -0.01323323      -0.23364970
F        5.32696675      10.27358828       2.11069460      -0.50709268       1.28747282      -0.24819100      -0.44108546      -0.81357062       0.09593374      -0.00991189      -0.21834004
H        1.95860763       8.87662594       1.18677069      -0.10634261      -0.12011312      -0.04371250       0.31140131       0.01630954      -0.46501663       0.02109819      -0.05182844
H        2.98138964      10.09141747       3.55363579      -0.09926627       0.00293723      -0.12027839      -0.01682010      -0.10585107      -0.19822326       0.01180276      -0.05443300
O        7.38073758      12.54305480      13.47023703      -0.10006136       0.63808759      -0.68037598       0.35598579      -0.21602367      -0.45940349      -0.03103347      -0.09894645
C        7.84988072      12.65867787      12.17099364      -0.38616177       0.36929252      -0.25423270      -0.35682160      -0.25333852      -0.19016469       0.00968531      -0.26580140
C        9.28960499      13.19560916      12.10338640      -0.03553004       0.52036405       0.16215801       0.06558218       0.58998281       1.33857226       0.02178109      -0.12953231
F       10.04266551      12.69158939      13.12657569      -0.71981251       0.74687866      -0.35581037      -0.56712997       0.11123256      -1.16193724      -0.01382100      -0.25627464
F        9.29583399      14.55607316      12.31250805       0.20165697       0.52107234      -1.10016510      -0.02559514      -1.08057213      -0.41855884      -0.01254167      -0.24936454
F        9.86601319      12.88610864      10.94327417      -0.80445800       0.27272096       0.00661558      -0.13464814       0.16538264       0.47365564      -0.01053229      -0.21231368
C        6.80045140      13.49712749      11.41153239      -0.05540040       0.13457601       0.61302346      -0.09114557       0.04627287       1.28618538       0.02170116      -0.13598523
F        6.51455827      14.61294622      12.11208681      -1.42660919       0.65280873       0.11564342      -0.34662724      -0.40604639       0.41393900      -0.01063631      -0.21769223
F        5.65905594      12.76028378      11.37105294      -1.20683342       0.44315899      -0.49902898       0.36280292       0.35241634      -0.46044207      -0.01420159      -0.29639649
F        7.15953571      13.89814708      10.22839796       0.20554930       1.64334442       0.83793469       0.12173019      -0.22006948      -1.05600667      -0.00905982      -0.21563549
H        7.38963166      13.40628989      13.89271680      -0.17428736       0.13183424      -0.11708533      -0.04948991       0.14008662      -0.00751533       0.02507705      -0.01072565
H        7.83650437      11.65128194      11.73384598       0.14372748       0.18526140       0.00248759       0.16419771       0.35251898       0.03640472       0.01026178      -0.04581130
O       13.24621452       8.62340122       1.56960191       1.64230783       0.37558230      -1.45881664      -1.56907463       0.25694004       0.85555518      -0.03201488      -0.11753363
C       12.26965183       8.87343065       2.58924072      -0.18316232      -0.94709258      -0.81286982      -0.10323423      -0.82977933      -1.52765763       0.01240964      -0.17700548
C       12.61482603      10.05565720       3.45577729       0.80867274      -0.67674061      -0.18655321       0.68358594       0.14485851       1.36355424       0.02164593      -0.14260066
F       13.09167116      11.05424651       2.72907070       0.98064508       0.06508703      -2.05098469      -0.18150422      -0.06332304       0.04025725      -0.00955740      -0.23616755
F       13.53298476       9.82030633       4.45727753       0.83259946       0.49215367      -1.95774548      -0.51142025       0.03543781      -0.95208430      -0.01576322      -0.27456680
F       11.49368698      10.44309804       4.07307937       1.44471790       2.04146295      -0.23847898       0.00385836       0.03607464       0.17742755      -0.01026718      -0.21386817
C       11.87337536       7.57707288       3.32059192      -0.24857829       0.96853031      -0.53660151       1.25223565       0.68024302       0.67929024       0.02364548      -0.11364712
F       12.74600819       7.34440201       4.29948986      -0.01198531       0.43658163      -0.11242462       0.31701255      -0.74122238       0.21055438      -0.01114903      -0.24903665
F       11.95049892       6.56396896       2.43531775       0.33996347       1.72800274      -1.25980213      -0.61476469       0.01323790       0.47640705      -0.00729963      -0.26356003
F       10.67141314       7.62932193       3.91444021       0.48469324      -0.20920351       0.13941369       0.00434427      -0.10234976      -0.82271087      -0.01184906      -0.26859117
H       14.10669699       8.53995097       1.98844315      -0.22393524       0.31536157      -0.09734630       0.44553632       0.08724641       0.33954662       0.02031284      -0.07151870
H       11.30024388       9.14589182       2.16189370       0.15098540       0.28762426       0.06971298       0.36701781       0.32329863      -0.78832346       0.01333343      -0.01463566
O       10.73171534       4.52791881       0.68146134       0.89544095      -0.90190778      -0.90201792      -0.76054507      -0.57598937       0.01865226      -0.02735268      -0.03439337
C       10.46083092       3.33180249       1.38722946      -0.32216942      -0.98182012       1.08734474       0.28775489       0.90585548      -1.05857480       0.01363754      -0.24173182
C        9.32506947       3.56309936       2.37965151       0.54557486      -0.69289543       0.49007032      -0.23915234      -1.21932399       0.15268087       0.02386555      -0.13274938
F        8.32543959       4.08359570       1.67009895       0.49399005      -1.03477928      -0.52076491      -0.38841671      -0.20594050       0.39786649      -0.00794720      -0.24407926
F        9.66024482       4.42970453       3.32893013      -0.06812232      -2.23937894       0.01672909       0.04825458       0.04102495       0.34175858      -0.00903173      -0.27720666
F        8.88846604       2.39218189       2.98971975       0.45590667      -1.44505473      -0.66052358       0.47352988       1.55430210      -0.81185532      -0.01145805      -0.26007611
C       11.75404602       2.77815432       1.90062152       0.52110100      -0.22298621       0.58454895       1.01763809      -1.38957214       0.50784153       0.02186486      -0.14170997
F       12.52488787       3.59398792       2.60030543      -0.94649632      -0.82512360       0.91376150       0.00328624       1.31480277       0.35005733      -0.00958344      -0.27374706
F       12.53495585       2.28204898       0.93676100       0.04581408      -0.72997181       0.73393653      -0.22827756       0.36551127      -0.74831676      -0.01114929      -0.24030745
F       11.50805555       1.74813638       2.69221059       0.03972954       0.23227565       0.56391310      -0.58265293      -0.99460226       1.00497627      -0.01063704      -0.22241062
H       10.99633988       5.24420332       1.27072928      -0.31258889      -0.00832277      -0.04875303       0.04203864      -0.13197985       0.21073528       0.02202520      -0.08416150
H       10.10657991       2.57157642       0.67346467      -0.12814645       0.25179198      -0.12788564      -0.03978620       0.34194687       0.07418953       0.01443066      -0.03779570
O        8.74617825       7.02137273      11.74433841       0.53382182       0.27260535       1.31309682      -0.91372412       0.45164067       0.33279544      -0.02968013      -0.04544009
C        8.49578969       8.35634354      12.13870408       0.18897316       0.51413386       0.32620967      -0.11250788      -0.25162041      -0.53077281       0.01116581      -0.27823353
C        9.16828838       8.59420717      13.47242852       0.91632091      -1.00087120       0.74581959       1.11798692      -0.78831410       0.22479755       0.02073852      -0.15878919
F       10.44998885       8.10975674      13.36978359      -0.50966587      -2.10036145       1.27055000      -0.96611983      -0.23817943       0.51168078      -0.01547265      -0.23623028
F        8.55002484       7.96485016      14.48815520      -0.02971661      -0.05795686       0.54217360       0.35494927       0.00729482      -0.19462660      -0.01057707      -0.29587901
F        9.29299956       9.86223281      13.78801488       0.89814226      -0.58020790      -0.27274370      -0.34714276       0.88103044       0.20598800      -0.01073216      -0.22834665
C        6.99281458       8.72447090      12.14363603       0.05135276      -0.39284200       0.31840494      -0.55994725      -0.87163812      -0.15150923       0.02286454      -0.12848829
F        6.35200906       7.83347713      12.92324954       0.58286412      -0.79557695      -0.47859398       0.21083982       0.33272678       0.15967269      -0.01069022      -0.22578098
F        6.46158520       8.56990618      10.90992983       0.54134995      -0.58442894       0.83572040       0.47225100       0.51744807       0.39014977      -0.01392818      -0.26319292
F        6.70313241       9.97349874      12.57685520       0.22317236      -0.03930602       0.71875648       0.41828528      -0.94601893      -0.23610315      -0.00976671      -0.24731447
H        8.19909328       6.37100083      12.24148183       0.03017468       0.08904190      -0.27634912       0.41812640       0.76169014      -0.29776400       0.02486943      -0.05360992
H        9.00294922       9.01309562      11.41759523      -0.01235637       0.08063299       0.05433428      -0.18123507      -0.21811832       0.15967977       0.01125977      -0.05055951
O        3.73564367       1.23989038      11.90373526      -0.06275839      -0.05900794      -0.36757085       0.55215931       0.69020236       0.27581781      -0.02127649       0.00040455
C        2.54748245       1.65346271      11.31356593      -0.32504966      -0.64109003       0.36945894      -0.38100469      -1.06835353      -0.48648757       0.01419568      -0.23206726
C        2.81954303       1.54145203       9.77569938       0.06595324      -0.10407078      -0.75897123      -0.56536627       1.18426371      -0.12667963       0.02303039      -0.10958873
F        3.37045186       0.34422621       9.49956974      -0.12068249      -0.00306189      -0.56162924      -0.28633815       1.37484896       0.07164006      -0.01027558      -0.19400400
F        3.64772475       2.53938349       9.32651767      -0.21110999      -0.87515342      -0.11910664      -0.24865222      -1.38184500       0.31612331      -0.01106551      -0.22210915
F        1.66213283       1.74622361       9.08420351      -0.08889712       0.59169697      -1.71440928       0.73818445      -0.68031853       0.30357522      -0.01427233      -0.25109208
C        2.16796944       3.08951567      11.79311195       0.08843345      -0.29859075       0.27941857       1.06897902       0.10566277       0.69774091       0.02307603      -0.12709296
F        2.81605333       4.05283757      11.13659088      -0.81832426      -0.11453574       0.62255122       0.17442602       0.16845740      -0.57807457      -0.01078392      -0.23011652
F        2.60868748       3.21781938      13.06898710      -0.00602475       0.25210837       0.06701817      -0.91325366      -0.41928267      -0.27127552      -0.01084570      -0.23337761
F        0.87234823       3.38019658      11.69956444      -0.53271828       0.19919065       0.36721043       0.43601346      -0.66008878       0.27330497      -0.01045576      -0.21175310
H        3.67852456       0.39528744      12.35550960       0.24594252      -0.34030311      -0.15152087      -0.27040792      -0.05881996      -0.03109036       0.02554852      -0.03641423
H        1.71241914       0.95953417      11.57910417       0.02811788      -0.19026718      -0.10349277       0.35579297       0.67448848      -0.41299030       0.01351786      -0.05175742
O        2.34485706       7.01313144      10.87354977       0.04339858       0.15138721       0.47200688      -0.99535382      -0.28218684       0.75398284      -0.03001411      -0.04269305
C        1.93148646       7.44518445      12.16863355       0.16939114      -1.01626120       0.78125104       0.38853383      -0.64192200      -1.34803319       0.01111533      -0.27918816
C        2.67255525       8.71822983      12.42150427       0.28930986      -0.22035732       0.39597299       0.89326531       0.98138279      -0.19838631       0.02081828      -0.13002641
F        2.50515327       9.56882045      11.44792029      -0.37307030       0.44857034      -0.45006863      -0.32668126       0.69164449      -1.38990617      -0.01339849      -0.15668994
F        4.01282441       8.55782844      12.49931668       0.12216713      -0.48594722       1.04001549      -0.59334314      -0.45956650       0.42849526      -0.01238533      -0.23445912
F        2.22423410       9.37775147      13.48709516      -1.17836785      -0.71043317       0.24370976      -0.18268302      -0.33335948       0.88589650      -0.00541408      -0.16357914
C        2.12109066       6.44853834      13.30712768       0.21584818       0.32854645       0.38747594       0.30741566      -1.20427430       0.03701876       0.02400398      -0.14018236
F        3.35310080       5.87496100      13.30443387      -0.43757165       0.48641157       0.94412880      -1.11094403       0.24401481      -0.28923926      -0.00958559      -0.24936873
F        1.15307197       5.49889750      13.29430161      -1.73451788       0.02618629       0.96233773       0.88810384       0.58566821      -0.25944999      -0.01076435      -0.23984063
F        2.01443253       7.05606380      14.48943394      -0.26181211      -0.01880634       0.53125215      -0.22499526       0.14192009       0.41396564      -0.00546696      -0.21663687
H        3.27406384       6.76539219      10.82423647       0.02970883      -0.08733778       0.01230227       0.18990985      -0.06680875       0.47643566       0.02136622      -0.07726435
H        0.85812377       7.68247676      12.09415185      -0.34089820      -0.05111839       0.05636361       0.62713712      -0.16670713       0.09652244       0.01053678      -0.03013111
O        4.09699039      14.38848062       6.88811346      -0.51454256       1.19087911       0.11855767       0.32022122      -0.81288040      -0.29745048      -0.02595372      -0.11369541
C        4.58974690      13.12023167       6.50733331       0.06593916       1.26959916      -0.09997153      -0.66203284       0.62000418      -1.52596593       0.00909121      -0.23679234
C        6.09579792      13.08845537       6.73026983       0.27273446       1.92719499       0.31021407      -0.86457831       0.26536351       1.14983618       0.02201228      -0.14042951
F        6.24706076      12.85964740       8.07708392      -0.46701688       0.99642850       1.17130123       0.11802462       0.45394659      -0.96756333      -0.01488058      -0.22413857
F        6.64209956      14.25550585       6.40391390       1.18224996       1.71415996       1.17226654       0.45074695      -0.33116090       0.16180578      -0.00821926      -0.27707630
F        6.69634355      12.10010221       6.09153842      -0.96958452       1.23843308       0.57208662       0.11753527      -0.02260268      -0.29606804      -0.00992134      -0.25193346
C        4.18251582      12.86659917       5.03005841      -0.64822077       1.26749569      -0.20083685      -0.22069147       0.04060182      -0.91633409       0.02314050      -0.09933361
F        4.85077362      13.68911150       4.19091990       0.07452713       1.44949153       0.66343828      -0.14527357      -0.68027771       0.55934745      -0.00875439      -0.24551384
F        2.85774439      13.12999643       4.78281852       0.56546263       1.80112561      -0.05057655       0.91412789       0.05484358       0.63870722      -0.01066699      -0.20882128
F        4.35677682      11.56377871       4.66794545      -1.69773768       2.61548171      -0.52916875       0.25738707       0.96214747       0.54083371      -0.01291722      -0.23171633
H        3.26135697      14.47712057       6.41435323       0.19826607       0.20150253      -0.26413906      -0.23869693       0.23947406       0.25619602       0.02437997      -0.03098734
H        4.16743242      12.29562837       7.04449910      -0.24418957      -0.11520084      -0.01257035      -0.12807857      -0.35520980       0.49236417       0.00909727      -0.03078152
O       11.64926611      12.85720857       8.77217964       0.15181567       0.27185804      -0.78902101      -0.57286644       0.46835041      -0.40512535      -0.02730253       0.02717816
C       10.84757138      11.82627086       8.30626506      -0.35723254      -0.22134078      -0.84889122      -1.68763208       1.02872038       0.26318794       0.00883292      -0.23990482
C       11.43051974      11.12352179       7.10449490       0.41655288       0.02242851      -0.29738713       0.30950215      -0.39337072       0.30847955       0.01988479      -0.15583408
F       12.47218476      10.35909456       7.45806785      -0.08895947       0.22708204      -0.72089945      -0.30508658       0.19503123      -0.75500560      -0.01294931      -0.14494038
F       11.91035714      12.00960334       6.21915209      -0.05447370       2.65365537       0.15702097      -0.27201301      -0.12300251      -0.14045195      -0.01030163      -0.27672291
F       10.46559049      10.35563911       6.55833920      -0.50519027       1.31965770      -1.35123519       0.78554881      -0.09083912      -0.07305026      -0.01299577      -0.23729047
C        9.41903437      12.36931481       7.85745099       0.00632454       0.73069929      -0.10058371       0.69015682       0.32443532       0.55949765       0.02131982      -0.09306909
F        9.39489736      12.63784659       6.54677482      -0.84811658       0.40409148       0.42169307      -0.19440933       0.12551601      -0.04039975      -0.00935871      -0.22487290
F        9.10582623      13.49207016       8.48990602      -0.01474467      -0.44610869      -0.20073194       0.51011413       0.87286222       0.07709885      -0.01107501      -0.22330518
F        8.43778500      11.54438473       8.17374429      -0.03260242       0.58136940       1.26264466      -0.10918787      -1.34600484      -0.20248105      -0.01271835      -0.23216522
H       11.65445354      13.57450255       8.11528619      -0.10335495      -0.24460336      -0.03867493       0.10171251      -0.18653259       0.24451041       0.02582163      -0.03565214
H       10.65755065      11.15309245       9.15690990       0.27613692      -0.06007990      -0.15758444       0.24118271      -0.02160857      -0.56405312       0.01002593      -0.06012097
O       14.07629058       8.68678588      10.42157388      -0.37307602      -0.38472151       0.14047517      -0.07733501      -0.14692234       0.09295745      -0.02856950      -0.06541470
C       12.82819043       8.67946772      11.03850308       0.07757095      -0.76435520       1.01423576      -0.90877962      -0.03884429      -0.39072371       0.01119113      -0.17140715
C       11.89134883       8.03726541       9.94780357      -0.77064046       0.36362622       0.40451645       0.43195426       0.05218004       0.91614556       0.02301879      -0.05481201
F       12.25363356       6.74505726       9.90017706      -0.33759812      -0.54672977      -0.19851144      -0.45877653       0.61501348      -0.37993556      -0.00950774      -0.20979916
F       12.17742170       8.56403502       8.75804086       0.44571289       0.66321790       0.00180173       0.01005556      -0.24161673      -0.24505401      -0.00810868      -0.17865956
F       10.57296800       8.14614994      10.08121283      -0.30563606       0.68737860      -0.72897914       0.16650876      -0.07540679       0.43969810      -0.01005261      -0.24064651
C       12.55868783      10.10438828      11.61769721      -0.41152886      -0.21836129       0.60226625       0.45934051      -0.40050149       0.14378653       0.02161010      -0.12784174
F       12.45861559      11.08019270      10.69348076       0.34304760      -0.89947638       0.05077035      -0.55117404      -0.68935430       0.47259539      -0.01035446      -0.24043658
F       13.65700338      10.37024016      12.34662403      -0.04864720      -1.01274117       0.35609560      -0.43711764       0.13149644       0.22476478      -0.01219570      -0.23230936
F       11.49363677      10.14049818      12.44459940      -0.10856040      -0.96322915      -0.12973115       0.57066226       0.34064567      -0.93222260      -0.01074383      -0.24366821
H       13.93904563       8.84541357       9.47408191       0.08885805       0.09588462       0.26944532       0.34163427       0.08594880       0.20445889       0.02358191      -0.01982623
H       12.82628343       8.00103587      11.92024790      -0.09072317      -0.05920322       0.13689755      -0.04060227       0.34111005      -0.50083929       0.01354182      -0.04345237
O        1.97049727      12.19547894       6.99151808      -0.06103913       0.96363084      -1.43729653      -0.16871360       0.01895620       0.44636843      -0.02047714      -0.08081988
C        2.06268484      11.48376254       8.20132399      -0.12856688      -0.10915019      -1.32437384      -0.50002635      -0.69368970      -0.89225876       0.01458141      -0.24381587
C        2.09643612       9.98036969       7.86137154       0.35920175      -0.08969619      -0.61382715      -0.97898877      -0.36342055       0.70927674       0.02347944      -0.12375391
F        3.06334735       9.74579277       6.97337412      -0.35567806      -0.46462588      -0.87140791      -0.51294959      -0.03553756       0.14498614      -0.00896083      -0.26887673
F        0.89391476       9.52270228       7.36073702       0.00055386      -0.16257867       0.15725242       1.06667471       0.56783694       0.04385841      -0.01204863      -0.28468117
F        2.31559315       9.25100252       8.96234724       0.77462808       0.60407328      -0.23542929       0.28032553       0.10760581      -0.50709420      -0.01094519      -0.22226132
C        0.99597117      11.97279322       9.17499796      -0.14994076       0.17157908       0.15440279      -0.13377422       0.34749204       0.99960810       0.02128917      -0.13755341
F       -0.20002076      12.09512199       8.61224277      -0.12463758       0.77273931       1.40208675       0.60279334      -0.61099237      -0.16837381      -0.00972674      -0.17962843
F        1.32733450      13.19793854       9.58316600       0.19770420      -0.31243397       0.57957357       0.00141185       0.42399603      -0.10784179      -0.01172339      -0.19556841
F        0.90373826      11.26460023      10.31407728      -0.81962478       0.34152679       1.35929499       0.19236812      -0.24188462      -0.90235436      -0.01224363      -0.20402032
H        1.12058160      12.02148680       6.55042616       0.09275401       0.04234241      -0.04382628       0.20557839      -0.01704361       0.25115094       0.02661649      -0.04852900
H        3.00824688      11.67826447       8.69047070      -0.11749503       0.27459730       0.01756398       0.37875137       0.28026101      -0.04956838       0.01471405      -0.03350580
O        8.86495460      11.34828934       4.16350675       0.76447120       0.85685068       0.73376654       0.17609887       0.12614194      -0.07273927      -0.03001060      -0.07699698
C        8.76575819      12.46099377       3.32613948       0.31354417       0.39007223      -0.20801178      -0.09318775      -1.14116800      -0.77184671       0.01045188      -0.26086670
C        7.58633772      12.26535258       2.37179633       0.07680863       0.05622091      -0.36826371      -0.28984314      -0.20141302       1.36663294       0.02342327      -0.11843720
F        6.46589486      12.00912159       3.09130716       0.89361034      -0.00032846      -0.41750458       1.14566624       0.09932072      -0.38006568      -0.01276827      -0.16034842
F        7.85647904      11.23014921       1.56988492       0.56021054       0.34772698       0.75310969      -0.48182198       0.16859344       0.05626537      -0.01103615      -0.23715666
F        7.30931574      13.37589249       1.69110134       0.24885089      -0.23129006       0.38818911      -0.03131113       0.35113049      -0.13951486      -0.00582978      -0.16817471
C       10.06770108      12.77151415       2.58207702      -0.21370209       0.35836088      -0.09609055      -0.45014620      -0.29728550       0.08337408       0.02104421      -0.17443013
F       10.53914634      11.67396514       1.97835416      -0.17010386      -0.52308186      -0.25955364       0.13292956       0.02684360      -0.29310888      -0.00996338      -0.25523025
F       10.97729680      13.19187609       3.46189216       0.21564469       0.36448837      -1.43639448       0.09984121       0.16566043      -0.30592147      -0.01075858      -0.26139298
F        9.86971454      13.70437658       1.62997717      -0.45484735      -0.28669510      -1.17277406       0.37025315      -0.03083773       0.41335297      -0.01006118      -0.25880924
H        8.95029436      10.54088638       3.64006548       0.15098347       0.01668473       0.04691093       0.02000605       0.05866361      -0.06279441       0.02438807      -0.04379866
H        8.56558346      13.29876382       3.92373468      -0.02641582       0.09378010       0.11253072      -0.39814779       1.24508572       1.00099146       0.01433253      -0.03733976
O        6.78719316       3.56849732       8.90662354      -0.48488038      -0.98314465      -0.11861409      -0.32903782       0.76066953       0.60700536      -0.02941691      -0.06340978
C        6.23464127       3.88109565      10.20051132      -0.32492839      -1.01059960       0.90484568       1.16907573      -1.66549754      -0.93690115       0.01194358      -0.25973189
C        5.73162898       5.27482549      10.26022550      -1.01024539      -0.62843342      -0.27331355      -0.49617440       0.90503526       0.35685837       0.02291205      -0.12550569
F        4.72505430       5.51246961       9.40933014      -1.58967384      -0.97707372       0.59740150      -0.41882774      -0.27707970      -0.33844030      -0.00996813      -0.26324674
F        6.73036658       6.05692817       9.92294029      -0.16458233      -0.84088203       0.82790994       0.70480263       0.98291314       0.03651505      -0.01013789      -0.16746235
F        5.27003640       5.68010779      11.46734258      -0.94557685      -1.07473409       0.35766585       0.26647487      -0.41472307      -0.22343023      -0.01063475      -0.26842454
C        7.30682749       3.61330106      11.28655090       0.83557722      -0.66134496       0.06466045       0.79807091      -0.11373920      -1.07146955       0.02296727      -0.16062622
F        8.38979037       4.39894103      11.14933010      -1.26801797      -0.34195027       0.95749106      -0.18803477       0.50121415      -0.07160528      -0.01237589      -0.21842825
F        7.78412172       2.37057777      11.17615096       0.73715799      -0.85618098       0.14463747      -0.43072528       0.30403280       0.05794666      -0.01230301      -0.20096223
F        6.84813117       3.82701527      12.50592205      -0.60200224      -1.75202159      -1.51582351      -0.43776906      -0.26399982       0.74070597      -0.00890046      -0.27577537
H        7.19698576       4.34301021       8.46468323       0.06929993      -0.23258803       0.00477589      -0.25378662      -0.36970437       0.64703089       0.02266386      -0.06919662
H        5.43652368       3.16623519      10.32218901      -0.14250167      -0.00979205       0.07364165      -0.24910197      -0.11678546       0.39302239       0.01232349      -0.05091260
O       10.53537232       3.19104110      10.19986940      -0.65876982      -0.03051409       0.35547002       0.58072078      -0.40274870      -0.44986650      -0.02814737      -0.04507849
C       11.32142306       3.08151489      11.35771137       1.00688516      -0.94304682       0.12571011      -2.10485244      -1.02686918       0.56439680       0.00927503      -0.21079226
C       11.97503857       4.38463592      11.68874383       0.16269042      -0.30829449       0.63291846       1.76380205       0.24484503       1.97406912       0.01943299      -0.17519133
F       11.13836127       5.39729854      11.71501504       1.91242161      -1.27733567       0.43030069      -1.03894210       0.09077427       0.12990795      -0.01289233      -0.23618405
F       12.96809847       4.73836667      10.89790799       0.50546305      -1.25900451      -0.42365788       0.59993863      -0.31362131      -0.61291456      -0.01187875      -0.16784237
F       12.52002953       4.29255542      12.96048983       0.62905501      -1.10192626      -0.10275645      -0.15670203      -0.10702312      -1.19747400      -0.01660948      -0.21303418
C       12.15768869       1.81208615      11.30665810       1.73710193       0.35523979       0.59594450       0.63568580       1.28145361       0.35474432       0.02207791      -0.11333457
F       13.14053679       2.05400080      10.40126597       0.98784996      -0.43737563      -0.39914269      -0.14822736      -1.31099677       0.26428932      -0.01159727      -0.24855179
F       11.41680750       0.78022092      10.95927503       2.48115682      -0.51482713      -0.44415808       0.22856604      -0.10481571      -0.93068326      -0.00986934      -0.20920846
F       12.67605348       1.48811126      12.49498012       1.03017350      -0.59789120       0.51967046       0.55105609       0.25782281      -0.19535144      -0.01070438      -0.26160860
H       11.02035319       2.85239814       9.41636072       0.11618776      -0.09657940      -0.11524994      -0.27379107       0.29860455       0.72483599       0.02292432      -0.05665191
H       10.66188884       2.88377835      12.23343454       0.33725995      -0.13157393       0.03617410      -0.07641775       0.32339668      -0.60869747       0.01169405      -0.02154781
O        6.20188109       6.75468129       7.53658614      -0.52353833       0.16390515       0.43403908       0.46386981       0.57556909       0.54838586      -0.02528303      -0.03334075
C        6.81259195       7.40233462       6.45464368      -0.11024458      -0.22359813      -0.23423134      -1.17639005      -1.41777527       0.13277851       0.01384780      -0.23550846
C        5.99199621       8.54677504       5.97060382      -0.24933130       0.05730103      -0.33031911       0.66030848       1.46619463      -1.01733112       0.02195933      -0.12972435
F        5.78102982       9.50696652       6.91500318       0.92517226      -1.14948365       0.54299019       0.41499782      -0.92588663      -0.83117068      -0.01227433      -0.27106178
F        4.81843815       8.15437943       5.51139198      -0.43009108       1.24298591      -0.25380531      -0.56504077      -0.06644338       0.16678740      -0.00779446      -0.24422757
F        6.69021730       9.09636036       4.92091971      -0.49387092      -0.49355696      -0.11995982      -0.67424440       0.14371023       0.86392939      -0.01372170      -0.25140119
C        7.06687816       6.26212532       5.45307504      -0.51890068      -0.08579176       0.24152466       1.88751233      -0.14870223      -0.25953591       0.02341429      -0.07976044
F        5.98665736       5.50152872       5.32457188      -1.58214242      -0.15367781       0.83174003       0.11790162       0.03518984      -0.66411185      -0.00372786      -0.26219451
F        8.04119157       5.51574846       6.06449990      -1.72745435      -1.31223557      -0.65810601      -0.91495228      -0.05427901      -0.37172142      -0.01326368      -0.21287027
F        7.61030195       6.57589993       4.24001334      -0.19974376      -0.58416895      -0.15543080      -1.16904497      -0.04264514       1.01002622      -0.01162277      -0.25201797
H        5.32598953       6.40606380       7.33238300      -0.00905906      -0.02106139       0.09451442       0.01770755       0.14391549      -0.34876975       0.02732343      -0.04313955
H        7.77360658       7.76088106       6.72858501       0.11659764      -0.08875012      -0.26575286       0.81138849       0.39000392       0.55359715       0.01373893      -0.04644603
192
Lattice="14.089795568152573 0.0 0.0 0.0 14.089795568152573 0.0 0.0 0.0 14.089795568152573" Properties=species:S:1:pos:R:3:momenta:R:3:forces:R:3:charge:R:1:energies:R:1 Built=T with=T Packmol=T charge=0 spin=1 external_field="_JSON [0.0, 0.0, 0.0]" energy=-17.27415657043457 stress="-0.0013511243741959333 -0.0013294622767716646 3.168213152093813e-05 -0.0013294622767716646 -0.0009269431466236711 -0.001168307033367455 3.168213152093813e-05 -0.001168307033367455 -0.001565808430314064" dipole="-0.692975640296936 -0.9863404035568237 -0.5526678562164307" free_energy=-17.27415657043457 pbc="T T T"
O       13.17205693       5.77113313       6.86162165      -0.07261332       0.18231451      -0.39813488       0.37678611       0.35360807       0.00168356      -0.02588058      -0.07796681
C       12.36457559       4.65841229       6.70800412       0.39778376       0.48914229       0.30104622      -0.00715838       0.01078196      -1.22823215       0.01422628      -0.23709406
C       10.92090695       4.94451083       7.08523448      -0.29853920      -0.13644164      -0.33641172      -0.72459143      -0.03999344      -0.15297738       0.02244073      -0.15555291
F       10.51292892       5.99761233       6.32723126      -0.47040071       0.09049140      -0.23642217       0.31269768      -0.44404018       0.98526812      -0.01361610      -0.24404651
F       10.70795692       5.20050952       8.39814858       0.56360526       0.12056495      -1.45414937       0.23779680       0.18740696      -1.16767621      -0.00969404      -0.25152409
F       10.14545971       3.89681573       6.75140639       0.14887143      -0.64250528      -1.15636402       0.07688020       0.11841233       0.17454040      -0.01015463      -0.26359689
C       13.02628165       3.41720296       7.28353051       0.39225648      -0.33861671       0.23037387       1.05526924      -0.26452491       2.89897919       0.02426794      -0.08551146
F       13.50771136       3.69620134       8.54416968       0.83340605      -0.96429793       0.40734664      -0.91946661       0.31384182      -0.47594911      -0.01406240      -0.20923810
F       14.12623450       3.10367686       6.64224856      -0.62208508       0.51171330      -1.45355058       0.15171717      -0.39629680      -1.40447235      -0.00768414      -0.22482336
F       12.26786998       2.30150404       7.44192156       0.48062992      -0.10203430      -0.08776809      -0.05681742       0.70152169      -0.58745635      -0.00818325      -0.28695431
H       13.26849566       6.07805508       7.77615410      -0.08689033       0.00464851      -0.08406544      -0.23676832      -0.44387764       0.03039980       0.02354437      -0.06640959
H       12.32530031       4.46968513       5.61149785       0.01085309      -0.02559738       0.04287469      -0.07574431       0.11848433       0.53656936       0.01451187      -0.02033383
O        1.96798495       9.07263261       2.14262205       0.32650356       0.07942644       0.36766430      -0.33980465      -0.61229253       0.02116904      -0.02746983      -0.16008338
C        3.00980399       9.92545872       2.46742002      -0.00120035      -0.62784187      -0.39938799      -0.50762415       1.26164067      -0.44765806       0.01151717      -0.25581241
C        2.70385634      11.33487917       1.84472705      -0.09844997       0.65718771       0.21076899      -0.08659466       0.09962124       2.17427635       0.02165131      -0.10150412
F        1.46550496      11.65662219       2.24906253      -0.13256617      -0.35145819      -0.80290378      -0.51707673      -0.34156823      -0.63241124      -0.01303660      -0.22987461
F        2.78329643      11.38650993       0.53794233       0.38662042       0.52428769       0.35954641       0.20010960       0.44096804      -0.42760336      -0.00711220      -0.23266062
F        3.43455710      12.31598286       2.40403655       0.75276774       0.37239579       1.02632485       0.83292556      -0.25732777      -0.97640449      -0.00954339      -0.19324531
C        4.37408145       9.35132323       2.12131422      -0.12305735      -0.15730808       0.29792446       0.48859540      -0.36876419      -0.02894487       0.02167431      -0.15674883
F        4.37700920       8.74427182       0.93270989      -1.03074913       0.12554354      -0.01013238      -0.05765475       0.33814025      -0.35420442      -0.00985295      -0.24315251
F        4.70539327       8.37495012       2.98599789       0.63056105       1.49821832      -0.46978365       0.10200393       0.62532568       0.07175854      -0.01083362      -0.23339212
F        5.31889536      10.31739454       2.10811479      -0.81563729       0.77619523      -0.22324626      -0.79356742      -1.16102552       0.01379436      -0.01097699      -0.22567844
H        1.95576080       8.85606238       1.19765326       0.08771453      -0.00995272       0.14383608       0.37856111       0.13777681       0.16178043       0.02183744      -0.04695415
H        2.94649350      10.10211428       3.53457261      -0.04193152      -0.02334423       0.05910612       0.24961075      -0.08380715       0.22232729       0.01142951      -0.04461434
O        7.39159010      12.58311581      13.47089551      -0.00233468       0.64213747      -0.63417092       0.05693885      -0.22607505       0.35870677      -0.03003890      -0.09296324
C        7.84696178      12.69804328      12.18163864      -0.29586367       0.60691107      -0.15782204       0.65969646       0.33054313       0.17061669       0.01042091      -0.25092861
C        9.30173287      13.24393453      12.13952062      -0.16594463       0.76757298       0.52677438      -0.59381771       0.31114900      -0.00739038       0.02149555      -0.14473750
F       10.03761726      12.73181507      13.13260025      -0.89900357       0.74730196      -0.77007731      -0.16008092      -0.09146501      -0.45437476      -0.01199487      -0.26421520
F        9.31613036      14.58735181      12.30218704       0.20306204       0.12085283      -1.21845594       0.04535664      -0.40818647      -0.09408714      -0.01135428      -0.26455674
F        9.86082122      12.91503072      10.96419231      -0.82952424       0.33797346       0.23412121      -0.03539483       0.13371265       0.48544785      -0.01229216      -0.22318126
C        6.80540471      13.52758763      11.46142414      -0.30405450       0.33487984       0.74274473      -0.81864083       0.69864249      -0.76183361       0.02257196      -0.13184911
F        6.48672443      14.65019146      12.13783207      -1.52602641       0.36481511       0.36639373      -0.14773813      -0.66983807       0.61835629      -0.00985202      -0.21115516
F        5.64106843      12.79520914      11.37425491      -0.84165225       0.66712519      -0.66465774       1.00773668       0.56621838      -0.23643547      -0.01480685      -0.29420781
F        7.17683227      13.96066905      10.26178904       0.21084622       1.40088417       0.53713558      -0.10702120      -0.66813552      -0.10037680      -0.01070803      -0.21792935
H        7.31190690      13.46990027      13.84572834      -0.19238298       0.01366396      -0.16275827      -0.05130760      -0.12516817       0.07107791       0.02612714      -0.00493547
H        7.91993570      11.72140245      11.72859627       0.11031300      -0.04487568      -0.12259892      -0.27878058      -0.33557099      -0.13997748       0.01091733      -0.04753490
O       13.29851049       8.65033835       1.53304694       0.58049243       0.42855737      -0.91439790       0.09679681      -0.02563524       2.46222496      -0.03402142      -0.07298557
C       12.28682692       8.85233879       2.54783473       0.11419952      -0.49450098      -1.36791903       0.76367456       2.65554166      -0.94717735       0.01261679      -0.16580693
C       12.67253720      10.05059084       3.46193939       0.90706257      -0.27819586       0.04507041      -0.50008291       1.28162956      -0.63333809       0.02167651      -0.12085181
F       13.13624980      11.07101130       2.68235097       0.79512686      -0.23660455      -1.85405633      -0.44337457      -0.98506558       0.61055398      -0.01320299      -0.23492962
F       13.57468451       9.84845792       4.40990063       0.76149502       0.41749411      -2.17540679       0.38428789      -0.32731935       0.08767241      -0.01101464      -0.26968265
F       11.55079033      10.51136517       4.07389959       1.56333607       1.86612672      -0.23461770       0.51447099      -0.60088545      -0.11637206      -0.01135488      -0.22231698
C       11.89529485       7.62850122       3.31154062       0.34271043       0.78163265      -0.17808622       0.91195941      -1.20691597       0.58554190       0.02369598      -0.10590614
F       12.76781362       7.36404292       4.30342660       0.07766736       0.20062378      -0.17281507       0.12723498      -0.22426642      -0.37739328      -0.01154398      -0.25025854
F       11.97456634       6.61869601       2.41020940       0.01313431       1.65022748      -0.97319830      -0.66023231      -0.27926981       0.63312048      -0.00938743      -0.25008053
F       10.70106784       7.63654293       3.91886422       0.46330940      -0.16158735      -0.29799304      -0.00820077       0.27212971      -0.93058133      -0.01134916      -0.26153308
H       14.18011164       8.70865122       2.02391834       0.20768819       0.31560612       0.08669778      -1.24842906      -0.08645491      -0.90186620       0.02026604      -0.07066488
H       11.39670957       9.31047675       2.09235931       0.15180596       0.24383197      -0.33437176       0.11219141      -0.65088958      -0.41042942       0.01331636      -0.02514151
O       10.77045304       4.50235200       0.65792774       0.49772706      -1.18831436      -0.57197540      -0.71508223      -0.10978887       1.46165419      -0.02862369      -0.03294485
C       10.47160236       3.31047897       1.41811668       0.09645188      -0.28049494       0.22022738       1.22546613       1.43924642      -2.19779992       0.01284307      -0.17218919
C        9.35641411       3.52853778       2.40122549       0.18399249      -1.24533846       0.28598090      -0.94882369      -0.81920648      -0.90629256       0.02381333      -0.13087817
F        8.35014305       4.06192978       1.66285974       0.39481645      -1.16542434      -0.21792857      -0.06063714      -0.36312282       0.77083844      -0.01028464      -0.24426994
F        9.67493817       4.38116676       3.33879822      -0.00097024      -2.01705457       0.38617493       0.17639245       0.64016986       1.04889107      -0.00738924      -0.26898426
F        8.91737717       2.36810157       2.97305272       0.64206836      -0.75927681      -0.97342799       0.26540971       1.04303515      -0.46226570      -0.00957761      -0.26796049
C       11.79828556       2.75954205       1.92896515       0.54756903      -0.87645730       0.56743784      -0.83362198      -1.03430867      -0.44191921       0.02222522      -0.13094667
F       12.52253712       3.58810751       2.63087617      -0.76008878      -0.05968468       1.13330224       0.59797549       1.57518220       0.49154574      -0.00836223      -0.27082467
F       12.55569063       2.26934289       0.95258497       0.00643802      -0.54344575       0.38335003       0.09059384       0.31339410      -0.60039246      -0.01040648      -0.25802851
F       11.52441665       1.74910348       2.71838482      -0.20559821      -0.42625898       1.14385052      -0.37803721      -1.58761501       1.30295253      -0.00974578      -0.21575865
H       10.87409388       5.25132480       1.27492364      -0.26293934      -0.02223661       0.00320318       0.08488186      -0.29998738      -0.32306617       0.02168603      -0.07568322
H       10.06123193       2.68533051       0.63003651      -0.11146060       0.10271842      -0.03864526       0.14558524      -0.75649989       0.29967543       0.01419972      -0.02352683
O        8.77703835       7.05165917      11.79923330       0.61408478       0.96953573       0.93535805      -0.35045549       0.43110198      -0.56621820      -0.03014958      -0.03080863
C        8.51609960       8.38522206      12.17011316       0.11992213       0.16884485       0.34222220      -0.15839291      -0.95170736       0.59111142       0.01066849      -0.25514349
C        9.22529157       8.56481197      13.52357974       0.96531052      -0.97812005       0.60234158      -0.94621348       0.87876999      -0.71062905       0.02037557      -0.15874222
F       10.45015584       8.06704693      13.42749590      -0.68584395      -2.23657467       1.50450156       0.29356796      -0.44670659       0.49557504      -0.01161171      -0.25139609
F        8.56537057       7.97591696      14.52521908       0.13677389      -0.10569923       0.52778644       0.32100016      -0.19125752       0.15132426      -0.01042037      -0.30106857
F        9.32977026       9.86779128      13.80520017       0.80319006      -0.28462762      -0.11917503       0.00708163       0.25013715       0.38953003      -0.01299600      -0.24666248
C        7.00302397       8.71703158      12.17548836      -0.03581806      -0.58216200       0.28890656       0.30474767       0.10364731       0.05329428       0.02258096      -0.13187599
F        6.37797868       7.82721171      12.93402420       0.59037396      -0.70677731      -0.27206015      -0.19474085      -0.05848694       0.67312431      -0.00942465      -0.22690704
F        6.48860892       8.57215110      10.95066100       0.71189449      -0.32238684       0.89310044       0.22039576       0.49693418      -0.15132432      -0.01271050      -0.26084709
F        6.72232211       9.98195653      12.61410169       0.40793451      -0.58581666       0.57144866       0.32381678      -1.24640727      -0.30073404      -0.01167048      -0.26094925
H        8.16815174       6.40131229      12.18076124      -0.26699984      -0.05321805      -0.01712807      -0.01294146       0.42275316       0.09555896       0.02408815      -0.05697636
H        9.00174026       9.04840288      11.46706314      -0.02249014       0.03299508       0.03406143       0.13445911       0.07090549      -0.23038521       0.01128533      -0.05679373
O        3.74398955       1.23840035      11.91779124       0.18735042      -0.15937023       0.01510694       0.24055216       0.82312828       0.30012557      -0.02174851      -0.01237619
C        2.53793333       1.62242134      11.33756420      -0.21222356      -0.85568781      -0.19719995       1.03793335       0.58879197      -1.64420581       0.01440638      -0.20837985
C        2.81895835       1.55076964       9.76280802      -0.35331349       0.39297598      -0.57368877      -0.99065286       0.67165101       0.76582968       0.02255088      -0.09752541
F        3.37110806       0.35271051       9.50071234      -0.25112094       0.58466777      -0.55523304      -0.27412111       1.01911569      -0.04955503      -0.01065808      -0.19811408
F        3.64767386       2.51377479       9.34006194      -0.20789211      -1.34875302      -0.03164386       0.27891251      -0.50249827       0.03165026      -0.00925355      -0.23132585
F        1.66757116       1.75969466       9.05716991       0.29953184       0.22486565      -1.50735019       0.74487436      -0.74298835       0.42392728      -0.01456307      -0.25788632
C        2.18163472       3.08305477      11.83004046       0.30686542      -0.27877685       0.54728695      -0.11572411      -0.08071873       0.23528183       0.02322448      -0.10634969
F        2.80128278       4.05728855      11.16660387      -0.65624261      -0.06438635       0.28456297       0.42486620       0.01146862      -0.71353626      -0.01060611      -0.23155093
F        2.60736936       3.22668829      13.09087394      -0.40290901       0.02287288       0.01120306      -0.67101371      -0.49224415       0.10144786      -0.00967507      -0.23466435
F        0.86423825       3.38598350      11.72999938      -0.15443982      -0.19980780       0.52035715       1.02980292      -0.94041377       0.37223136      -0.01246146      -0.20919350
H        3.76709381       0.33714941      12.24020461       0.08609352       0.08404343      -0.39790280      -0.30301958      -0.24656561      -0.06369579       0.02475426      -0.04335748
H        1.73929812       0.93416683      11.52220714      -0.03336143      -0.00452721      -0.14439791      -0.73533094      -0.19137734       0.28298563       0.01366646      -0.05785634
O        2.34563137       7.02550844      10.91124753      -0.18151507      -0.13076072       0.81501096      -0.34964460      -0.76435816       0.59337229      -0.02979793      -0.06637084
C        1.93806704       7.41742615      12.20455048       0.03010285      -0.78797113       0.01259812       0.75052297       1.07198942      -1.28050113       0.01055809      -0.25865149
C        2.69289439       8.73298529      12.45305537       0.36933886       0.21702596       0.10576128      -0.56299180       0.63836491      -0.81242388       0.02116625      -0.12736216
F        2.49869714       9.59770692      11.44943275      -0.39586154       0.49056379      -0.75191886       0.21197802      -0.37857905       0.05744613      -0.01481720      -0.19828300
F        4.01851664       8.55712487      12.54878397      -0.18778011      -0.61123100       1.19318680      -0.61478829      -0.05891039       0.23665772      -0.01027646      -0.23925678
F        2.19714031       9.37303199      13.52020490      -1.16318572      -0.81885870       0.57999307       0.19349892      -0.16031985       0.43907267      -0.00563761      -0.17745979
C        2.13240313       6.45717160      13.34647948       0.07835633      -0.44089322       0.50043506      -0.77590615      -1.47007751       0.32263470       0.02397466      -0.11861365
F        3.34129574       5.89762034      13.34864207      -0.84093846       0.47651015       0.80400659      -0.45596951      -0.34445694      -0.21423481      -0.00705470      -0.24725847
F        1.11784320       5.51333207      13.33910921      -1.07784577       0.41814911       0.83052698       1.56052518       0.85345948      -0.22019614      -0.01288003      -0.23237166
F        2.00963049       7.06806056      14.52916107      -0.35898184       0.05576765       0.70326941      -0.18580948       0.11558919       0.27439186      -0.00536324      -0.20973043
H        3.27117761       6.73712069      10.90287383      -0.09585778      -0.06851062       0.21855096      -0.13406931      -0.02978626       0.25191951       0.02153598      -0.07319604
H        0.87147834       7.63456181      12.15796918       0.35547237      -0.17573909       0.11272281       0.23874401       0.07538700      -0.03164238       0.01051169      -0.03496427
O        4.09051379      14.44276583       6.90093307      -0.39877824       0.86269983      -0.03968010      -0.21836710      -0.28236055      -0.51315325      -0.02566916      -0.10503405
C        4.58829037      13.19098644       6.50456245      -0.53961526       1.05135545      -0.46868831      -1.07263994      -0.43030712      -0.54732144       0.00764116      -0.21363674
C        6.10632304      13.18402318       6.76552293      -0.26769307       1.55544810       0.84590749      -1.16384482      -1.44145334       0.79760152       0.02279452      -0.12202168
F        6.24594550      12.90990747       8.11318268      -0.40959777       1.29476936       0.57408849       0.06064098       0.77166426      -1.31040502      -0.01516488      -0.22212079
F        6.68626848      14.32139703       6.44550499       1.38719660       1.59839358       1.23869027       0.35659492      -0.16617286       0.20933610      -0.00658586      -0.27958548
F        6.68284184      12.15301804       6.11491627      -0.92802839       1.38383543       0.49563756      -0.02397000       0.64783281       0.03274121      -0.01203013      -0.25654727
C        4.16476257      12.93890251       5.02432397      -0.45495894       1.22706605      -0.38156897       0.92950135      -0.11284722       0.23207462       0.02269860      -0.11458862
F        4.86026536      13.74549855       4.21689550       0.07636278       1.23253436       0.75403459       0.18826637      -0.11075813      -0.17987224      -0.00868790      -0.26553956
F        2.87993404      13.19922107       4.79286931       0.66943276       1.94140700       0.20054069      -0.51471841       0.61635554       0.34899294      -0.00851856      -0.20440330
F        4.32244283      11.65427758       4.66516181      -1.47692865       2.84237962      -0.28629811       0.57353640       0.01782465       0.39014593      -0.01300193      -0.23249663
H        3.32746835      14.62970424       6.32455545       0.10033951       0.31307335      -0.11624778       0.19066322       0.08918028       0.53306526       0.02494570      -0.02985568
H        4.11975957      12.32846190       7.04311775       0.10112684       0.26836959      -0.09843055       0.78972220       0.80517149      -0.17497794       0.00833194      -0.02364058
O       11.66694905      12.88328257       8.76315749      -0.27574696       0.05691566      -0.77564551      -1.07530963       0.30354980      -0.94260919      -0.02864348       0.02194626
C       10.84010224      11.84893721       8.28702973      -0.70863154       0.39147129      -0.75813675       0.22360671       1.00257218       0.29844463       0.00873204      -0.24008234
C       11.46552640      11.14326251       7.10401185       0.28520627       0.17739181      -0.36101580      -0.86373544       1.02886152      -0.52263522       0.02023687      -0.12857279
F       12.48873886      10.38296151       7.44665247      -0.17939183       0.30902414      -1.10126000      -0.05884065       0.14996591      -0.79742157      -0.01077690      -0.15348190
F       11.92673631      12.09472426       6.23320725      -0.16991751       2.34273405       0.16978284      -0.17522758      -0.95460939       0.13770442      -0.01206007      -0.27675921
F       10.47570605      10.40580648       6.53388592       0.00700462       1.24827367      -1.35986810       1.23760557      -0.14820486      -0.04124346      -0.01346791      -0.22520173
C        9.43940880      12.41614794       7.87242028       0.16917788       0.43697680       0.20857156      -0.14421245      -1.28670657       0.58539015       0.02207427      -0.09622706
F        9.38720896      12.66979381       6.56725530      -0.92300536       0.47758463       0.31974521      -0.14558527       0.16457148      -0.24967024      -0.00885573      -0.22098000
F        9.12340656      13.51034311       8.50013902       0.22238578       0.23147605      -0.03899841       0.45661902       1.72328269       0.52645433      -0.00937539      -0.20066559
F        8.45078211      11.57023193       8.21770082       0.01016302      -0.00339930       1.08476656       0.30190545      -0.96513152      -0.44736701      -0.01486461      -0.24059528
H       11.64776778      13.56122912       8.06051715       0.01631976       0.10209331      -0.21215690       0.32815486      -0.06865101       0.53327739       0.02551341      -0.02759708
H       10.79797155      11.11614303       9.07908434       0.15772335      -0.18126092      -0.14339121      -0.59573996      -0.11000113       0.26958251       0.00985690      -0.05040874
O       14.08831412       8.68563710      10.45398003      -0.33093536      -0.62203691       0.84376453       0.03569981      -0.27798027       0.13747364      -0.02905062      -0.01880654
C       12.84188955       8.66563359      11.08970869      -0.43444318      -0.48898316       0.47558630      -0.98787415       1.22713387      -1.88258135       0.01177039      -0.18811090
C       11.88845389       8.06294093       9.98606170      -0.23056371       0.19776133       0.57841569       1.45872927      -0.59736782      -0.21114689       0.02323075      -0.02612776
F       12.26115217       6.74775349       9.90902760      -0.64800037      -0.03579956      -0.35017959      -0.76887751       1.32180059      -0.22986424      -0.01149348      -0.21108335
F       12.20829482       8.59299593       8.77300306       0.38865636       0.47976226       0.13120982      -0.21423788      -0.44911200       0.69951582      -0.01068036      -0.19584319
F       10.58242129       8.17662881      10.08193621      -0.31998557       0.64283937      -0.47341129      -0.13163991      -0.07443843       0.56210387      -0.00818180      -0.22935213
C       12.57006025      10.10587964      11.65975734       0.02312443      -0.55037039       0.45914690       1.11728632      -0.86227417      -0.67214561       0.02157566      -0.11074334
F       12.48396053      11.07062790      10.71555006       0.04281080      -1.23386113       0.31799187      -0.61715627      -0.70597732       0.58419681      -0.01060661      -0.24564841
F       13.67505606      10.36233252      12.37771303      -0.27518362      -0.88925756       0.50714141      -0.45090830       0.29194239       0.40084288      -0.01233561      -0.23037511
F       11.51179975      10.13475056      12.45694224       0.01233579      -0.74605017      -0.42767269      -0.06190768       0.46578035      -0.29373223      -0.00907701      -0.25160199
H       14.01110333       8.94120232       9.50897204       0.08129702       0.21898140      -0.10882321      -0.09898767      -0.14736974       0.87439299       0.02320281      -0.03821193
H       12.81110413       8.01250576      11.95201215      -0.03597303      -0.01092412      -0.02333552       0.20750022      -0.33986720       0.14793444       0.01368450      -0.05059481
O        1.97314899      12.24399920       6.96535542      -0.00804887       0.85071133      -0.97941815      -0.60315812      -0.59880334       0.74222779      -0.02041384      -0.09919477
C        2.05736552      11.49653233       8.15820312      -0.24222146      -0.04515131      -1.27221225       0.01163203       0.86549753       0.96382332       0.01449440      -0.18487824
C        2.10500942       9.99056360       7.85707037      -0.07621633      -0.16640631      -0.22125949      -0.63001025       0.11383560       0.71762216       0.02389393      -0.12758936
F        3.05652694       9.74915517       6.96269432      -0.53956612      -0.51181540      -0.84470282      -0.31158847      -0.15817793      -0.02157665      -0.00861909      -0.26814586
F        0.90190542       9.53738148       7.37694928       0.47895958       0.08201832       0.16375048       0.77561706       0.37302962      -0.02177677      -0.01132137      -0.29145828
F        2.34089083       9.28250394       8.96740889       0.88016547       0.66839323      -0.50080584       0.18568480       0.14110529      -0.51244229      -0.01069882      -0.22778265
C        0.99097007      12.00030409       9.20510325      -0.14576448       0.16347358       0.54105930       0.19221401      -0.32030010       0.47488347       0.02156808      -0.09936799
F       -0.20082443      12.13089369       8.66078198       0.04349884       0.47457379       1.24790797       0.07933842      -0.55716908      -0.37072557      -0.00962878      -0.17974153
F        1.33510505      13.21431961       9.61298286       0.25317542      -0.07280685       0.52124989       0.21444622       0.53607267      -0.07766915      -0.01126070      -0.19400766
F        0.88599790      11.29062347      10.35875106      -0.64233712       0.26427890       0.75766783       0.46536690      -0.09474728      -1.36540794      -0.01346017      -0.20035663
H        1.12804085      12.05105930       6.52986552      -0.08538995       0.00570120      -0.10698071       0.06583107       0.07961354       0.00981914       0.02600437      -0.04708543
H        2.98032869      11.82660139       8.68121007      -0.06871962       0.17543862      -0.16110369      -0.11573948      -0.63112497      -0.55193186       0.01445642      -0.01674732
O        8.90409339      11.39330990       4.19032705       0.83628129       0.89418172       0.54259174       0.09787176       0.38175064      -0.41187263      -0.03003275      -0.08430757
C        8.78791408      12.49525526       3.32515208      -0.00254122       0.48276685       0.10290998      -0.90730006       0.89701796       1.50686491       0.01065515      -0.23523420
C        7.60142467      12.28653411       2.37680831       0.11767543       0.03217956       0.43975122       0.44686002       0.13835293       1.55958533       0.02296043      -0.12627324
F        6.50511981      12.02897008       3.08419663       1.24840020       0.00697310      -0.47055617       0.24823630      -0.09468093       0.22414696      -0.01174026      -0.16329776
F        7.88085709      11.25732425       1.59072418       0.34503998       0.30387839       0.61512784      -0.36217529      -0.24588791      -0.47089934      -0.01091826      -0.24467498
F        7.32717615      13.39479341       1.70183589       0.20719148       0.02843191       0.19835097      -0.08366039       0.59043217      -0.50353098      -0.00700111      -0.18096828
C       10.07291313      12.80262113       2.58070040      -0.28081571       0.12326784      -0.23081089       0.15702690      -0.57871753      -0.57089233       0.02140497      -0.17826375
F       10.55196638      11.68089332       1.97371132      -0.19606923      -0.36738309      -0.32262804      -0.24164522       0.54548430       0.01151586      -0.01171849      -0.25170100
F       11.00150591      13.22403135       3.42899524       0.27439122       0.46569352      -1.52815598       0.11075139       0.23530760      -0.15960929      -0.01026904      -0.25441897
F        9.87642728      13.71879134       1.60555076      -0.27031318      -0.33555030      -0.90320174       0.34747952      -0.17421947       0.60744679      -0.01040458      -0.25435528
H        9.03821406      10.58991014       3.67375217       0.15164018       0.10142551       0.06398518       0.04500296      -0.05588678      -0.08191446       0.02403922      -0.04509196
H        8.55396218      13.38837212       3.99894239      -0.01500345      -0.02882606      -0.01351102       0.29099375      -1.06375670      -0.99271345       0.01392505      -0.04053481
O        6.77716935       3.54394576       8.92594749      -0.95806757      -1.10272236       0.49117224      -1.02047050      -0.31681201       1.17790401      -0.02967844      -0.05173953
C        6.24090043       3.83299353      10.24104940       0.06655249      -1.53104929       0.21220616       0.44010246      -0.26104620      -1.58125949       0.01191157      -0.25430498
C        5.70023741       5.26485262      10.27195659      -0.85201937      -0.35064979       0.07357225       0.99779761       0.06697203       0.88084006       0.02288897      -0.12282373
F        4.68979015       5.49471873       9.43761843      -1.69815746      -1.08010196       0.40261379      -0.04044920      -0.19370002      -0.35783359      -0.00847164      -0.26915756
F        6.73933804       6.05022411       9.96050269      -0.07516723      -0.48352417       0.82189856      -0.32794449       0.45243502      -0.01043645      -0.01127415      -0.19744948
F        5.25577213       5.65925742      11.49331394      -0.82832535      -1.23963351       0.19457767       0.16319308      -0.29233232      -0.36946777      -0.01102465      -0.27021617
C        7.35326707       3.59011084      11.29575436       0.67021828      -0.77764420      -0.50426368      -1.35751271      -0.33153293      -0.98713923       0.02238693      -0.14964312
F        8.37250525       4.40173134      11.19104051      -1.01601628       0.04864805       0.83894083       1.07592964       1.02775311      -0.35322827      -0.00965558      -0.21902163
F        7.81410343       2.35374327      11.19814002       0.64521082      -0.76856578       0.13595505       0.10711348      -0.00153343      -0.09250438      -0.01145043      -0.20951416
F        6.84072792       3.78666419      12.49425884      -0.83375146      -1.84246080      -0.90110586      -0.47344518      -0.21753281       1.44323134      -0.01042501      -0.26743817
H        7.25141555       4.27735368       8.52129945       0.14638436       0.01860967       0.13503769       0.05608995       0.39253467       0.36282629       0.02257307      -0.07151838
H        5.38917211       3.16193398      10.41131099      -0.01324825      -0.01986578       0.19486785       0.57279807      -0.05624443       0.07386068       0.01173680      -0.05992810
O       10.54051762       3.19018122      10.22413815      -0.14642958      -0.32802405       0.36480002       0.44496328      -0.08971196       1.94383931      -0.02833192      -0.06782359
C       11.36293025       3.04471516      11.38313829       0.19426314      -0.92631379       0.15524768      -1.37180424       0.95801717       0.05981156       0.01006242      -0.19319974
C       12.02112897       4.37669808      11.74702449       1.12600051      -0.53675447       1.10491613       1.64658570      -1.02184033      -0.15893938       0.01905202      -0.18396391
F       11.19713743       5.37594139      11.74633767       1.18016921      -0.98998075       0.52967603      -1.60412550       0.81431019       0.29568070      -0.01222579      -0.23004141
F       13.00535298       4.71172613      10.90196009       0.71772871      -1.39318578      -0.58903409       0.32174867      -0.29618552      -0.07782430      -0.01401223      -0.18205540
F       12.55642865       4.27066833      12.97298140       0.65291012      -1.12270708      -0.47750305       0.38943088      -0.03755536      -0.17828435      -0.01319236      -0.21682793
C       12.25019339       1.83586300      11.34716317       1.69531775       0.49528512       0.36119523      -0.79474062      -0.69283783      -1.08680451       0.02244854      -0.10365252
F       13.18761415       2.03841592      10.41015700       1.04380293      -0.99002145      -0.20415898       0.43047908      -0.90401095       0.48244303      -0.01032470      -0.23872802
F       11.50142977       0.76907040      10.96095747       2.64574237      -0.39204707      -0.75831118       0.53277355       0.51710331      -0.38987511      -0.01411165      -0.21746936
F       12.72750890       1.47721725      12.52803626       1.37779663      -0.41172391       0.47932352       0.88546896       0.49235025      -0.00476942      -0.00891198      -0.25262293
H       11.03276717       2.86155419       9.49111079      -0.05440594       0.04721223       0.18282275       0.59130454      -0.40387106      -1.11058903       0.02211753      -0.05223335
H       10.76756160       2.84608399      12.25525737      -0.06726955      -0.07523168       0.06113495      -1.03873634      -0.01794111       0.26009008       0.01184828      -0.01149946
O        6.20122849       6.77590293       7.56541043      -0.17137600       0.50730490       0.59862757       0.57459062       0.67428899       0.02975336      -0.02561627      -0.05048515
C        6.81231497       7.39443494       6.45800028      -0.28604630      -0.63450247      -0.08903885       0.43226016      -0.14549442       0.38605869       0.01363295      -0.20613125
C        5.99974946       8.57392242       5.95944127       0.16709321       0.46048167      -0.60820356       0.83562529      -0.05674058      -0.05183927       0.02187271      -0.14970294
F        5.81654293       9.48805329       6.93517109       1.07836257      -1.45726921       0.15922614       0.26643938      -0.33157116      -0.66993326      -0.01172044      -0.27846253
F        4.81123575       8.19902386       5.51473266      -0.73595406       1.17875174      -0.18702193      -0.60616171      -0.08794209       0.10479079      -0.00883919      -0.24947152
F        6.68480793       9.10022417       4.93027149      -0.72975412      -0.31177738       0.16751868      -0.24447528       0.63241220       0.19603769      -0.01153186      -0.25849789
C        7.07272536       6.26472696       5.46753670       0.13271165      -0.33474308       0.00886757       0.58606219      -0.73921221      -0.53597599       0.02302249      -0.10057788
F        5.95733946       5.50755485       5.35012867      -1.40039806      -0.04366120       0.46267142       0.53907967       0.38546914      -0.79569918      -0.00623316      -0.26174670
F        8.00500190       5.49045087       6.05569304      -2.02713254      -1.35407471      -0.75755322      -0.28777438      -0.27667621      -0.03961688      -0.01161328      -0.21339098
F        7.60978338       6.57136669       4.24974174      -0.79970565      -0.58759174       0.37445991      -1.21113372       0.02094834       1.03164566      -0.01155877      -0.25333554
H        5.32757891       6.42150948       7.34307749      -0.00208109       0.04422090      -0.09137161       0.19036652       0.16186848      -0.26263022       0.02704402      -0.04393088
H        7.85560142       7.75618226       6.67611085      -0.02055288      -0.03488816      -0.01116612      -1.15568292      -0.14233398       0.42246386       0.01339659      -0.03750496
192
Lattice="14.124370117181837 0.0 0.0 0.0 14.124370117181837 0.0 0.0 0.0 14.124370117181837" Properties=species:S:1:pos:R:3:momenta:R:3:forces:R:3:charge:R:1:energies:R:1 Built=T with=T Packmol=T charge=0 spin=1 external_field="_JSON [0.0, 0.0, 0.0]" energy=-17.693161010742188 stress="-0.003823145991191268 -0.001742099062539637 -0.0008936335216276348 -0.001742099062539637 -0.0011502872221171856 -0.0015535963466390967 -0.0008936335216276348 -0.0015535963466390967 -0.003989047836512327" dipole="-0.4478781819343567 -1.088392734527588 -0.3407343924045563" free_energy=-17.693161010742188 pbc="T T T"
O       13.20498970       5.79322065       6.86518120       0.10824256       0.34015042      -0.41959926       0.31635478       0.42835101       0.55738080      -0.02561855      -0.12563467
C       12.40833876       4.68583730       6.72667561       0.20524082       0.20894342      -0.08851081      -0.63231945      -0.99778187      -0.15675563       0.01250015      -0.20494960
C       10.93215646       4.95075934       7.08561328      -0.35805223      -0.15146216      -0.53817865       0.48895541      -0.05051246      -0.68812865       0.02204416      -0.15310828
F       10.52828993       6.01162639       6.34246723      -0.35337206      -0.14516428       0.18754416       0.10767386      -0.45964199       0.68080139      -0.01349235      -0.25964317
F       10.74916303       5.21741796       8.37603616       0.54949226       0.19504195      -1.75878888      -0.24142262       0.12986617      -0.13996452      -0.00861753      -0.26371071
F       10.17479846       3.89117561       6.73967015       0.19462339      -0.51589235      -1.02138804       0.08848394       0.31871575       0.27964163      -0.01018681      -0.27605811
C       13.08208404       3.41308322       7.33603310       0.70097482      -0.17749139       1.30406742       0.20822489       0.84369123       1.05685639       0.02358649      -0.11523034
F       13.55714007       3.68219661       8.57246197       0.46443077      -0.82948579       0.17705906      -0.44429982       0.18306214      -0.25849095      -0.01154220      -0.23364462
F       14.14636183       3.12166030       6.61341083      -0.49549982       0.28452236      -1.97103829       0.21762754      -0.45352566      -0.67851460      -0.00842015      -0.24821059
F       12.30997058       2.30856800       7.45460267       0.44761812       0.19081874      -0.31848428      -0.03166743       0.47672534      -0.30278188      -0.00792767      -0.29690450
H       13.24269821       6.06735856       7.79497103      -0.13121765      -0.07851559       0.07541874       0.02070165      -0.07558125      -0.06599572       0.02326454      -0.05876748
H       12.35603809       4.47625657       5.67280376       0.00120626      -0.01688300       0.03813132       0.04812298      -0.14367262      -0.65610242       0.01396976      -0.01777557
O        1.97952586       9.09306593       2.16191969       0.10513472      -0.20106320       0.48936086      -0.39112109      -0.65737480      -0.61517334      -0.02866300      -0.20944735
C        3.01275923       9.94160170       2.46067651      -0.18197900       0.27893627      -0.09721545      -0.12424308       1.91553533       1.04123783       0.01039589      -0.21016257
C        2.70801756      11.38687009       1.87687101       0.02693613       0.45029699       1.02555900       0.50118846      -0.77592045       0.87625325       0.02172038      -0.12505879
F        1.46251841      11.67494998       2.23072271      -0.36981994      -0.40513635      -1.00543824      -0.44230354       0.09889304      -0.22734106      -0.01129968      -0.24387141
F        2.80139574      11.43098266       0.54654685       0.48620201       0.75719678       0.25798492       0.23509875       0.50184816       0.21227212      -0.00945920      -0.24851483
F        3.46600961      12.35365959       2.42977384       0.96652432       0.19109466       0.50377451       0.12571189      -0.41858268      -1.02132630      -0.00886678      -0.20553242
C        4.38340718       9.36782860       2.13478598      -0.00294775      -0.06124317       0.02330019      -0.17592460       0.76711172      -1.01577377       0.02170101      -0.15210283
F        4.36139180       8.77088374       0.93277970      -0.98660589       0.26123411      -0.15046503       0.16252224       0.21045616      -0.22546171      -0.01054602      -0.25045609
F        4.73442882       8.43574616       2.98327840       0.74472771       1.52462378      -0.24760551       0.39183298      -0.38846651       0.77091503      -0.00819569      -0.22684625
F        5.30614165      10.35528823       2.10755221      -1.15541620       0.20846607      -0.22519761      -0.54419315      -1.01740885      -0.05516969      -0.01154832      -0.23627901
H        2.03575768       8.86296527       1.21915383       0.19003367      -0.06858630      -0.05607375       0.00626530      -0.07414143       0.26050463       0.02146805      -0.03849155
H        2.96868982      10.10074519       3.54787255       0.10211603      -0.07998594      -0.08054459       0.23882863      -0.03348982      -0.21485239       0.01102695      -0.03579571
O        7.40975124      12.62977266      13.48789810      -0.01185897       0.38436170      -0.37185583      -0.14080338      -0.27760991       0.80085802      -0.02988872      -0.08686484
C        7.86188037      12.75146873      12.20424406       0.06383652       0.43083882      -0.22648964       0.41434318      -0.19686157      -0.13197835       0.01051184      -0.22627027
C        9.31049289      13.30794926      12.18521328      -0.53808505       0.69929959       0.13546058      -0.80276394      -0.54438686      -1.37617564       0.02125370      -0.14182514
F       10.03918639      12.78117026      13.14419329      -0.84774446       0.63593251      -0.75117723       0.24721658      -0.27914265       0.40525949      -0.01084579      -0.26043987
F        9.34457141      14.62590211      12.30129568       0.22826686       0.17785667      -1.15394322       0.04887068       0.61743712       0.24370347      -0.00973405      -0.26750895
F        9.86359661      12.95626908      11.00008948      -0.82078557       0.39901834       0.44830699       0.01641673       0.12889037       0.34107411      -0.01437733      -0.22982089
C        6.80172144      13.58163036      11.50731192      -0.65736735       0.67083264       0.05216191      -0.42887321       0.56669974      -1.65064335       0.02320124      -0.11756143
F        6.46276891      14.69141141      12.18119318      -1.54734748       0.05519636       0.68638498      -0.07070883      -0.52801931       0.67650098      -0.00869676      -0.21285063
F        5.64022168      12.84745302      11.38398303      -0.28692353       0.94219602      -0.72997660       1.10076249       0.56694800      -0.12365120      -0.01419043      -0.29567343
F        7.19863581      14.02625340      10.30153738       0.09268744       1.01527150       0.62283753      -0.35458717      -0.72035456       0.32219881      -0.01195094      -0.22241157
H        7.22761634      13.51885083      13.82781840      -0.22182855       0.03388811      -0.04638603       0.01524739      -0.29163697       0.13787287       0.02655851      -0.00090703
H        7.94796383      11.76177984      11.71832268      -0.08182345       0.16257266       0.00108837      -0.35771531       0.43661082       0.28801805       0.01099246      -0.05080760
O       13.35130046       8.68411055       1.52715136       0.52896738       0.33985564       0.10875405      -2.06210232      -0.64211035       0.52928638      -0.03270342      -0.11925418
C       12.32877748       8.88558424       2.49220693       0.47484122       1.05392879      -1.52184969       0.92129600       2.69405603       0.63395977       0.01245962      -0.15329297
C       12.73038404      10.07842180       3.45898577       0.31090385       0.45500805      -0.73267325      -1.55057526       1.55944514      -2.17780113       0.02191097      -0.06284437
F       13.18622225      11.08581571       2.64567842       0.58569003      -0.69636035      -1.48255390      -0.32078558      -0.73762846       0.67184800      -0.01428114      -0.23078339
F       13.63203955       9.88052753       4.36779998       1.15055475       0.16890417      -1.84833509       1.03162336      -0.61870384       0.83607906      -0.00855648      -0.25397125
F       11.62294546      10.58046079       4.07692009       1.82512355       1.45709236      -0.31071624       0.57966614      -0.86747652      -0.19822881      -0.01175928      -0.22944637
C       11.94476970       7.66541816       3.31557315       0.58816621       0.12667481      -0.10127121       0.20395099      -1.00065351      -0.35270542       0.02353331      -0.08223361
F       12.80212374       7.38654191       4.30671239       0.16326861       0.16076687      -0.39860426       0.25755805       0.00715460      -0.50455409      -0.01015627      -0.25337777
F       12.00041533       6.67464877       2.39527342      -0.26982603       1.38274930      -0.63906435      -0.47321290      -0.69990379       0.61853111      -0.01065619      -0.24263710
F       10.73949719       7.65344996       3.91498017       0.48972082       0.03912838      -0.74022498       0.14607558       0.50760245      -0.88997376      -0.01202049      -0.26155847
H       14.16751360       8.86040654       1.95648078      -0.13012153       0.23818982      -0.24579647       1.74024653       0.19329974       0.58085376       0.01917705      -0.05937443
H       11.51398341       9.34897040       1.93194883       0.16402151      -0.17464377      -0.28725323      -0.47183895      -0.61283016       0.26132038       0.01302654      -0.04031394
O       10.80672072       4.47682010       0.65329782       0.14653544      -1.22460148       0.10106540      -0.65149164      -0.34686723       0.83015126      -0.02685071      -0.07653341
C       10.51279815       3.31703802       1.40891890       0.61689869       0.06544625      -0.77349459       0.74153060      -0.19236073      -1.41543174       0.01155351      -0.17852336
C        9.37948304       3.48380770       2.40771901      -0.09455878      -1.20785309      -0.28515724       0.03071774       1.00211394      -1.26959205       0.02354988      -0.12317175
F        8.38039407       4.03959819       1.66645070       0.35243584      -1.32871561       0.17993974      -0.13734356      -0.36097348       0.78206497      -0.01116135      -0.25031099
F        9.69952857       4.34406020       3.36336137       0.05204091      -1.70291048       0.84670566       0.00876179       0.37771618       0.69415349      -0.00920449      -0.28227299
F        8.95656118       2.35866144       2.95347215       0.65814539      -0.52235941      -1.06170631      -0.16401263      -0.18813936       0.02041442      -0.00647850      -0.26451850
C       11.83803486       2.72497410       1.95199652      -0.05398685      -1.01821033       0.34692747      -1.26957083       0.42923170      -0.21140568       0.02249486      -0.14589347
F       12.53730043       3.60368327       2.66855706      -0.50212012       0.49315901       1.22618810       0.26900804       0.53115308      -0.12198238      -0.00995293      -0.29014611
F       12.58779382       2.26250673       0.96180264       0.10746080      -0.43281334       0.18855166       0.25911909       0.10178370      -0.11412194      -0.00932734      -0.26850879
F       11.54572581       1.73258811       2.76202304      -0.30439584      -1.14927625       1.66630189      -0.03857473      -1.23063588       0.77646261      -0.00883457      -0.23559624
H       10.79014719       5.23301347       1.24316672      -0.18033411      -0.03052417      -0.09621123       0.19084916       0.43742681       0.14267507       0.02234028      -0.06173618
H       10.06546378       2.65244001       0.65840971       0.05624546      -0.23846811       0.15004489       0.47703609      -0.47782433       0.30109620       0.01350904      -0.01812521
O        8.80997479       7.09496707      11.85415375       0.15777229       0.70095254       0.71305441      -0.02329975       0.06066206      -0.98465580      -0.03007071      -0.05855074
C        8.54187796       8.40550108      12.21973687       0.16811627      -0.09914351       0.58671632       0.38953760      -0.01451492       0.24273983       0.00990488      -0.22713175
C        9.27221586       8.55925062      13.57314287       0.13693775      -0.24931089       0.20290020      -1.95199561       1.73239851      -0.65742481       0.02059600      -0.13219875
F       10.46231412       8.02642188      13.50192444      -0.30109826      -2.42323793       1.68480100       0.93881977      -0.35639000       0.32811266      -0.00993020      -0.25568804
F        8.59177869       7.99149769      14.57570957       0.27171290      -0.19717315       0.62258607       0.22893855      -0.12792277       0.19822906      -0.01076654      -0.30067354
F        9.37393615       9.88487205      13.83863930       0.85859371      -0.31607714       0.08726810       0.23576257      -0.34853664       0.42022184      -0.01430728      -0.25244087
C        7.02463947       8.71844984      12.21827877       0.30053590      -0.34831192       0.35662344       0.88912332       0.64009875       0.23479921       0.02276095      -0.12552379
F        6.40668283       7.82702287      12.96387707       0.39428442      -0.81685370       0.14716626      -0.47750893      -0.36193410       0.93078732      -0.00853847      -0.22924715
F        6.52363665       8.58781100      10.99835531       0.74793807      -0.10340822       0.67969513       0.03503986       0.37642974      -0.57889307      -0.01194785      -0.25942403
F        6.75103160       9.98349964      12.65796376       0.52549972      -1.17719300       0.43443835       0.20795561      -1.14585423      -0.19684845      -0.01212968      -0.26913011
H        8.13256773       6.50393924      12.17134638       0.00232847       0.32950574      -0.12525067      -0.41792580      -0.41502425       0.23650151       0.02368170      -0.04647398
H        9.02110596       9.08663402      11.49973357      -0.01347265       0.00468080       0.03118057      -0.11360621      -0.20335394       0.25873178       0.01096537      -0.05723144
O        3.75819767       1.24679490      11.94776288       0.07667955       0.29728005       0.05213915      -0.54101789      -1.06095600       0.25614917      -0.02224953      -0.06129084
C        2.54406999       1.60063667      11.34220652       0.08465106      -0.37875053      -0.85804849      -0.20451804       1.05752122      -0.78401208       0.01411863      -0.17901377
C        2.80263918       1.57354721       9.77239656      -0.73604414       0.44051919      -0.11736342      -0.45255512      -0.42470682       0.89786327       0.02212169      -0.11393718
F        3.37103465       0.37411602       9.50948472      -0.40148760       0.96258936      -0.56385304      -0.37420139       0.55376083      -0.00150879      -0.01240236      -0.19741540
F        3.65421991       2.48464968       9.36186835       0.06063494      -1.28198105      -0.06913579       0.74058431       0.63638645      -0.14342184      -0.00881910      -0.22704192
F        1.68319077       1.76539426       9.04340109       0.54846141      -0.10133501      -1.27471297       0.24714226      -0.55273044       0.41080260      -0.01319784      -0.26793349
C        2.19591590       3.07785711      11.88007929       0.09034536      -0.35275247       0.38840776      -0.58981061      -0.17725930      -0.83833623       0.02304503      -0.07408202
F        2.79422978       4.06520006      11.19709205      -0.41563507      -0.11241686      -0.02794416       0.47852916      -0.22118269      -0.50603771      -0.01137009      -0.23931189
F        2.59995120       3.23201474      13.12496158      -0.63428877      -0.22547769       0.17538248      -0.31999451      -0.53366268       0.51428908      -0.00805675      -0.23762684
F        0.86935113       3.38293462      11.77462099       0.38839649      -0.68272167       0.70520364       1.08347845      -1.02200365       0.40463030      -0.01362548      -0.20961340
H        3.79671863       0.26841031      12.09343307       0.01989566      -0.19711100      -0.36758392      -0.02631495       1.19111776      -0.28020558       0.02476568      -0.04221488
H        1.67420376       0.92364361      11.51826531      -0.11777406       0.02417204      -0.00193566       0.64779192       0.49854100       0.16144882       0.01354121      -0.06023299
O        2.34307008       7.03237975      10.96589052      -0.28464820      -0.58652306       0.94523066       0.51478380      -1.29107904      -0.01540609      -0.02918196      -0.11705835
C        1.96277876       7.41520471      12.22769387       0.86104280      -0.14862857      -0.20346945      -0.24591336       1.82891893       0.40689772       0.00869414      -0.20066158
C        2.70516126       8.76696949      12.48036343      -0.15718728       0.32874205      -0.23201806      -1.34485626      -0.16219926      -0.44113225       0.02135042      -0.11061018
F        2.49691807       9.63038799      11.46065114      -0.18657818       0.18713821      -0.48690979       0.56284904      -0.72867072       0.85419703      -0.01436982      -0.21829621
F        4.01992869       8.56302501      12.61114402      -0.45567900      -0.51692051       1.22230592      -0.52376896       0.40124050      -0.03530689      -0.00940473      -0.23951998
F        2.17465713       9.37424843      13.56954523      -0.96431562      -0.85402389       0.60559293       0.50452524      -0.04415533      -0.31270316      -0.00650079      -0.18812490
C        2.13093162       6.44583579      13.40176908      -0.44113064      -0.72258832       0.56381140      -1.20371735       0.46401614      -0.09985120       0.02370807      -0.09472884
F        3.32711563       5.92028522      13.40103956      -0.80928205       0.08456631       0.72923112       0.46514288      -1.20589936      -0.02462567      -0.00537367      -0.24141344
F        1.10284759       5.54217895      13.39190233      -0.30578776       0.72061807       0.72428853       1.42271292       0.33320236      -0.15952176      -0.01142723      -0.24183729
F        2.00422828       7.08707257      14.58396666      -0.43764376       0.04948846       0.74979058      -0.16992688      -0.16431814      -0.03564309      -0.00678752      -0.21583936
H        3.25323785       6.70214460      11.04253688      -0.00992849      -0.14886445       0.19340482      -0.10691843      -0.10459742      -0.35821635       0.02187848      -0.05173924
H        0.89704825       7.61940458      12.22487789      -0.28011367       0.05110080       0.02943785       0.01248178       0.24869740      -0.17396760       0.00968157      -0.02848265
O        4.08707986      14.50404719       6.91412760      -0.42807979       0.85410122      -0.12839739       0.21909192       0.20077610       0.25898266      -0.02509545      -0.06980933
C        4.57504962      13.27103008       6.49283783      -0.49474707       1.42789071      -0.89121095       0.64416736       0.95447493      -0.33298448       0.00762955      -0.21030512
C        6.10067556      13.26461718       6.81991702      -0.67134213       0.83232974       0.87437686      -0.36866945      -1.10918140      -0.69097352       0.02304407      -0.12334696
F        6.25073436      12.97978738       8.13991537      -0.42237726       1.65094016      -0.01759223      -0.15589961       0.72946918      -0.97672713      -0.01293249      -0.23232313
F        6.73933849      14.39556461       6.49489528       1.38978955       1.36821729       1.37395556      -0.29249516      -0.72707313       0.44283980      -0.00846635      -0.28600681
F        6.67488735      12.22312700       6.14349727      -0.96719582       1.74053154       0.57395443      -0.19756733       0.81838584       0.28820485      -0.01384006      -0.25718626
C        4.16732013      13.01934812       5.02677753       0.08072123       1.15206892      -0.04114677       0.94413280      -0.10083527       0.94593620       0.02252708      -0.11595763
F        4.87620434      13.81135216       4.24400864       0.26509168       1.29022474       0.49200432       0.56976807       0.39072216      -0.77707362      -0.00807286      -0.27088743
F        2.89840551      13.28633198       4.81130059       0.14247330       2.31622929       0.29312759      -1.34894729       1.00184417       0.09547144      -0.00844277      -0.19526070
F        4.29951114      11.75357161       4.67126101      -1.08677077       2.53422124      -0.14294961       0.90444124      -0.98848903       0.20380956      -0.01209199      -0.21696652
H        3.39695082      14.81947805       6.33128477       0.09420901       0.31416468       0.01249009      -0.33390385       0.00237730      -0.15012054       0.02529935      -0.04033215
H        4.19544079      12.46373924       7.06307568       0.04485307      -0.01104287       0.19683494      -0.44884518      -0.83087337       0.56463128       0.00921748      -0.02398611
O       11.67923238      12.92116506       8.75225421      -0.76884644       0.26003143      -1.20005737      -0.89200699      -0.62288237       0.46840090      -0.02847696       0.02279588
C       10.84483228      11.89828213       8.28272369      -0.28213981       0.49199998      -0.40955294       1.14514911      -0.18155330       0.66826904       0.00957559      -0.23148000
C       11.49419102      11.19077447       7.10047389      -0.28181966       0.83572731      -0.67044900      -1.14961827       1.38959813      -0.62495852       0.02064437      -0.10898042
F       12.51450583      10.41756009       7.43175849      -0.20790987       0.41482022      -1.45462244      -0.18554066       0.38906783      -0.73987532      -0.01066924      -0.17215246
F       11.95082732      12.17753666       6.25376249      -0.22155886       1.73780517       0.23332780      -0.07883029      -1.25619233       0.10322409      -0.01262317      -0.27212846
F       10.50968960      10.46234152       6.51469854       0.62974412       1.14518472      -1.36526163       1.22612238      -0.16113870      -0.10224663      -0.01323123      -0.22228810
C        9.46450595      12.45107596       7.90448564      -0.14861319      -0.17808963       0.36644604      -1.02402914      -0.83129621       0.02742763       0.02238600      -0.11689581
F        9.38573059      12.71388594       6.59056749      -0.96853693       0.51003822       0.26875791      -0.12830970      -0.03188272       0.13361421      -0.00975016      -0.21686874
F        9.15432977      13.56000923       8.52351992       0.43551243       0.99779181       0.22844471       0.44308767       1.20100212       0.47437099      -0.00974099      -0.20912096
F        8.47443224      11.59348255       8.26260828       0.23699907      -0.35374371       0.82090443       0.57342076      -0.49478787      -0.52044332      -0.01508846      -0.25396511
H       11.71830471      13.59177974       8.07902316       0.13943386      -0.04019775       0.10719264       0.16669834       0.65197146      -0.48907346       0.02518119      -0.03284454
H       10.82136959      11.09512995       9.04011213      -0.16791520       0.05746181      -0.13053793      -0.57263511       0.70450485       0.06125659       0.01008291      -0.04368981
O       14.11302728       8.68660266      10.50376178      -0.31197317      -0.75689364       0.89161879       0.00450781      -0.91540837       1.82433784      -0.02852558      -0.01429683
C       12.84857293       8.67896348      11.11840253      -0.69154784       0.01992535      -0.29054096       0.03125876       0.36575049      -0.69873178       0.01312166      -0.20484053
C       11.92126893       8.08449937      10.02807759       0.32959343      -0.10003541       0.18745004       0.55237800      -0.46806526      -1.28259730       0.02381025      -0.04358264
F       12.26975837       6.77192327       9.92339213      -1.00115342       0.61068880      -0.39848406      -0.66294587       1.18230367       0.00505118      -0.01096461      -0.21453013
F       12.24672893       8.62346071       8.80341805       0.26789228       0.24641709       0.58373332      -0.20055361      -0.43477011       1.05216885      -0.01258028      -0.20643760
F       10.60009793       8.21266230      10.09830156      -0.27524110       0.58753251      -0.16529698       0.39557382      -0.11161616       0.66660953      -0.00882828      -0.23179206
C       12.61185755      10.10029496      11.69916610       0.45287931      -0.89779951       0.06453681       0.43052876      -0.45320535      -0.72983873       0.02206946      -0.14005397
F       12.51208693      11.06182859      10.75347310      -0.21966027      -1.53451293       0.56398713      -0.42371804      -0.59841484       0.39559054      -0.01096897      -0.25131440
F       13.69902335      10.36674201      12.42375910      -0.45002358      -0.74200168       0.70255763      -0.27300170       0.20283604       0.39756992      -0.01146590      -0.23838750
F       11.53934482      10.14322501      12.47555842      -0.07486766      -0.53550950      -0.47357334      -0.16905713       0.29023632      -0.02656728      -0.00938994      -0.25957766
H       14.06796289       9.03409028       9.62837716       0.00076445       0.12747665       0.31440332      -0.19994485       0.48254496      -1.05459023       0.02237097      -0.03870258
H       12.84748597       7.98978323      11.98536670       0.04114753      -0.10468648      -0.02075313       0.02726568       0.25077215      -0.44526473       0.01390992      -0.04928236
O        1.96965308      12.29406933       6.95666110      -0.52382902       0.44350026      -0.68348247      -0.57618016      -0.73295820       0.89340317      -0.02131451      -0.10395357
C        2.05087434      11.53233392       8.13803235      -0.38000807       0.38872720      -0.68298537      -0.56769717       0.61733329       1.15081644       0.01373686      -0.15105109
C        2.10297729      10.01164575       7.87236108      -0.22811867       0.04833773      -0.04019334      -0.06518282       0.71087408      -0.06365450       0.02369813      -0.13779712
F        3.04823667       9.75904195       6.95819015      -0.68109002      -0.56187331      -0.80816228      -0.32644874      -0.03357118       0.15113583      -0.01022619      -0.27443188
F        0.91994156       9.56454120       7.39895115       0.68685060       0.18036246       0.13212908       0.10027247       0.03952046      -0.08876413      -0.01031136      -0.29589847
F        2.37021666       9.32305495       8.97405163       0.93533628       0.69271422      -0.65060764       0.11587185       0.00889134      -0.10366669      -0.00991264      -0.23530652
C        0.99069450      12.03267458       9.25153087       0.04174186      -0.01050001       0.55059980       0.53724837      -0.20584899      -0.39210463       0.02202035      -0.05350705
F       -0.20049163      12.16947799       8.71153323      -0.00065733       0.21235622       1.02761123      -0.17189570      -0.49318224      -0.41306594      -0.01002878      -0.18827260
F        1.34642332      13.24819389       9.64964621       0.37066578       0.17323318       0.49541865       0.25089982       0.40538391       0.00252349      -0.01164370      -0.20068564
F        0.87496141      11.32441494      10.39512606      -0.36780887       0.19649078       0.10603103       0.60072792      -0.20599392      -1.18347287      -0.01245202      -0.20217881
H        1.13797593      12.10443274       6.51326882       0.07655364       0.08487849      -0.04962606      -0.30786735       0.01589167      -0.22285223       0.02544932      -0.04767241
H        2.97174025      11.86401588       8.58570995       0.08241979      -0.11518986      -0.24223170       0.69401264      -0.38560283       0.26881069       0.01388269      -0.01076570
O        8.95179896      11.45168039       4.21432712       0.84177974       1.04463483       0.34232028       0.04160608       0.01097120      -0.46597305      -0.02990453      -0.07929703
C        8.80378126      12.54699733       3.34710987      -0.15158336       0.30214813       0.36713276       0.45367724      -1.60455918      -0.57968867       0.01131873      -0.26578671
C        7.63104917      12.32027424       2.41154321       0.44216770       0.15709381       0.83355308       0.72851479       0.31356382      -0.05945325       0.02273584      -0.13880156
F        6.55213959      12.05754580       3.08291154       1.05565658      -0.09782806      -0.14577069      -0.88154608      -0.31256574       1.03585482      -0.00978162      -0.15324222
F        7.90711053      11.29133775       1.60754032       0.20412484       0.20716372       0.39945276      -0.18460099      -0.04877652      -0.28269061      -0.01205628      -0.25449473
F        7.35023530      13.43164703       1.70830170       0.20089549       0.25104642       0.00698321       0.10604289       0.25995064      -0.17273228      -0.00918356      -0.19612004
C       10.08897588      12.83323111       2.57136890      -0.12504460      -0.15212205      -0.52876591       0.37017983      -0.45207074      -0.51627570       0.02171439      -0.17126763
F       10.57069640      11.70413970       1.97080673      -0.37445154      -0.04057751      -0.26306247      -0.45177844       0.67848504       0.16365369      -0.01196256      -0.25083634
F       11.03597549      13.26977765       3.39734345       0.29035871       0.55161154      -1.56248609      -0.03769179       0.12077807      -0.11442804      -0.01067577      -0.25174230
F        9.89576325      13.74262741       1.59017838      -0.11582078      -0.42521795      -0.59426326       0.25794846      -0.20029369       0.54821074      -0.01056881      -0.25247774
H        9.14108703      10.65119652       3.69915923       0.17321669       0.07343664       0.02030835      -0.01133747       0.21455058       0.07217558       0.02401102      -0.04596443
H        8.58298673      13.36990962       3.94938180      -0.01160632       0.07105489      -0.03715512      -0.30348909       1.52845025       0.97717512       0.01451661      -0.03813771
O        6.76015431       3.52075703       8.96819790      -1.18674570      -0.93891123       0.76810741      -0.54165620       0.04547551       0.38922098      -0.02801879      -0.12363675
C        6.26290363       3.78422082      10.26074314       0.24082783      -1.18327003      -0.40124863       0.11961520       1.20859981      -0.66034937       0.01179876      -0.25033340
C        5.69142955       5.26112639      10.30802498      -0.25363368      -0.52338606       0.41535230       1.11777067      -0.67410851       0.40526503       0.02310031      -0.07873285
F        4.65904319       5.47933196       9.46957804      -1.49533841      -1.14984358       0.31421222       0.80667442      -0.19885445       0.08056295      -0.00938482      -0.27103812
F        6.75021747       6.05460356      10.00592817      -0.41476026      -0.35847842       0.79745982      -0.98253804       0.04605533      -0.02766743      -0.01127899      -0.20786424
F        5.24832179       5.63980984      11.52434190      -0.74535636      -1.32466112       0.03404423       0.14053823      -0.17371300      -0.25186819      -0.01015998      -0.26815784
C        7.38162107       3.56523704      11.29692851      -0.18749802      -0.81644251      -0.68046409      -1.63779819       0.25977454       0.33635581       0.02205220      -0.14175482
F        8.37456059       4.42012859      11.23743737      -0.42217501       0.50439669       0.61417329       0.98142070       0.64018178      -0.47487029      -0.00979394      -0.23205003
F        7.85141063       2.33935796      11.22814066       0.77954754      -0.79475049       0.04348257       0.40071577      -0.06674305      -0.28015196      -0.01025490      -0.21266992
F        6.83359139       3.74720427      12.51005682      -0.99247296      -1.92814054      -0.30390253      -0.22342703      -0.28039223       0.78934145      -0.01305614      -0.26768366
H        7.30194186       4.26941057       8.67515559      -0.02341698      -0.13626445       0.38416316      -0.03626164      -0.08437029       0.07950573       0.02342009      -0.05675892
H        5.44374751       3.13020845      10.52833252       0.12974384      -0.17808087       0.15765426       0.02424555      -0.43049911      -0.21327302       0.01140320      -0.06271470
O       10.56710254       3.18654252      10.27349528       0.36730802      -0.52374115       0.92983837       2.00369978      -1.00212884      -0.59676623      -0.02869232      -0.06448876
C       11.38393608       3.02624052      11.42377839      -0.51216238      -0.33062686       0.55824874      -1.08197689       1.13264990       1.06571710       0.00963604      -0.23711170
C       12.10502726       4.35548004      11.81136286       1.31379708      -0.98474360       0.46144243      -0.89245039      -0.58848286      -2.15798616       0.01883468      -0.16226000
F       11.24618567       5.36814180      11.79084811       0.56637390      -0.68174231       0.68703431      -0.67966104       0.23949397       0.36041069      -0.01486233      -0.25628909
F       13.05736958       4.68571530      10.91412327       0.82121585      -1.50752556      -0.50222457       0.15094832      -0.28839502       0.35492340      -0.01430097      -0.20081656
F       12.60838549       4.25215642      12.99474762       1.05360880      -1.11596285      -0.17644832       1.26387191      -0.03106505       1.27652240      -0.00906161      -0.19829960
C       12.33614791       1.84895706      11.37839954       0.93038781      -0.15262656      -0.16821704      -2.04205847      -1.63979089      -0.80365866       0.02234952      -0.08339666
F       13.25055176       2.01365737      10.43356412       1.35086277      -1.25303599       0.03704119       0.83132547      -0.24432759       0.47657549      -0.00895461      -0.22786196
F       11.60090051       0.76445292      10.96675952       2.84439539      -0.11606789      -0.84404763       0.38372609       0.45919740      -0.06451322      -0.01618287      -0.21569414
F       12.79983164       1.47393386      12.57056263       1.78999076      -0.10330569       0.39906420       0.82552332       0.72426546      -0.38586891      -0.00912027      -0.25681630
H       11.08736889       2.85255616       9.48704509      -0.00117007      -0.00238735      -0.03806829      -0.87144172       0.55016667       1.12354910       0.02281408      -0.05448279
H       10.70329147       2.82344303      12.28686757      -0.17663802      -0.03081834      -0.13840599       0.37477678       0.14011450      -0.62014621       0.01121593      -0.03934322
O        6.21427829       6.81248465       7.60066033      -0.00202895       0.77289707       0.43600050       0.13710153       0.44739336      -0.59092653      -0.02673297      -0.11701498
C        6.81897201       7.38758936       6.47268178      -0.32776686      -0.56204095      -0.01513294      -0.78862739       0.22235200      -0.12320700       0.01251501      -0.22009116
C        6.02674683       8.60632859       5.95236235       0.34127005      -0.05140471      -0.37840734      -0.22391878      -1.79536676       0.82038659       0.02211859      -0.13278538
F        5.85997941       9.47339351       6.95274998       1.16837183      -1.41698164      -0.08559244       0.19865906       0.34016618      -0.31604254      -0.01126356      -0.27817833
F        4.80132644       8.24906487       5.52421353      -0.89161233       1.14042060      -0.11953247      -0.02355304       0.00364736       0.18141446      -0.01089110      -0.25932992
F        6.68242088       9.11981715       4.94579802      -0.66413420       0.14197533       0.01968145       0.43392670       1.13308632      -0.72126484      -0.00888018      -0.25592455
C        7.09556275       6.25965657       5.47719830       0.00193899      -0.63002032      -0.14417805      -0.99913484      -0.35652480       0.03588754       0.02310116      -0.09601764
F        5.93995924       5.52277960       5.36993520      -1.05989602       0.18475761       0.04933127       0.68251944       0.50226915      -0.85408020      -0.00851668      -0.26227355
F        7.97292303       5.46625116       6.05177978      -1.88556913      -1.60364294      -0.65770266       0.69192725      -0.85483515       0.37665021      -0.00953858      -0.20965190
F        7.60094719       6.57281399       4.27521288      -1.29160000      -0.53503158       0.73246873      -0.82947749       0.15527193       0.38778174      -0.00967383      -0.26398209
H        5.36104717       6.47120848       7.30364862       0.05483808       0.06886930      -0.10760910      -0.12278550      -0.12593588       0.18264897       0.02635647      -0.03294522
H        7.78099422       7.75685711       6.74072707      -0.17806535       0.01343213       0.21787459       0.81263757       0.41753364       0.48043624       0.01312301      -0.03691405
192
Lattice="14.17332803262877 0.0 0.0 0.0 14.17332803262877 0.0 0.0 0.0 14.17332803262877" Properties=species:S:1:pos:R:3:momenta:R:3:forces:R:3:charge:R:1:energies:R:1 Built=T with=T Packmol=T charge=0 spin=1 external_field="_JSON [0.0, 0.0, 0.0]" energy=-18.108842849731445 stress="0.0007503548404201865 -0.001467465190216899 0.001194138079881668 -0.001467465190216899 0.0005491597694344819 -0.00156860810238868 0.001194138079881668 -0.00156860810238868 -0.0029353871941566467" dipole="-0.5797069072723389 -1.052103877067566 -0.5771175026893616" free_energy=-18.108842849731445 pbc="T T T"
O       13.25508449       5.82601916       6.88299337       0.11710349       0.41915730       0.01651633      -0.33059329      -0.33913219       0.47353175      -0.02585091      -0.14542237
C       12.45368192       4.69914505       6.74340524      -0.05835792      -0.36248706      -0.31193387      -0.24492720      -1.11396873      -0.91617268       0.01190063      -0.16064402
C       10.96348730       4.96095506       7.08054288       0.08837327      -0.19674732      -0.91228603       1.11015582      -0.14775941      -0.73734373       0.02192182      -0.14965540
F       10.55595708       6.02621055       6.37245826      -0.34180063      -0.32106874       0.38335656      -0.05529000      -0.26895681       0.11568817      -0.01242666      -0.26625586
F       10.79831734       5.24108719       8.36123127       0.35311505       0.22291661      -1.55923313      -0.43652603      -0.03149321       0.65903014      -0.00878637      -0.26959586
F       10.21551050       3.89368290       6.73873249       0.22354648      -0.32472817      -0.85317348       0.06585329       0.41185072       0.30183059      -0.01036635      -0.28243345
C       13.15461812       3.42726319       7.41361497       0.54732212       0.28858755       0.96376300      -0.73189634       0.83503282      -2.25049305       0.02321171      -0.08539753
F       13.61490327       3.67488720       8.60699313       0.43324810      -0.71506999       0.27310608       0.33533978       0.24491814       0.65048110      -0.00725160      -0.23011746
F       14.18340569       3.13727415       6.58420642      -0.46047708       0.10558000      -1.94713978      -0.13797896      -0.22232810       0.59399939      -0.01092112      -0.26155701
F       12.36418846       2.32424455       7.47128997       0.45737331       0.39925314      -0.35364076       0.12321644       0.44932318       0.10929916      -0.00916133      -0.30135384
H       13.23780474       6.05073210       7.82079320      -0.05851538      -0.03753960      -0.05312504       0.22873771       0.34923232       0.18142773       0.02273512      -0.05078201
H       12.41273384       4.46684045       5.66093770       0.06911710      -0.07127708      -0.05641544       0.20252016      -0.01327170       0.47509944       0.01394012      -0.02955389
O        1.98797210       9.11450444       2.17712540       0.03669671      -0.37332407       0.08069851       0.05943449       0.27772164       0.03794068      -0.02570550      -0.23161976
C        3.01647461      10.00242996       2.47321009      -0.11042391       0.88487038       0.25987699       0.30312350       0.46795791       0.77217442       0.01188092      -0.21335687
C        2.72343397      11.43664328       1.92675014       0.24513605       0.07545895       0.92847521       0.24853292      -0.53107548      -1.07221103       0.02229108      -0.13898838
F        1.45600550      11.70636356       2.21223880      -0.48733970      -0.27369795      -0.98303459      -0.00048327       0.35131845       0.20112109      -0.01002630      -0.24673353
F        2.82514499      11.49272263       0.55856676       0.60215704       0.92604466       0.60059246       0.29299134       0.21874256       1.13567650      -0.01306920      -0.24633792
F        3.50234137      12.39852024       2.44513168       0.86716562      -0.04288346       0.05586636      -0.40764928      -0.53507423      -0.74924839      -0.00749190      -0.20431165
C        4.39383757       9.40748273       2.13185166      -0.28241326       0.42357630      -0.52084233      -0.81952727       0.92795682      -0.94069993       0.02195084      -0.14095114
F        4.35256559       8.80904317       0.93108056      -0.85524101       0.33017325      -0.21519394       0.24974808       0.12178289      -0.04815875      -0.01040971      -0.25527433
F        4.77235033       8.50043042       2.99257911       0.89878711       1.19397133       0.15754270       0.19017506      -0.61956847       0.66650283      -0.00811521      -0.23064673
F        5.29280154      10.39126706       2.10839580      -1.24046078      -0.14613049      -0.29001965       0.10698256      -0.35754696      -0.25715387      -0.01086084      -0.23588152
H        2.12142093       8.85527498       1.26282768       0.12362432      -0.11556744       0.14782436      -0.09161210      -0.36031121      -0.39902782       0.02156577      -0.02647495
H        3.04286445      10.10706451       3.54952258       0.12956145      -0.01839227       0.09723439      -0.11881901       0.18925111       0.39357662       0.01169823      -0.03469825
O        7.43389746      12.68347268      13.52946065      -0.06933534       0.21267561      -0.00096740       0.06290222      -0.75409859       0.43708503      -0.03031502      -0.08401486
C        7.89048289      12.81853369      12.23930314      -0.13372705       0.80095491      -0.07075448      -1.19610691       0.97636986       0.43982869       0.01044940      -0.22877410
C        9.31480653      13.37500600      12.21855099      -0.76094106       0.29516339      -0.54642046      -0.03416266      -0.87288558      -1.13007021       0.02109791      -0.15045486
F       10.05383580      12.84005726      13.17375373      -0.72181397       0.49922163      -0.47732209       0.08841974      -0.17914954       0.50502527      -0.01154977      -0.25838766
F        9.38287893      14.68623340      12.31628481       0.21669808       0.58681948      -0.97261187      -0.09333290       0.88099974       0.35002154      -0.00945647      -0.26538220
F        9.87703428      13.01203839      11.05086314      -0.77430425       0.43046936       0.48219329       0.10440487       0.02070889      -0.20974898      -0.01428598      -0.23012170
C        6.79788815      13.65950665      11.53537017      -0.59635575       0.77852801      -0.53036839       0.57270420      -0.06761360      -0.49671161       0.02319461      -0.11481593
F        6.44517480      14.74099720      12.24487609      -1.53662351      -0.13484976       0.94783312      -0.02093432      -0.25275889       0.41361055      -0.00851529      -0.22618748
F        5.65873947      12.91932017      11.40378145       0.17499339       1.14961510      -0.79914897       0.72913861       0.34877956      -0.25886506      -0.01284249      -0.30142897
F        7.22340103      14.09704250      10.35454218      -0.11383610       0.73303035       0.66928958      -0.44221258      -0.29333028      -0.19004692      -0.01101624      -0.23101799
H        7.15423242      13.53833735      13.86319860      -0.18506793      -0.09805376       0.00459388      -0.01328682       0.17180347       0.21591172       0.02594764      -0.01018295
H        7.91085925      11.85823542      11.75873536      -0.14772708      -0.03172044      -0.04988321       0.05339571      -0.51569581      -0.18036392       0.01118948      -0.05079007
O       13.40357544       8.72024981       1.53866996       0.31547957       0.16460828       0.37870487       2.13168859       0.38531554       0.96256346      -0.03498030      -0.08193073
C       12.39923458       8.97669255       2.45254573       0.77075931       1.66395953      -0.74053696      -0.35592094      -0.00974033       1.78674769       0.01042774      -0.19978233
C       12.77357981      10.14528951       3.42117794      -0.26998730       1.02380897      -1.60040402      -0.54949188       0.62803686      -1.05142140       0.02140259      -0.09930081
F       13.24552114      11.10395600       2.62025105       0.49291170      -0.76406285      -1.23574690       0.02788722       0.53323007       0.10751574      -0.01161812      -0.22139952
F       13.71396900       9.91519914       4.33956692       1.44829539      -0.12589250      -1.58073824       0.12491669      -0.51015830      -0.09157765      -0.01167108      -0.27359200
F       11.71288927      10.64922325       4.08185278       1.97020681       1.04016370      -0.39748760       0.12620714      -0.65209818      -0.18448278      -0.01035066      -0.23874886
C       12.01093495       7.69260187       3.31687659       0.60094722       0.04537594      -0.43289181      -0.03854552       0.66826862      -0.79993004       0.02264044      -0.06350938
F       12.85272099       7.41611897       4.30844074       0.33110828       0.13235075      -0.61038515       0.42536896      -0.14728571      -0.40381432      -0.00963309      -0.25628579
F       12.03269592       6.72797161       2.39060696      -0.42502580       0.92216803      -0.38744450      -0.18334955      -1.02046072       0.32587838      -0.01042767      -0.25155431
F       10.79035699       7.68433664       3.90425348       0.56753989       0.30001697      -1.12231916       0.21076831       0.55856085      -0.74845493      -0.01369642      -0.26698047
H       14.31206149       9.02133557       1.89994432       0.13108427       0.19465102      -0.15869418      -1.69500947      -0.70458347      -0.57327873       0.02010051      -0.08205745
H       11.54294186       9.26399961       1.82946223      -0.18922979      -0.25057661      -0.12536767      -0.24122816       0.07317238       0.68572664       0.01225137      -0.04477853
O       10.84442526       4.45520474       0.66288526      -0.10577958      -1.07292676       0.31178303      -0.35054824       0.84550631      -0.03665027      -0.02418490      -0.08108944
C       10.57842889       3.32320307       1.37663780       0.72620194      -0.45943735      -0.82818853      -0.23256722      -1.80121422       1.08349788       0.01153871      -0.19601417
C        9.41281438       3.46180442       2.39308411       0.22017262      -0.38927057      -0.78043828       1.05181944       1.80442083      -0.60608560       0.02309664      -0.11038653
F        8.41711857       4.01769738       1.68121025       0.22169379      -1.42032149       0.48477114      -0.36094630      -0.08782752       0.44707263      -0.00995289      -0.26119494
F        9.73412422       4.31675268       3.39914867       0.01130921      -1.60852033       0.93542184      -0.13346206      -0.10394943      -0.27217507      -0.01220329      -0.29075897
F        9.00277809       2.35005375       2.93725386       0.50031249      -0.83133906      -0.97078881      -0.31824449      -0.88345027       0.13829307      -0.00612858      -0.25261831
C       11.86700389       2.70121642       1.97351113      -0.44097164      -0.53844051       0.44235719      -0.16406772       1.21478033       0.61574590       0.02252948      -0.15234900
F       12.56819898       3.62930254       2.70683156      -0.51990471       0.41741468       0.95937886      -0.36064970      -0.70871162      -0.79557598      -0.01232853      -0.28708363
F       12.63544123       2.25964615       0.97080223       0.17828293      -0.39826065       0.31457622      -0.02772982       0.04654988       0.68314242      -0.00940696      -0.26092726
F       11.57840925       1.70364954       2.81688892      -0.23634001      -1.44864116       1.73487988       0.27399525      -0.04451708      -0.36486974      -0.00912510      -0.24978246
H       10.76154551       5.25941298       1.20838956      -0.09147635      -0.02584688      -0.09758603       0.16432446      -0.43537721      -0.12233239       0.02439382      -0.05797457
H       10.18005650       2.51805651       0.74085542       0.24872595      -0.28671464       0.11839090       0.23095994       0.27366447      -0.39680570       0.01290388      -0.02293839
O        8.84705545       7.14173648      11.90861654       0.08034630       0.55085087       0.23185047      -1.65380907      -1.66387177      -0.38038129      -0.03058886      -0.05679154
C        8.58194755       8.43229060      12.28747048       0.30956264      -0.00037214       0.64667386       0.04870343       0.20916185       0.11662345       0.00976854      -0.24624556
C        9.29400956       8.59376207      13.62498404      -0.51180068       0.38900790       0.12195436      -0.45440945       0.61412805       0.42100114       0.02131248      -0.14993219
F       10.49511862       7.99154277      13.59334357      -0.05674687      -2.34102813       1.73364695      -0.10637864       0.55307668       0.01144488      -0.01230828      -0.26897734
F        8.62957642       8.01403532      14.64290177       0.32902757      -0.16973134       0.64039434       0.01123183       0.25204575      -0.08456337      -0.01119950      -0.29118133
F        9.42996102       9.90828816      13.89138963       0.95584755      -0.53004487       0.27790110       0.21379603      -0.46490231       0.37969175      -0.01301691      -0.24889328
C        7.06910827       8.73985101      12.27755637       0.63854117      -0.13045445       0.46434183       0.38948667       0.07280571       0.17446920       0.02336546      -0.13083011
F        6.43632888       7.83128997      13.01797590       0.20525940      -0.92276763       0.52921757      -0.18432710      -0.06511595       0.57649487      -0.00887574      -0.24052177
F        6.56580983       8.61705182      11.05030598       0.77618159       0.05248205       0.40529692       0.20182668       0.25716305      -0.38497752      -0.01253567      -0.26239210
F        6.78904091       9.98177730      12.71221158       0.59437882      -1.57434839       0.39009261       0.11365792      -0.52108335       0.08834749      -0.01076662      -0.27129921
H        8.07614412       6.58333768      12.19316328      -0.16334986       0.01532484      -0.03689551       1.17937922       0.37496251      -0.41695917       0.02412521      -0.02946856
H        9.04093090       9.10977843      11.57848948      -0.00265969       0.00641225       0.09137285       0.21185350       0.27651846      -0.11642890       0.01107544      -0.05191876
O        3.76780837       1.25160427      11.99065754      -0.35822209      -0.03993496      -0.03136520      -1.23977208       1.15126419      -0.53696150      -0.02358778      -0.10249710
C        2.55372217       1.60478419      11.34409858       0.01358693       0.41856246      -0.84739858       0.37695017       2.28820586       0.67217696       0.01454761      -0.18252301
C        2.78196055       1.59072142       9.80806527      -0.64264139       0.11278138       0.12478821       0.79253030      -0.66774249      -0.04216416       0.02239883      -0.11591786
F        3.36985578       0.40230312       9.52835315      -0.59704975       1.06000598      -0.50748857      -0.44320157      -0.09164651       0.19975957      -0.01355656      -0.17989007
F        3.67307822       2.46595959       9.39183157       0.40015026      -0.78482359      -0.10840022       0.55575883       1.16075206       0.02233547      -0.00994965      -0.21461670
F        1.70338329       1.76598349       9.04473497       0.51530540      -0.30363519      -1.03831731      -0.28983855      -0.29571080       0.46835604      -0.01146413      -0.26644695
C        2.20220603       3.07334717      11.92656125      -0.11398114      -0.35713203      -0.15139008      -0.11581605       0.18905391      -1.11705971       0.02320147      -0.06904496
F        2.79608430       4.07443545      11.23270460      -0.20005602      -0.28397978      -0.19095374       0.35646760      -0.48151523      -0.17735498      -0.01241041      -0.24623382
F        2.59122665       3.23383526      13.17802874      -0.71806417      -0.50974661       0.38329284      -0.11437586      -0.67322129       0.21202379      -0.00794925      -0.24476294
F        0.88833291       3.37085821      11.83583921       0.80117394      -1.14498477       0.85662859       0.57696307      -0.91823953       0.24594378      -0.01265535      -0.20857346
H        3.82910591       0.31202082      11.93747810       0.09484638       0.12615676      -0.40994414       0.39228922      -1.25552297       0.00612928       0.02328689      -0.04005171
H        1.70043373       0.98242146      11.57106112       0.12416356       0.12052486       0.05569516      -0.17252031      -0.40662661       0.15979263       0.01423266      -0.05838326
O        2.34880384       7.02830210      11.03124913       0.11365896      -1.24824594       0.79817279       0.41722694      -1.15097368      -0.42263919      -0.02910342      -0.13660106
C        1.98698718       7.45438433      12.27004679      -0.13128249       0.75758487       0.26208514      -1.72439909       1.27108681       1.13055992       0.00753733      -0.17408870
C        2.69594113       8.80706526      12.51246324      -0.68790311       0.10900666      -0.24216039      -0.61481082      -0.60565567       0.40162188       0.02146100      -0.12581888
F        2.50451575       9.66399111      11.49389902       0.10346949      -0.16163057      -0.00302730       0.55762345      -0.64548308       1.00161219      -0.01277332      -0.22797146
F        4.01853937       8.58277860      12.68531416      -0.74942184      -0.22598928       1.10467167      -0.79412878       0.69675940      -0.33502281      -0.01105028      -0.23727423
F        2.16093311       9.38483621      13.62873267      -0.67478706      -0.82708505       0.28943590       0.54370445       0.08381659      -0.84722483      -0.00774588      -0.19745448
C        2.11069434       6.45034323      13.46854683      -0.80677822      -0.00916493       0.40270276      -0.02557291       2.14512300      -0.40852702       0.02389060      -0.07628132
F        3.32123833       5.93456452      13.46626750      -0.55486986      -0.57005063       0.72448645       0.24067733      -1.27345932       0.02257071      -0.00654024      -0.25069588
F        1.10648648       5.58032455      13.45584589       0.22616569       0.67877551       0.62423340       0.66151667      -0.41329718      -0.21805751      -0.00839368      -0.24605833
F        1.99887616       7.11130615      14.65303981      -0.51314995      -0.09077214       0.66899025      -0.18722768      -0.35771242      -0.17482254      -0.00750793      -0.21988089
H        3.23034884       6.64704993      11.11860394      -0.09509519      -0.18304191      -0.03899641       0.22713947      -0.21295816      -0.37486482       0.02156960      -0.05056173
H        0.90210422       7.67209961      12.26340498       0.33627727       0.04041559      -0.04304270       0.61853188       0.05487391      -0.15402982       0.00916215      -0.02138725
O        4.08843015      14.58362561       6.93561784      -0.45998155       1.11112672      -0.05931400      -0.29272914       0.84627628       0.07753354      -0.02429908      -0.03602003
C        4.57515977      13.37408745       6.48848955      -0.29297319       1.19522032      -0.19734694       0.45277774      -0.90337169       2.23483920       0.00792387      -0.16952847
C        6.09445889      13.33713479       6.86763659      -0.58458621       0.56573870       0.21723900       0.59412080       0.11892408      -1.71225929       0.02280266      -0.12237798
F        6.26012028      13.07110602       8.16297583      -0.54345101       1.89855084      -0.31889953      -0.37652719       0.41079849      -0.25506461      -0.01144806      -0.23982671
F        6.79496564      14.47474305       6.55562374       1.04840277       0.85740268       1.57633899      -0.94315797      -1.16578555       0.44601220      -0.01177800      -0.28184247
F        6.67182888      12.31469726       6.18136667      -1.05615713       2.02492591       0.69849070      -0.20876509       0.42628551       0.20273635      -0.01347863      -0.26044828
C        4.19094929      13.11045040       5.05076226       0.27310340       1.10681154       0.30234687      -0.15717195       0.07985745       0.26923966       0.02266444      -0.12692222
F        4.90378264      13.89507829       4.26597999       0.55765851       1.47693970       0.06821457       0.56113100       0.38837999      -0.79710150      -0.00770698      -0.26904207
F        2.90442254      13.39806330       4.83605137      -0.39201317       2.74345106       0.33372402      -0.64654702       0.88980407       0.13531320      -0.00987672      -0.20875669
F        4.29267482      11.85209929       4.68506518      -0.58435468       1.91546997      -0.03575345       1.01116788      -1.15604687       0.27517429      -0.01125803      -0.20585743
H        3.43802190      15.00173401       6.35001061       0.08267499       0.17455275       0.00324391       0.19846310      -0.48087049       0.06419405       0.02625428      -0.04545528
H        4.22052155      12.51867923       7.14375675       0.04270861       0.20606390      -0.10898367       0.03852661       0.83308238      -1.04462981       0.00956040      -0.00159752
O       11.69144533      12.96965344       8.75231825      -0.97435396       0.18301034      -0.84337784       0.17562127       1.24251437       0.08888237      -0.02799826       0.05995155
C       10.88001369      11.95999598       8.29694671       0.06554796       0.55412706      -0.39052763      -0.01804852       0.24250111      -0.29778713       0.00975768      -0.27726978
C       11.51396496      11.27418420       7.09359507      -0.61252697       1.23768382      -0.80329112      -0.15244175       0.16143984       0.12062210       0.02098759      -0.13181008
F       12.55038803      10.46781341       7.41572334      -0.40813235       0.71803955      -1.76390464      -0.63386196       0.88658583      -0.64656878      -0.01315986      -0.19982958
F       11.98604770      12.25665222       6.28161882      -0.25915391       1.13836368       0.21983663      -0.09846574      -0.95379078      -0.18527414      -0.01089284      -0.27409762
F       10.56909419      10.52708391       6.50131186       1.09890813       1.06182145      -1.42782782       0.69974405      -0.06394535      -0.29765442      -0.01207145      -0.23032956
C        9.48112919      12.48411725       7.94495933      -0.60796483      -0.17794269       0.22651461      -0.65086937       0.80371892      -0.51896524       0.02209583      -0.13048749
F        9.39243640      12.77024737       6.62213917      -1.03771970       0.41918093       0.43661363      -0.27915785      -0.27213413       0.51587391      -0.01068547      -0.21663481
F        9.19985795      13.63743121       8.56115410       0.61794881       1.24076543       0.36472664       0.30617049      -0.10240193       0.10698246      -0.01194943      -0.23160696
F        8.51339335      11.62223700       8.30913145       0.48914420      -0.50194009       0.56825458       0.41791815      -0.17134617      -0.43036202      -0.01316805      -0.26919872
H       11.83362996      13.68875848       8.08617826       0.11733559       0.05453766      -0.05625047      -0.37007815      -1.05903530       0.60957676       0.02625861      -0.03821566
H       10.73530155      11.20472923       9.05401887      -0.27515345       0.15719086       0.10867425       0.18815891      -0.08277413       0.53950042       0.01049037      -0.05149746
O       14.15218097       8.68800834      10.57773301      -0.32812914      -0.94475511       1.19671369      -0.03392890       0.63099217      -1.42723000      -0.02824479      -0.02146532
C       12.86900685       8.70977172      11.14209796      -0.41830767      -0.03440929      -0.39653319       0.83883309      -0.27706519      -0.18866631       0.01277482      -0.19469817
C       11.97639786       8.10642933      10.05659400       0.23016188      -0.11758311      -0.48084373      -0.81193471       0.48244259      -1.17450988       0.02368492      -0.08741104
F       12.28318999       6.81674364       9.94792146      -1.21305874       0.95103849      -0.35659004      -0.28422007       0.15777537       0.08911045      -0.00903723      -0.22056334
F       12.29508117       8.65733708       8.85481055       0.20099634       0.08392170       0.97691299      -0.03991266      -0.16446927       0.45224398      -0.01169742      -0.21815506
F       10.63356820       8.25537890      10.13331438       0.05960152       0.51030065       0.16213391       0.84920442      -0.14028046       0.63375688      -0.01134919      -0.24476409
C       12.67378672      10.09722483      11.73714963       0.32995992      -0.89191605      -0.12864840      -0.83336306       0.37064102      -0.00918840       0.02221200      -0.16303538
F       12.54781269      11.05767420      10.80678970      -0.34326415      -1.71690601       0.63456058      -0.10188869      -0.24801120      -0.08337898      -0.01108341      -0.25502238
F       13.73362970      10.38447546      12.48693977      -0.53253649      -0.68277976       0.83113911      -0.13822260      -0.03179361       0.16787496      -0.01079370      -0.25162482
F       11.57696601      10.16579409      12.50640165      -0.08393456      -0.46511706      -0.48919094       0.11742992      -0.05319794      -0.08534367      -0.01133642      -0.26332659
H       14.10730481       9.17700782       9.70508380      -0.00003592       0.18839758       0.14539883       0.23090570      -0.79029906       1.34825432       0.02339468      -0.02968429
H       12.89944411       8.00541023      11.96717609      -0.03825205       0.02163747      -0.15608232      -0.29829562      -0.10217163       0.29744947       0.01411130      -0.03396205
O        1.95742010      12.34526490       6.96752632      -0.78542251       0.11694627      -0.21917902      -1.15324545      -0.65893388       0.56249326      -0.02152986      -0.08375450
C        2.04080375      11.59184501       8.15047993      -0.32831612       0.50237825      -0.08049576       0.83077741      -0.16448346       1.18165374       0.01389221      -0.14104050
C        2.10150055      10.05615854       7.89499026      -0.17762112       0.43084469      -0.22889075       0.19410181       0.72025591      -0.57118291       0.02347390      -0.13894854
F        3.03919634       9.77896401       6.96310326      -0.83455699      -0.48098385      -0.65655926      -0.35108715       0.33856446       0.37051478      -0.01185976      -0.27770066
F        0.93983226       9.60190787       7.42732294       0.54660317       0.12332943       0.07562560      -0.57142323      -0.21695209      -0.12095618      -0.00935104      -0.29043543
F        2.40297746       9.37311799       8.98860705       0.95228271       0.68184269      -0.60613479       0.02620151       0.06251641       0.15074861      -0.01005609      -0.24171251
C        1.00154103      12.07423536       9.29980754       0.31561451       0.06282979       0.20053560       0.48872033       0.49733105      -0.88920116       0.02265026      -0.03759459
F       -0.20198026      12.21407921       8.76555239      -0.03971914      -0.02058118       0.81716848       0.07355954      -0.43923837      -0.35702941      -0.01072107      -0.20171449
F        1.36193630      13.30032298       9.69582159       0.45527261       0.27194689       0.48528955       0.11913891       0.00045660      -0.02103739      -0.01254582      -0.20855901
F        0.87260751      11.36695071      10.42714928      -0.03866589       0.04114431      -0.38634820       0.72784227      -0.40078020      -0.85309851      -0.01064302      -0.20225634
H        1.12259446      12.18014828       6.48173800      -0.07122945       0.05741266      -0.10409278       0.42330542       0.00269177       0.43642402       0.02600871      -0.05133121
H        3.06025664      11.81512524       8.53378844       0.10812431      -0.22773235      -0.10636827      -0.68457091      -0.03206655       0.17512605       0.01314226      -0.00842877
O        9.00843122      11.52308997       4.23656629       0.80536828       1.04138237       0.19681226      -0.14160506       0.18561791      -0.01195255      -0.02866124      -0.09417365
C        8.83387339      12.59643712       3.37231658       0.14279312       0.27960919       0.43076535       0.70738459       1.43762624       0.69883311       0.01199663      -0.24961403
C        7.68043718      12.37224860       2.44774899       0.59785353       0.28337435       0.42374980      -0.19942971       0.16943078      -1.28981459       0.02278006      -0.14660081
F        6.59533521      12.09478815       3.09719033       0.51748620      -0.24829418       0.43276735      -1.00687790      -0.25395134       1.17619884      -0.00961106      -0.16066317
F        7.93897007      11.33626147       1.62233900       0.15441461       0.26947877       0.34191301      -0.00703835       0.31491187       0.06376228      -0.01295133      -0.25434023
F        7.38211997      13.48515757       1.71454249       0.31522220       0.24286320       0.06390330       0.36402839      -0.25128824       0.38048205      -0.01103978      -0.20118256
C       10.12220013      12.86892438       2.55587444       0.02427313      -0.22221687      -0.60054135       0.19021064       0.19567473       0.21853562       0.02164599      -0.16708153
F       10.59504711      11.74734382       1.97177100      -0.56173362       0.21052636      -0.20122528      -0.31258601       0.28847906       0.03384894      -0.01029675      -0.25534827
F       11.08110948      13.33016315       3.36834657       0.23216345       0.53892403      -1.58546860      -0.14025217      -0.12243910      -0.11199357      -0.01162236      -0.25140789
F        9.92843697      13.77817794       1.58345345      -0.02223637      -0.50306635      -0.37282686       0.11182329      -0.14469469       0.28566301      -0.01069191      -0.25161615
H        9.25502210      10.74335940       3.72925823       0.17245239       0.10927030       0.03032196       0.06528224      -0.19481415      -0.10546945       0.02443124      -0.04231821
H        8.59978571      13.52765434       3.99280470       0.02733744       0.11821482      -0.01339215       0.40949300      -1.22506046      -0.77503729       0.01425966      -0.04632822
O        6.74320637       3.50281626       9.02393634      -1.33274533      -0.95054815       0.72414169       0.63146842       0.73956251      -0.84988058      -0.02623776      -0.15055209
C        6.29063456       3.75992373      10.28016038      -0.06107135      -0.69955205      -0.22285889      -1.17241418       0.63327652       1.25612950       0.01225587      -0.22699052
C        5.70909662       5.25105750      10.36220358       0.06709113      -0.85044389       0.43185454       0.11338349      -0.59903395      -0.22900644       0.02363884      -0.04582664
F        4.64391492       5.46739133       9.51204309      -0.85306579      -1.24834832       0.46626514       1.62679422      -0.32187358       0.51697624      -0.01145650      -0.26181754
F        6.75622023       6.06598012      10.06080892      -0.93998430      -0.41024673       0.75926503      -1.14951301      -0.28265116      -0.06142800      -0.01027137      -0.20908353
F        5.24850999       5.62430526      11.56393529      -0.63463709      -1.38568522      -0.04679341       0.26120162      -0.22348246      -0.07979491      -0.00931844      -0.25917929
C        7.38817494       3.54954619      11.31659240      -0.60195092      -0.51113472      -0.17154194      -0.00971687       0.76596081       1.54417241       0.02229241      -0.13821125
F        8.39661490       4.45018905      11.28914046      -0.21566188       0.54523584       0.37430208      -0.19235420      -0.40946323      -0.43616816      -0.01161702      -0.24715072
F        7.90078649       2.32768280      11.26606009       0.90732486      -0.68037101      -0.13123331       0.12211904       0.55873567      -0.41346604      -0.01016866      -0.21670482
F        6.83103165       3.70898388      12.54854808      -1.01163831      -2.02379321      -0.14642707       0.04468884      -0.26489973      -0.09064696      -0.01362464      -0.26253033
H        7.35728036       4.24656359       8.85139864       0.13396605      -0.07299474       0.16594143      -0.11071539      -0.60232866      -0.57209861       0.02458294      -0.01836067
H        5.53016591       3.03318302      10.60153238       0.14710639      -0.19660232      -0.02683247      -0.03568831       0.30928299      -0.42780545       0.01121286      -0.04830907
O       10.62550931       3.17688917      10.33561614       0.81260565      -0.67968181       1.01455050      -0.37030387       0.40758118       1.32652187      -0.02844029      -0.04941735
C       11.40025675       3.03230065      11.49040547      -0.40114308       0.03903159       0.58846913       1.34236920       0.20578620      -0.79758292       0.01077263      -0.27860504
C       12.18523341       4.32884437      11.84948330       0.46260829      -0.95127075      -0.51774483      -2.01296568       0.61402160      -1.24358487       0.01951105      -0.15157059
F       11.29780196       5.36904869      11.85134693       0.49416494      -0.74759474       0.81302149       0.34089774      -0.51625949       0.18102726      -0.01721447      -0.26139396
F       13.12400410       4.66139163      10.94185773       0.80028043      -1.62985374      -0.26323413      -0.19668770      -0.35401332       0.53445548      -0.01277672      -0.21464100
F       12.68752313       4.23806793      13.04354689       1.66769391      -1.11074664       0.41244554       1.12038863      -0.04289195       0.66904807      -0.00859951      -0.20688690
C       12.39630680       1.83409420      11.40632131      -0.02767389      -0.81734901      -0.30727560      -1.42978024      -0.84057367       0.23291445       0.02182774      -0.09330148
F       13.33615425       1.98828530      10.47380607       1.68863951      -1.19923304       0.28687945       0.56413597       0.30672631       0.59469396      -0.00995006      -0.22561066
F       11.71508382       0.76572213      10.98302164       2.80189255      -0.05808831      -0.83057680      -0.40271088      -0.36251646      -0.00966162      -0.01351136      -0.21572162
F       12.89431955       1.48115541      12.62052051       2.03402795       0.26662304       0.04039867       0.28817427       0.73908150      -1.03850150      -0.01108939      -0.26809427
H       11.07553479       2.89585681       9.56790042      -0.01188318       0.02638493      -0.03792935       0.98984677      -0.51394057      -1.41512740       0.02194489      -0.05602007
H       10.68311187       2.82541188      12.25514310      -0.11424218      -0.02227285      -0.01881098      -0.12005076      -0.06547683       0.94321316       0.01161231      -0.04226081
O        6.23447582       6.86161703       7.63489796      -0.16562351       0.83622122       0.06114895      -0.76148868      -0.12196779      -0.76573628      -0.02718720      -0.13379078
C        6.82715918       7.39544382       6.49466917      -0.22446122      -0.23073879       0.05435676       1.30253553       0.98351514       0.49261963       0.01221473      -0.19507232
C        6.05606084       8.61569713       5.96576390       0.01576300      -0.89854165      -0.01007906      -0.89491957      -1.25154757       0.41265532       0.02223630      -0.15110873
F        5.91138065       9.47273877       6.97328719       1.22711344      -1.15659373      -0.16935784       0.14232333       0.50188440      -0.07498721      -0.01176655      -0.27029982
F        4.79638998       8.30677388       5.54174121      -0.72333167       1.09696005       0.00663140       0.60237360      -0.12489082       0.33470640      -0.01212961      -0.25480556
F        6.69184386       9.16195781       4.95853210      -0.39667242       0.63536199      -0.34123611       0.44996411       0.72710401      -0.51665103      -0.00908202      -0.26370120
C        7.10801744       6.25460321       5.49373727      -0.61518092      -0.62593263       0.09307667      -1.28059244       0.23241973       0.85278535       0.02360989      -0.09793995
F        5.93730065       5.54962510       5.38447584      -0.75916784       0.39727338      -0.35705544       0.40525794       0.36218667      -0.78608298      -0.00852767      -0.26614985
F        7.95779754       5.43800929       6.05875539      -1.39311449      -2.04898595      -0.41480113       0.98463309      -0.97955799       0.48788863      -0.00917547      -0.21787880
F        7.58991856       6.58314248       4.30961899      -1.55906007      -0.41778166       0.72459929      -0.41985446       0.26348549      -0.26928955      -0.00809484      -0.26603734
H        5.38775921       6.50590709       7.31756988      -0.00879712      -0.01843938       0.09239866      -0.02694858      -0.14706391       0.53641206       0.02613374      -0.02409874
H        7.79019611       7.81819787       6.88306878      -0.03070060       0.05164353       0.15396131      -0.49552959      -0.36418265      -0.78760707       0.01294942      -0.02687903
192
Lattice="14.231541889809566 0.0 0.0 0.0 14.231541889809566 0.0 0.0 0.0 14.231541889809566" Properties=species:S:1:pos:R:3:momenta:R:3:forces:R:3:charge:R:1:energies:R:1 Built=T with=T Packmol=T charge=0 spin=1 external_field="_JSON [0.0, 0.0, 0.0]" energy=-18.088743209838867 stress="0.0006855325773358345 -0.003967224154621363 -2.8697926609311253e-05 -0.003967224154621363 0.0006968460511416197 0.000332033698214218 -2.8697926609311253e-05 0.000332033698214218 -0.0004498207999859005" dipole="-0.8406684398651123 -0.9107108116149902 -1.1005208492279053" free_energy=-18.088743209838867 pbc="T T T"
O       13.30919963       5.85805752       6.91385266      -0.17225786       0.07329864       0.17583717      -0.74720442      -0.81613529       0.59155631      -0.02649558      -0.11171250
C       12.50337937       4.69631759       6.75219031       0.06865385      -0.60239238      -0.47539769       0.71673608       0.22539875       0.56761402       0.01341096      -0.18273923
C       11.02199552       4.97176735       7.06793042       0.51648228      -0.27058687      -1.04180689       0.49805880      -0.15551859       0.21969524       0.02238470      -0.15454707
F       10.59028946       6.04143783       6.40780476      -0.34617702      -0.40097786       0.27247007       0.05101801      -0.11282364      -0.51994222      -0.01153319      -0.25728297
F       10.84934983       5.26744155       8.35992644       0.18736599       0.12033783      -1.20727974      -0.15217179      -0.38978705       0.52188617      -0.01046629      -0.26982117
F       10.26375737       3.90404689       6.74632666       0.27059909      -0.10835718      -0.70594595       0.17081816       0.43979105       0.20934331      -0.01054172      -0.28203619
C       13.22222983       3.45897070       7.45509129       0.11165082       0.50415049      -0.46844932      -0.80000687       0.02540305      -2.82017040       0.02403889      -0.05361179
F       13.68472125       3.67344420       8.65353261       0.64222111      -0.55612163       0.54260784       0.37314713       0.32110208       0.07765085      -0.00601071      -0.22538756
F       14.22836954       3.15212325       6.56723302      -0.58363929       0.07134249      -1.38892123      -0.35453388       0.08003468       1.37564445      -0.01212833      -0.24432682
F       12.42767307       2.34708921       7.49413669       0.52796302       0.63802094      -0.23986771       0.18144324       0.58270049       0.25441363      -0.01013313      -0.29147327
H       13.28797377       6.09976843       7.85919730       0.02807912       0.10407814       0.01575714       0.07621806       0.01623193      -0.38604456       0.02258949      -0.06336671
H       12.51890502       4.44919505       5.70292999       0.14795408      -0.08515462       0.04703772       0.10143629      -0.09353605      -0.42412138       0.01495229      -0.03412823
O        1.99899100       9.14515662       2.19036116       0.20250139      -0.03811173       0.13453629       0.64368522       0.73995328      -0.38034979      -0.02929247      -0.20481779
C        3.02713148      10.07778894       2.50398711       0.00570114       0.64182643       0.74360065       0.07376984      -1.26417303       0.67970181       0.01271140      -0.23135534
C        2.74469557      11.48382388       1.95797290       0.19035820      -0.00822280       0.15493527      -0.41892648       0.14436933      -1.76738179       0.02289191      -0.13803354
F        1.45089534      11.74980820       2.19801279      -0.31682574      -0.08135596      -0.79900266       0.62903923       0.39570749       0.43025172      -0.01066446      -0.24235919
F        2.85414052      11.56419220       0.58399646       0.74420245       0.91555576       1.18502209       0.33766687      -0.17155886       1.15066886      -0.01413023      -0.24103434
F        3.53565265      12.44490017       2.45261674       0.57328294      -0.30487079      -0.22297305      -0.67757440      -0.51146942      -0.39125299      -0.00698753      -0.19901448
C        4.39242964       9.46953539       2.11442950      -0.64397860       0.63400273      -0.63418209      -0.54249734      -0.07703326       0.50365186       0.02237182      -0.13368036
F        4.34999504       8.85446576       0.92941648      -0.73243279       0.38653573      -0.19657702       0.14753282       0.16243309       0.10526726      -0.00918694      -0.25285509
F        4.81484907       8.56309260       3.01127440       0.81437945       0.99777009       0.25851554      -0.47056440      -0.05227460      -0.25789285      -0.01103960      -0.24211968
F        5.28496415      10.42977431       2.10735568      -0.98908124      -0.10648721      -0.48491504       0.75708354       0.47412306      -0.57289267      -0.01006349      -0.21884222
H        2.18399794       8.79752263       1.29068838       0.09038769      -0.21019385       0.06892007      -0.12326666       0.23450753       0.70398366       0.02101633      -0.03744078
H        3.09241316      10.15902861       3.60332413       0.00695187       0.05502368      -0.00938432      -0.30154178       0.11966181      -0.39099824       0.01206301      -0.04611845
O        7.46305260      12.73699719      13.58733519      -0.03732790      -0.04537411       0.14363601      -0.08206657      -0.05060878       0.28543591      -0.03028698      -0.08815881
C        7.90235662      12.90629658      12.28849900      -0.90282968       0.78285192      -0.02324156      -1.60758042      -0.46093553      -0.00084767       0.01035267      -0.22665969
C        9.32499050      13.43517587      12.23962717      -0.55195474       0.03100603      -0.75445571       0.65164483      -0.04988900       0.29419968       0.02105752      -0.16390257
F       10.07620178      12.90487946      13.21797969      -0.77952157       0.44974574      -0.32439141      -0.38614759       0.00788478       0.05397155      -0.01340479      -0.25884449
F        9.42599873      14.76589459      12.34401850       0.12369504       0.84276134      -0.80167081      -0.25661045       0.13600823       0.24413265      -0.01092524      -0.26728919
F        9.89870307      13.07621770      11.10576409      -0.67366647       0.37973895       0.19336358       0.24393764      -0.20641734      -0.92660648      -0.01223088      -0.22426407
C        6.80917675      13.74498174      11.56226953      -0.19419899       0.63074136      -0.33003583       0.83815956      -0.37195447       1.16532993       0.02336876      -0.10409179
F        6.43243664      14.79692624      12.32110728      -1.47715414      -0.20785758       1.01625057       0.15200645      -0.08621667      -0.04909625      -0.00891535      -0.23675710
F        5.68989915      13.00330764      11.42808020       0.38922387       1.20853063      -0.95750783       0.17582014      -0.00469788      -0.45617449      -0.01127855      -0.29899091
F        7.24762078      14.17305806      10.41132228      -0.29177327       0.71101082       0.37157830      -0.26941478       0.24593508      -0.90203130      -0.00922450      -0.22776662
H        7.09627931      13.56513669      13.94087303      -0.14498336      -0.07516846       0.04386310       0.25878778      -0.31037891      -0.14560302       0.02595857      -0.02019246
H        7.88857532      11.90764432      11.79509933      -0.06281516       0.14111589       0.04349229       0.21464121       0.64079565       0.27469933       0.01100430      -0.04566466
O       13.47902457       8.76311697       1.56007642       0.59845680       0.17883278       0.43843037      -2.04692674      -0.74570876      -0.75873524      -0.03176194      -0.11022071
C       12.47062993       9.07208509       2.44850007       0.14752153       0.98705338       0.02417929      -1.29621363      -2.47190952       1.51883006       0.01168600      -0.15382345
C       12.81514745      10.22969427       3.36799894      -0.13499600       0.93925423      -1.48148809       0.96887946      -0.84912753       1.32639980       0.02226287      -0.06370008
F       13.31366203      11.13678566       2.59806804       0.60210847      -0.09928758      -1.38558755       0.43352398       2.02094674      -0.80836797      -0.00777359      -0.18224376
F       13.80572662       9.95014421       4.31385287       1.20697472      -0.29311146      -1.86296680      -0.84779459      -0.18863411      -1.08009827      -0.01752550      -0.26464215
F       11.81095524      10.71627924       4.08721452       1.83907882       0.79360376      -0.48585584      -0.45877361      -0.25840008      -0.21606746      -0.00858975      -0.23922646
C       12.08407145       7.73593723       3.30676744       0.56033332       0.56784305      -0.66383620      -0.05770901       1.17216158      -0.08427757       0.02246241      -0.04645836
F       12.91658709       7.44878518       4.30778459       0.51314962       0.03571952      -0.82170337       0.30417550      -0.17926978      -0.58469921      -0.01027432      -0.25531244
F       12.07076398       6.77283108       2.39182437      -0.42466046       0.42415707      -0.30240652       0.14314964      -0.84494019       0.02484426      -0.01012631      -0.25851816
F       10.85072880       7.72732814       3.88706251       0.68029878       0.59427757      -1.43401438       0.30993521       0.70850229      -0.63951606      -0.01515141      -0.26555294
H       14.31020179       9.09749349       1.80708288      -0.00266212       0.11377641      -0.10540371       2.08546829       0.81547773       0.95535028       0.01943271      -0.07290499
H       11.53311484       9.20782234       1.87511906       0.01394748      -0.08757360       0.25188490       0.42114672       0.63378572       0.33777973       0.01233892      -0.04680514
O       10.88433674       4.44521987       0.67087826      -0.15886333      -0.85424052      -0.06228316       0.05555549       0.01276465      -1.04045105      -0.02337437      -0.06060337
C       10.64662996       3.29966792       1.36420179       0.44317232      -1.30321134       0.00106522      -0.71586698      -1.20489907       1.79724622       0.01300763      -0.21142957
C        9.47039063       3.47391760       2.36989629       0.65697465       0.13875920      -0.71152270       0.52238882       0.08854089       0.82001770       0.02345042      -0.11586545
F        8.45490154       3.99823808       1.70239254       0.02754517      -1.31851212       0.58140007      -0.34830466       0.37026834       0.01751776      -0.00802326      -0.26121080
F        9.77368579       4.29216923       3.43338577      -0.03281326      -1.66933667       0.56115487      -0.00607100      -0.23447293      -1.11938286      -0.01333289      -0.27889359
F        9.05125583       2.33378681       2.92453172       0.42295001      -1.11409516      -0.98001014       0.09039319      -0.24891153      -0.28917211      -0.00942833      -0.25207728
C       11.90110243       2.70160572       2.00730984      -0.16721377      -0.03620632       0.83326196       1.10714614       0.61713809       0.87969011       0.02325791      -0.13272326
F       12.60334154       3.64891674       2.73686076      -0.77822327      -0.09438967       0.48911516      -0.67794091      -1.22036719      -0.95682561      -0.01199569      -0.27248260
F       12.69073990       2.25930478       0.98888348       0.04914681      -0.33135949       0.83357542      -0.44822642       0.20618004       1.42066598      -0.01025507      -0.24105664
F       11.62212521       1.67587748       2.86846501      -0.04351082      -1.14408309       1.28688553       0.48629689       1.07674170      -1.19398832      -0.01046758      -0.23664139
H       10.77493168       5.24718429       1.18344754      -0.04664992      -0.04622223       0.03436022       0.05331858       0.15278003       0.46316299       0.02473588      -0.05900773
H       10.34800580       2.44346488       0.74200653       0.22224915      -0.04003399      -0.13208682      -0.31181389       0.53417498      -0.47538581       0.01308657      -0.02083636
O        8.87560037       7.17693801      11.96132725      -0.32770583       0.03461714      -0.04983147       0.95156860       0.37782022      -1.00512934      -0.03008112      -0.05841523
C        8.62953486       8.46902507      12.36291279       0.29283413       0.10380733       0.49938189      -0.00274122       0.16294415      -0.68208069       0.01120892      -0.27036029
C        9.31295317       8.64507451      13.69349060      -0.29971762       0.25290984       0.55119817       1.07741630      -1.06698060       1.14899445       0.02241777      -0.11676809
F       10.53383279       7.96989860      13.69289288      -0.35186230      -1.79970728       1.61549428      -0.95453382       1.36099517      -0.31314939      -0.01626436      -0.25310674
F        8.67289710       8.04506458      14.71842889       0.25376245       0.05333654       0.53685665      -0.30072099       0.60974193      -0.21155024      -0.01087235      -0.27376589
F        9.49430587       9.93301058      13.95797514       1.01438057      -0.67599339       0.46055892       0.12711708      -0.14435208       0.41953433      -0.01081245      -0.24098375
C        7.12477295       8.76781989      12.34746728       0.58643873      -0.33527887       0.45723004      -0.49691725      -0.85872650      -0.17849581       0.02390137      -0.12807217
F        6.46799583       7.84051802      13.08741936       0.24284565      -0.80746622       0.65704757       0.34077641       0.42548820       0.01475000      -0.01033803      -0.25304610
F        6.61458767       8.65514469      11.10471531       0.93225106       0.14412997       0.33442145       0.49327919       0.11383706       0.12426988      -0.01382656      -0.26547989
F        6.83260507       9.98102369      12.77579686       0.60625303      -1.57687319       0.51991649      -0.01053581       0.35135472       0.47484511      -0.00902366      -0.26065511
H        8.14307301       6.64162291      12.18703334       0.06029982      -0.05108253      -0.11260056      -1.20127058      -1.22350061       0.37607151       0.02292003      -0.03295933
H        9.09847517       9.17526215      11.66044768       0.06073483       0.06437973       0.08005832      -0.04910520      -0.18258253       0.17945409       0.01124257      -0.05250666
O        3.76406614       1.25998482      12.03378451      -0.81232188      -0.01945199      -0.42290311      -0.42156821      -1.22531474      -1.11638737      -0.02604636      -0.09069998
C        2.56856851       1.64900804      11.36709055       0.11764399       1.25670145      -0.21738544      -0.43444407       0.50811601       1.68328488       0.01365804      -0.22062320
C        2.77812375       1.59713606       9.84950919      -0.06131855      -0.05490875      -0.13407372       1.30961013       0.08591069      -0.83079100       0.02283378      -0.10703333
F        3.36582162       0.42893927       9.55617446      -0.76851377       0.80818977      -0.35311111      -0.27040088      -0.83588803       0.36548147      -0.01289680      -0.15962985
F        3.70098677       2.46346457       9.42821797       0.55549775      -0.19233694      -0.04883227       0.14882439       1.15929604       0.16379803      -0.01157179      -0.20919457
F        1.72123522       1.76404614       9.05854334       0.31464339      -0.38964873      -0.75220025      -0.39964715      -0.09819720       0.62225413      -0.01115943      -0.26181975
C        2.20802553       3.07488402      11.96071025       0.01358902      -0.15407184      -0.49123677       0.56726003       0.55702901      -0.15649062       0.02367521      -0.10812767
F        2.80444471       4.08071287      11.27328246      -0.04909700      -0.51991826      -0.22546242       0.26637530      -0.44827476      -0.02196787      -0.01226816      -0.25329942
F        2.58305047       3.22954072      13.24167995      -0.72200672      -0.85375215       0.28735039       0.04987254      -0.75849164      -0.56351781      -0.00977943      -0.24962966
F        0.91448923       3.35010745      11.90725933       0.86953120      -1.50131490       0.87453705      -0.22898626      -0.62747866      -0.11515391      -0.01108886      -0.19731879
H        3.92864708       0.30141015      11.79539057       0.19469097       0.12957724      -0.32862402      -0.14829573       1.51709294       0.43038490       0.02323070      -0.04553507
H        1.72807815       0.98967112      11.65487643       0.00587455      -0.04398109       0.04733977       0.21573731       0.22840585      -0.33909863       0.01408811      -0.05439951
O        2.36320963       7.01240628      11.09831439       0.18868992      -1.61929982       0.65853511       0.18991496      -0.58208919       0.05288142      -0.03037804      -0.10932419
C        1.98872728       7.51951014      12.33947024      -0.01290065       0.74490978       0.56309458      -0.16451707      -0.79483616      -0.11436374       0.00862268      -0.23252900
C        2.67790103       8.84187957      12.56036773      -0.61863602      -0.15302021       0.11273452       0.73845053      -0.35319838       0.90080643       0.02212473      -0.14345135
F        2.52050886       9.69589573      11.54700976       0.31583029      -0.42279478       0.44012496       0.31243896      -0.45095327       0.79544908      -0.01188419      -0.23490019
F        4.01015821       8.61674624      12.76308485      -1.18557252       0.12378623       0.86334677      -0.95568550       0.67521226      -0.51217794      -0.01299956      -0.23407289
F        2.15555126       9.40318497      13.68647637      -0.44644870      -0.71301549      -0.15200892       0.31198788       0.32180899      -0.84756172      -0.00811585      -0.20555358
C        2.09219322       6.49827719      13.53652889      -0.40998895       1.01099868       0.23242381       1.28432012       1.64447737      -0.21760690       0.02513468      -0.09620306
F        3.31998490       5.93791741      13.53994399      -0.67992472      -0.97707548       0.67902436      -0.76152933      -0.38245338      -0.15215707      -0.00931603      -0.26336452
F        1.11936257       5.61724733      13.52532847       0.37045036       0.39567368       0.45686336       0.11337742      -0.49954438      -0.42407399      -0.00753926      -0.24154943
F        1.99274837       7.13602213      14.72937888      -0.59193721      -0.24542227       0.58626246      -0.16219699      -0.23106137      -0.08794059      -0.00548086      -0.21201910
H        3.22785210       6.56523658      11.12462557      -0.02695852      -0.22250999      -0.07289337      -0.29399335       0.20917755       0.22930163       0.02086163      -0.08064586
H        0.94980816       7.76024732      12.27107555      -0.29919983       0.19974539      -0.12778609      -0.66240239       0.05138049      -0.05543726       0.00945331      -0.01812626
O        4.09087658      14.68267163       6.96499302      -0.42554197       1.40167923       0.16655870       0.15244031       0.55993676       0.54318607      -0.02482782      -0.03122792
C        4.58991525      13.47584445       6.52282647       0.15699735       1.28185493       0.36814641       0.99790519       0.92683578       0.17890720       0.00902735      -0.20711748
C        6.10333745      13.41976873       6.88855225      -0.19021610       0.86598965      -0.50032208       0.76495624       0.97934270      -0.86470664       0.02246169      -0.12082367
F        6.26915000      13.17516723       8.18792476      -0.75681063       1.96089220      -0.30860171      -0.52841890       0.04746342       0.16800837      -0.01261126      -0.24550955
F        6.84297821      14.54883391       6.62500882       0.48616046       0.29227914       1.66494435      -1.17569423      -0.94885409      -0.00236317      -0.01279996      -0.27548397
F        6.67139825      12.41823277       6.22497763      -1.06566054       1.99680068       0.66272874       0.11964722      -0.38473079      -0.35000312      -0.01130203      -0.25725633
C        4.21527051      13.21112072       5.08281518       0.03712376       1.20494704       0.17039559      -0.61503530       0.38313985      -0.67196774       0.02334944      -0.12145193
F        4.94089235      13.99157204       4.28116821       0.71313519       1.53012772      -0.20650830       0.09640761      -0.04966665      -0.31552616      -0.00789272      -0.27432168
F        2.90474764      13.52813097       4.86558885      -0.40775991       3.01485484       0.42271424       0.50726897       0.46664730       0.24704564      -0.01112329      -0.22706515
F        4.30144242      11.94369305       4.70568167      -0.11840747       1.46055650       0.16501191       0.80886286      -0.42922315       0.55713904      -0.01074737      -0.21144253
H        3.48770708      15.10894081       6.35573148       0.02018021       0.04756662      -0.12958406      -0.19131881      -0.15670097      -0.32625449       0.02607062      -0.04490741
H        4.21502395      12.66950186       7.08043735      -0.22145294      -0.00538860      -0.08685911      -0.76883531      -1.17766762       0.79164362       0.00981543      -0.01329478
O       11.71227761      13.03634448       8.76674034      -0.80285709       0.53101556      -0.37134254       0.21106064      -0.13357398       1.88672602      -0.02810717       0.03771079
C       10.92133799      12.03085806       8.31592135      -0.34374459       0.45426426      -0.26297540      -1.35435438      -0.31715316       0.58175993       0.00951050      -0.23271263
C       11.53844101      11.36705932       7.09427167      -0.42846814       0.92513684      -0.52708249       0.71819568      -1.16433263       0.83865535       0.02133539      -0.12795708
F       12.58709215      10.53542053       7.39749964      -0.74005402       1.19506217      -1.96574465      -0.66479194       1.05192244      -0.29448870      -0.01574305      -0.21476151
F       12.02801906      12.33155263       6.31100080      -0.30054227       0.81870519       0.02468930      -0.09097949      -0.24375650      -0.57520473      -0.00905011      -0.27542883
F       10.64348636      10.59734323       6.48913666       1.22988751       1.03216094      -1.58951292      -0.06121691       0.02174973      -0.48715430      -0.01119036      -0.23354915
C        9.49263693      12.53970282       7.98106715      -0.63750676       0.43838521      -0.05151874       0.46035397       1.42517066      -0.46111989       0.02195745      -0.11423944
F        9.40215473      12.83152733       6.66381059      -1.21035203       0.26145865       0.67088009      -0.51855898      -0.29085153       0.40366226      -0.01002891      -0.21998581
F        9.25473851      13.72244716       8.60572689       0.67290989       0.93285866       0.34215313      -0.04292898      -0.91407108      -0.13507003      -0.01324833      -0.23810235
F        8.56277546      11.65665345       8.35531671       0.59528300      -0.49996152       0.37074903       0.08183734       0.15697297      -0.34285620      -0.01164259      -0.27520716
H       11.90153306      13.68978300       8.11992374       0.01520668      -0.07756348      -0.12647554       0.13545695       0.85687089      -1.15283704       0.02537607      -0.03523089
H       10.70399337      11.33553419       9.15209883       0.01655314       0.20717862       0.04337891       0.76688457       0.04087046      -0.52168697       0.01031733      -0.03734492
O       14.20080701       8.69773174      10.65038289      -0.26757683      -0.91355676       0.96185588       0.22377573      -0.96003079       0.93775320      -0.02617711      -0.05051964
C       12.91304150       8.73975409      11.17120677      -0.04218472      -0.32483162      -0.32641332       0.49265441      -1.12327743       0.81673396       0.01264455      -0.15268956
C       12.02495110       8.14296972      10.07083556      -0.27630072       0.32999664      -0.71470009      -1.01228774       1.12487888       0.32267922       0.02307442      -0.10870124
F       12.30157181       6.86742211       9.98004932      -1.23713286       0.70791658      -0.32713875       0.02724561      -0.94667882      -0.02306309      -0.00814183      -0.22169875
F       12.35094871       8.69505793       8.91640898       0.23187326       0.12968582       0.85642213       0.17694364       0.39833307      -0.93207479      -0.01001622      -0.22786821
F       10.68395062       8.30160239      10.18278060       0.43593001       0.45027454       0.42910418       0.59376937      -0.02603658       0.46661457      -0.01250689      -0.26130098
C       12.72882632      10.10790208      11.78247960      -0.20550684      -0.59211154       0.03829168      -1.11153316       0.60584533       0.59392452       0.02213445      -0.15134560
F       12.59050991      11.05870935      10.86573034      -0.31979996      -1.66161227       0.44472678       0.13567388       0.34045652      -0.62848109      -0.01068848      -0.25154114
F       13.77546292      10.40898605      12.55987273      -0.60010848      -0.73334876       0.81241284      -0.22543144      -0.21576861      -0.16845447      -0.01097766      -0.26734060
F       11.62330513      10.19462926      12.54475902      -0.01263874      -0.55522818      -0.50745032       0.07900158      -0.32845402       0.01415532      -0.01242304      -0.26015019
H       14.20229918       9.25064482       9.89529216       0.16497546       0.14021573       0.17385064       0.40164000       0.92305076      -1.46480334       0.02251234      -0.02434890
H       12.89710215       8.02026902      11.99958327      -0.18187031      -0.07046109       0.05756041      -0.21710336       0.13241726       0.01948638       0.01406458      -0.03065569
O        1.93515715      12.39554972       6.99467620      -1.02317750      -0.10046922       0.20900657       0.49215782      -0.19151613       1.42543125      -0.02146706      -0.06974693
C        2.04335974      11.65493716       8.18963769      -0.04620783       0.18923696       0.26652034      -0.12119794      -0.91745085       0.14484631       0.01500903      -0.14901286
C        2.10456547      10.11974473       7.91290288      -0.10640608       0.58452052      -0.45285398       0.07372740      -0.12870145      -0.25743181       0.02370121      -0.12980144
F        3.02830666       9.80984727       6.97732691      -0.95838141      -0.20274040      -0.45585427      -0.21486229       0.74570018       0.35008457      -0.01199578      -0.27210921
F        0.95338278       9.64315289       7.45910457       0.18553542       0.02468104       0.02962753      -0.79053867      -0.12374024      -0.04223505      -0.00951428      -0.28155354
F        2.43706745       9.43001950       9.01081248       0.90354945       0.76305135      -0.54205514      -0.15161806       0.34656203       0.01310471      -0.01128137      -0.24967344
C        1.02162549      12.13254695       9.33730958       0.41470809       0.37315772      -0.21705720      -0.09446409       0.63219607      -0.69549125       0.02359928      -0.04821420
F       -0.20249834      12.26120453       8.82027115       0.09564480      -0.20076660       0.62774847       0.45626214      -0.28172359      -0.36972964      -0.01158759      -0.21530576
F        1.37963977      13.36106644       9.74768696       0.46920326       0.17036347       0.43246307      -0.00928085      -0.36399904      -0.17004852      -0.01208176      -0.21079354
F        0.88011297      11.41198774      10.45511142       0.35285296      -0.17013755      -0.74975033       0.87966061      -0.42678672      -0.72288132      -0.01000582      -0.20850399
H        1.12759810      12.24826883       6.51058862      -0.04784739      -0.01659277       0.05593409      -0.74327528      -0.34755439      -0.07579543       0.02568340      -0.05647605
H        3.05460470      11.78227455       8.54511470      -0.09186454      -0.04009248       0.03566525       0.27261019       0.72465384       0.45998347       0.01363493      -0.00464675
O        9.06916586      11.60199695       4.26008898       0.75577620       0.95621203       0.19903957       0.02526332      -0.36603048       0.01767850      -0.02863811      -0.09226510
C        8.88486067      12.67028234       3.40459791       0.62064480       0.57422551       0.24298662       1.21051002      -0.98281133      -1.81431556       0.01188850      -0.26989600
C        7.73076008      12.43501890       2.46250460       0.25523677       0.27030001      -0.14588132      -0.96920073      -0.17667918      -0.74208707       0.02300532      -0.15289547
F        6.63083596      12.13713877       3.12743248       0.20166847      -0.28953849       0.87158977      -0.19613770       0.07597748       0.61538708      -0.01105592      -0.19030748
F        7.97575567      11.39227516       1.63858770       0.17571775       0.47618380       0.40820822       0.08238342       0.50848544       0.18354422      -0.01283198      -0.25401330
F        7.42297893      13.54455254       1.72627626       0.49725466       0.05135512       0.31324008       0.35506746      -0.44684678       0.57006818      -0.01058088      -0.20357710
C       10.16568007      12.91688720       2.54656375       0.04717871       0.02696533      -0.32146065      -0.06062505       0.72495365       0.76310551       0.02146110      -0.15091676
F       10.62270028      11.80164201       1.97452443      -0.64473532       0.21319397      -0.22524270      -0.09342122      -0.22780593      -0.12887453      -0.00878306      -0.26175687
F       11.13190943      13.39756254       3.34111144       0.19097305       0.42701188      -1.57286765       0.03546027      -0.25749215       0.04676890      -0.01205629      -0.24794884
F        9.96902691      13.82127047       1.58148600      -0.00513635      -0.52564623      -0.30968545      -0.04340408       0.01764966      -0.05063353      -0.01073638      -0.24886976
H        9.37737008      10.83070543       3.75656143       0.15356537       0.10859484       0.04542859      -0.12517525       0.17403933       0.14555594       0.02452243      -0.04211123
H        8.68369258      13.54360495       3.95001694       0.11435805      -0.05141652      -0.07025471      -0.20975150       1.24033976       0.93888694       0.01443726      -0.04787623
O        6.73777802       3.49493211       9.07429792      -0.85617372      -0.57884891       0.12269442       0.34334224      -0.04664665      -1.11862862      -0.02575827      -0.14336085
C        6.30331983       3.75339113      10.32763827      -0.51486862      -0.36057925       0.46546452      -0.45430803       0.73652625       1.14115155       0.01299178      -0.24739563
C        5.73338948       5.23394674      10.41917520      -0.08337281      -0.98805297       0.26296519      -0.58700418      -0.01195592      -0.34749469       0.02419512      -0.05269462
F        4.65217465       5.45557570       9.56652803       0.02949630      -1.40755923       0.72165115       1.80105317      -0.44122827       0.49820420      -0.01229028      -0.25852761
F        6.75283093       6.07799184      10.12107616      -1.45084460      -0.60703981       0.69907574      -1.00093007      -0.53752744      -0.12059834      -0.01040585      -0.21755324
F        5.25568671       5.61025120      11.61010737      -0.47113787      -1.49375995      -0.03899959       0.32278427      -0.34965160       0.12384323      -0.00901197      -0.25093055
C        7.39846578       3.55047033      11.37234818      -0.29891017      -0.18541137       0.60537326       0.93777150       0.42216879       1.33800387       0.02286266      -0.12384741
F        8.42228683       4.47825860      11.34264688      -0.53193795       0.16350990       0.19336696      -1.01291513      -0.99892509      -0.24311785      -0.01302951      -0.24743965
F        7.95626506       2.32503179      11.30634714       0.83493538      -0.20409190      -0.32677416      -0.30991820       1.27804089      -0.36955532      -0.01156341      -0.21883875
F        6.83392699       3.67097889      12.59503475      -0.91553584      -2.07491855      -0.25149031       0.24027283      -0.11582573      -0.18368258      -0.01165046      -0.25739497
H        7.42273553       4.14174913       8.89776663       0.06974634      -0.34681938      -0.13280461       0.47800627       0.18393415      -0.63987398       0.02446878      -0.02651529
H        5.58967266       2.98715140      10.59841662      -0.05364452      -0.05820040      -0.11962505      -0.65986252       0.19926997       0.07363354       0.01159163      -0.03636861
O       10.69367364       3.16989518      10.40811958       0.85128156      -0.69267187       0.63956182       0.17698589      -0.24577820      -1.69787383      -0.02805047      -0.03834415
C       11.44401445       3.04289330      11.55546485       0.20848373      -0.25147721       0.36565423       1.01726341      -1.20101488       0.00097173       0.01173366      -0.29006657
C       12.23695117       4.31690987      11.87321573      -0.26586809      -0.45584481      -0.50127043      -0.67916125       1.14910746       1.10571480       0.02033258      -0.17592691
F       11.36009260       5.36786502      11.92136556       0.75859923      -1.06584512       0.81142609       0.66733080      -0.75987840      -0.10030018      -0.01646189      -0.25969476
F       13.19616517       4.63661893      10.98342958       0.56941026      -1.75501796       0.00036834      -0.68990088      -0.27991253       0.51650947      -0.01174974      -0.22077265
F       12.78740710       4.22682768      13.10791103       1.93668870      -1.09793430       0.27147800       0.12277260      -0.00018310      -1.10731804      -0.01211326      -0.22251499
C       12.43895191       1.80619635      11.44611115      -0.18111676      -0.75678218       0.02144437       0.87436986       0.99067825       0.93700296       0.02182498      -0.06458343
F       13.43626472       1.96840330      10.52839422       1.75008803      -0.94379450       0.62350522      -0.17575060       0.59851956       0.80913830      -0.01316566      -0.21771038
F       11.82994931       0.76227162      11.00646115       2.25887885      -0.56011621      -0.85737735      -1.52902067      -1.65827549      -0.16976614      -0.00990475      -0.18794939
F       12.99971795       1.49827374      12.66595107       1.95836592       0.56242100      -0.55600186      -0.39935833       0.47539973      -1.31178677      -0.01293002      -0.27224705
H       11.15946410       2.90915924       9.57170587       0.03630613       0.06426972       0.16400484      -0.30159509       0.33020177       1.26513100       0.02304892      -0.05878667
H       10.70412563       2.83351729      12.36677573       0.11982380       0.03922988       0.15167477       0.91518086       0.25922441      -0.29400828       0.01145932      -0.04898285
O        6.24970114       6.91378208       7.66428237      -0.46815737       0.71960934      -0.10893913      -0.33043602      -0.19183540       0.16104889      -0.02676052      -0.09362968
C        6.85665360       7.42277808       6.52696760       0.12247951      -0.06022840       0.13427530      -0.59559143      -0.63281643      -0.46173710       0.01354182      -0.24829897
C        6.07284816       8.60905135       5.99011754      -0.38829037      -0.97315368      -0.08836313      -0.63411647       0.88722146      -0.65896428       0.02251340      -0.15499495
F        5.96776708       9.48480442       6.99730569       1.24253579      -0.93682816      -0.18376420       0.02472113       0.26589543      -0.02801443      -0.01313693      -0.25805655
F        4.80231947       8.36754760       5.56713359      -0.31312425       0.93438704       0.20726751       0.93392748      -0.45383117       0.46629548      -0.01112423      -0.24263853
F        6.71099419       9.21832864       4.96893033      -0.28959685       0.72641865      -0.34881125      -0.05154143      -0.28650698       0.42474079      -0.01211081      -0.26829284
C        7.10207224       6.25770402       5.52931533      -1.01509218      -0.47758656       0.53519985      -0.27887616       0.23511775       0.78329366       0.02399487      -0.12957618
F        5.94384966       5.58442388       5.39296259      -0.65935405       0.51003112      -0.67166755      -0.09080134       0.12359673      -0.51289499      -0.00690824      -0.27384216
F        7.96008354       5.40282999       6.07568687      -1.00634161      -2.33399636      -0.22104124       0.38057399      -0.29436931       0.23931864      -0.01070836      -0.24524882
F        7.57905008       6.60118106       4.34388550      -1.67133312      -0.27918205       0.56111467      -0.22537749       0.24653386      -0.20095035      -0.00861788      -0.26842672
H        5.40112726       6.50979259       7.44053117      -0.03227136      -0.06612643       0.23975218      -0.04324720      -0.02405414      -0.01208450       0.02609042      -0.04287350
H        7.77225856       7.83742749       6.89049340      -0.04146210      -0.05112796      -0.18564516       0.93259883       0.20066568      -0.22889808       0.01356750      -0.02614449
192
Lattice="14.29360467389533 0.0 0.0 0.0 14.29360467389533 0.0 0.0 0.0 14.29360467389533" Properties=species:S:1:pos:R:3:momenta:R:3:forces:R:3:charge:R:1:energies:R:1 Built=T with=T Packmol=T charge=0 spin=1 external_field="_JSON [0.0, 0.0, 0.0]" energy=-18.44032096862793 stress="0.004028119146823883 -0.0014654682017862797 0.0004674224474001676 -0.0014654682017862797 0.0027688127011060715 0.00014848775754217058 0.0004674224474001676 0.00014848775754217058 0.0022995788604021072" dipole="-0.9007960557937622 -0.5147920846939087 -1.3770110607147217" free_energy=-18.44032096862793 pbc="T T T"
O       13.35654045       5.87916446       6.95172157      -0.50716627      -0.38477280       0.20332293      -0.56111741      -1.04205310      -0.67298877      -0.02618603      -0.07817633
C       12.56938340       4.69820311       6.76876459       0.50645848      -0.24557172      -0.22339932       0.89353406       0.99301994      -0.09695029       0.01543071      -0.20111607
C       11.09256941       4.98127751       7.06205535       0.50251641      -0.31016037      -0.68008193      -0.44976091       0.00496343       1.06754899       0.02314537      -0.14336322
F       10.62850796       6.05680816       6.43845047      -0.24364014      -0.44982958      -0.09510736       0.35534945      -0.14933041      -0.91047215      -0.01137945      -0.24496506
F       10.90139418       5.29026434       8.36785063       0.21043904      -0.15780484      -1.02649622       0.23761491      -0.71065915       0.16788548      -0.01222594      -0.26056576
F       10.31691740       3.92101893       6.75868745       0.39237212       0.09859645      -0.62201864       0.34272507       0.37452468       0.08425390      -0.01061770      -0.27821979
C       13.27886132       3.49172314       7.44780280      -0.09124294       0.29020660      -1.26030294       0.02710399      -0.79171038      -0.31973004       0.02465488      -0.08453371
F       13.76193871       3.67727527       8.70165368       0.65867492      -0.38222215       0.10267501      -0.25560656       0.36361593      -1.78475642      -0.00936308      -0.22987476
F       14.27337661       3.16860396       6.56920573      -0.71605785       0.14917498      -0.67703248      -0.15867765       0.19300567       1.32021630      -0.01084649      -0.22835708
F       12.49635446       2.37760698       7.52191674       0.57567637       0.93068000      -0.15758457      -0.00112027       0.61285222       0.03548260      -0.01054375      -0.27713811
H       13.35766532       6.16600391       7.86741377      -0.00034611       0.05305504      -0.03511825      -0.16577145      -0.10319587       0.45329317       0.02250845      -0.07132620
H       12.64766049       4.42709046       5.70166804       0.13079090      -0.04505647      -0.07656928      -0.19242600       0.34177202       0.33779609       0.01553127      -0.02604959
O        2.01797873       9.19069481       2.20411996       0.41226100       0.46674338       0.29486409       0.10356699       1.34245324       1.15903950      -0.02643946      -0.18676241
C        3.03976540      10.13343444       2.54425915      -0.07021525      -0.06652389       0.52599523      -0.36741096      -1.25077510      -1.12468290       0.01404696      -0.24677156
C        2.75923933      11.53584692       1.95674508      -0.07188721       0.10304337      -0.55374821      -0.51753449       0.14019215      -0.83709395       0.02299441      -0.13744812
F        1.45383914      11.80140472       2.19000897       0.07361722       0.10615582      -0.55614065       0.86037016       0.37301022       0.47578040      -0.01138571      -0.24506529
F        2.88777334      11.63630637       0.62255918       0.88824775       0.73526083       1.50473203       0.29978830      -0.45939928       0.04092942      -0.01134248      -0.24268700
F        3.56125200      12.48837965       2.45589053       0.20774827      -0.51524900      -0.31974236      -0.74959540      -0.35150334      -0.02375560      -0.00774362      -0.19842447
C        4.38335916       9.53277882       2.10705177      -0.64001034       0.38155880      -0.09783370       0.56874764      -0.74785042       1.46758258       0.02291482      -0.10405823
F        4.35061165       8.90429190       0.92958982      -0.70576715       0.48966435      -0.08112228      -0.09748887       0.28473797       0.36968303      -0.00792732      -0.24755111
F        4.85250819       8.62663032       3.02786590       0.43214586       1.05045421      -0.03727668      -0.96219265       0.25416151      -0.82188427      -0.01351997      -0.23455007
F        5.28776071      10.47654605       2.10000137      -0.57922970       0.23038100      -0.80584481       0.72768837       0.78305864      -0.74165535      -0.00985475      -0.20726734
H        2.23582078       8.75842386       1.38300512       0.12378158      -0.15714012       0.15062487       0.28641576      -0.20412451      -0.56687754       0.02155841      -0.03933315
H        3.07927644      10.24195061       3.61558817      -0.09885270       0.09585043       0.07552464      -0.10495287       0.02370225       0.40873039       0.01228443      -0.05758356
O        7.49406619      12.79003438      13.65198889      -0.04434929      -0.16772428       0.16118859       0.04706232      -0.47345799      -0.19316247      -0.02950716      -0.09355805
C        7.88874947      12.99368826      12.34373654      -1.29368781       0.82005721       0.16188162       0.16361481       0.29658565       0.58705258       0.01087883      -0.24568404
C        9.34916754      13.49796418      12.26957286      -0.28478795       0.24634727      -0.31244414       0.29887784       0.81596851       1.21661901       0.02142249      -0.14561255
F       10.09701196      12.97295982      13.26676705      -1.02597153       0.46757793      -0.38684450      -0.62565184       0.08060972      -0.27603790      -0.01420113      -0.25824705
F        9.46851062      14.85099235      12.37855203      -0.01718907       0.69619188      -0.69778678      -0.28694001      -0.58794224       0.13740586      -0.01273765      -0.26632196
F        9.92629579      13.14120660      11.15232959      -0.52986266       0.22212325      -0.35556913       0.23172496      -0.36401886      -1.14952326      -0.01091598      -0.22108586
C        6.83733212      13.82719975      11.61304877       0.05160657       0.47874162       0.35144458       0.05168051      -0.11271283       1.23418200       0.02379899      -0.11288125
F        6.42413192      14.85579475      12.39977689      -1.30817837      -0.21986644       0.88345598       0.42139399       0.03024333      -0.36782697      -0.00913202      -0.24358904
F        5.72499155      13.09036798      11.45030593       0.37923083       1.11490109      -1.17535879      -0.13843003      -0.25880575      -0.47044140      -0.01136881      -0.28715086
F        7.27051524      14.25528466      10.46044852      -0.36518038       0.87867401      -0.05850024      -0.08371487       0.40779817      -0.60645819      -0.00885166      -0.22886395
H        7.07965013      13.57339387      14.01249352      -0.08373697      -0.06146580       0.03115834      -0.05564466       0.37214983       0.13856468       0.02552858      -0.02508231
H        7.91098819      12.03598933      11.86451684      -0.00614575       0.04098099      -0.03767802      -0.01542156      -0.68034828      -0.42019019       0.01168799      -0.03406673
O       13.54960898       8.80583314       1.57764707       0.50565251       0.28994716       0.38396437       1.12076855       0.98862350       0.49712974      -0.03459724      -0.06187476
C       12.52482854       9.12422844       2.47619813      -0.03664784      -0.36150556       0.77018203      -0.05156949      -2.35241699       0.99953586       0.01157393      -0.21459559
C       12.87807974      10.30088088       3.34026926       0.53422293       0.31941318      -0.53121384       1.66703176      -1.32710481       2.06532717       0.02300383      -0.05700789
F       13.38988694      11.19647593       2.56807126       0.77816871       0.94227609      -1.80008141       0.16754602       1.85634995      -0.75252628      -0.00703174      -0.18345435
F       13.89100151       9.98545801       4.27746288       0.72701263      -0.30748352      -2.40303978      -0.89512086       0.09138262      -1.14185679      -0.01970907      -0.25850409
F       11.90600085      10.78254607       4.09122907       1.50600707       0.74145979      -0.57967987      -0.67348355       0.05495213      -0.21333815      -0.00774775      -0.23771332
C       12.15853187       7.80165596       3.29587013       0.48205119       0.89534002      -0.52955125      -0.30874419       0.00464225       0.43164665       0.02326815      -0.08582585
F       12.98750865       7.48146068       4.30118927       0.59571219      -0.00034431      -1.15775523       0.09010756       0.06707604      -0.82683969      -0.01112069      -0.25582057
F       12.11404554       6.80911073       2.39452922      -0.27461653       0.15070757      -0.29205203       0.43193135      -0.20696276       0.04410252      -0.01143788      -0.25809255
F       10.91756676       7.78121020       3.86359687       0.82891550       0.98215113      -1.66638575       0.33900124       0.93593341      -0.39633155      -0.01545325      -0.25900102
H       14.44890403       9.22300928       1.83223261      -0.07632881       0.06912468       0.06762594      -1.75869584      -0.82563019      -0.13007960       0.02032860      -0.08371443
H       11.57966095       9.29357850       1.97924281      -0.09245815       0.26786041       0.05750366      -0.14924306       0.53477979      -0.57735670       0.01283593      -0.04393551
O       10.92724929       4.43978332       0.66748724      -0.14194004      -0.75904090      -0.23518199       0.02397155      -0.08339868       0.21267638      -0.02529611      -0.07348581
C       10.70418617       3.25637030       1.38445373       0.11632875      -1.33766365       0.57475682      -0.53933609       0.87353218       0.38136858       0.01372191      -0.26342338
C        9.53916187       3.48905979       2.36280105       0.57114795      -0.27384067      -0.08944990      -0.82297397      -1.53759074       1.43688977       0.02440877      -0.09420403
F        8.49103491       3.98486318       1.72434045      -0.04728011      -1.04281840       0.52825446       0.09115103       0.59625757      -0.13080199      -0.00773462      -0.25640917
F        9.81596834       4.26681208       3.45472192       0.02816684      -1.72040539      -0.08970364       0.25370455      -0.07037444      -1.37646222      -0.01205455      -0.26808703
F        9.10298737       2.31519178       2.90973122       0.54900248      -1.06847933      -1.15916047       0.39619178       0.22245151      -0.43120408      -0.01277790      -0.23955049
C       11.95788077       2.71413318       2.05672321       0.37610898      -0.02879927       1.07646122       0.77019417      -0.59500957      -0.01919335       0.02411693      -0.12926146
F       12.63425430       3.65497367       2.75591926      -1.05556008      -0.63543470       0.10038796      -0.39982039      -0.85604000      -0.48918551      -0.00859109      -0.27767003
F       12.74431033       2.26224595       1.02430207      -0.18035160      -0.19578273       1.58201673      -0.38538110       0.28599244       1.60422099      -0.01108358      -0.23289113
F       11.67515374       1.66195105       2.90601274       0.23817630      -0.46317091       0.64883412       0.65680331       1.49123383      -1.19173002      -0.01157546      -0.22860862
H       10.81454994       5.22502949       1.22869751       0.03175696      -0.18175174       0.07880978       0.21863128      -0.25364071      -0.06207911       0.02421431      -0.05951626
H       10.45206296       2.48245367       0.64962897       0.01032147       0.11774910      -0.19176831      -0.42987347       0.08247077       0.32108721       0.01341121      -0.03738257
O        8.90718717       7.20876226      12.00622078      -0.33816525      -0.17165361      -0.35207916      -0.80733079      -1.11725831      -0.33655792      -0.03099435      -0.02919272
C        8.67804723       8.50878426      12.43116640       0.20429293      -0.06121160       0.26461893      -0.37294397      -0.94087231       0.01306763       0.01107675      -0.29300278
C        9.35367543       8.67897859      13.78559230       0.31123136      -0.48715744       0.96169616       1.18367290      -1.66720831       0.35645092       0.02281872      -0.10005605
F       10.56444581       7.96779833      13.79170603      -0.82314725      -1.03422518       1.39481657      -0.87123269       1.53144550      -0.43175784      -0.01744451      -0.24664378
F        8.71457871       8.08556123      14.79561153       0.01499123       0.36185668       0.49998085      -0.66191530       0.58589578       0.18452027      -0.00985367      -0.26406920
F        9.56252320       9.95879804      14.03357687       1.05736457      -0.65867261       0.68659064       0.13810855       0.07261637       0.53451133      -0.01032333      -0.24176873
C        7.17349382       8.78315723      12.41710313       0.26602295      -0.77026919       0.29916068      -0.63004708      -0.72601300      -0.34970626       0.02375101      -0.13097107
F        6.50520396       7.85716942      13.16058551       0.46643981      -0.53890741       0.55851906       0.52193892       0.53338873      -0.31952381      -0.01074205      -0.26406866
F        6.67066651       8.69684993      11.16325192       1.17042301       0.14212989       0.46659718       0.49826050      -0.12238552       0.37307596      -0.01421835      -0.26741406
F        6.87760330       9.98760052      12.84843238       0.55833363      -1.24368675       0.80244418      -0.11981530       0.75294209       0.67012793      -0.00929876      -0.25798935
H        8.15288663       6.58954253      12.20783527       0.08028399      -0.04170527      -0.08039143       1.05704701       1.08437383      -0.16603734       0.02353332      -0.05046120
H        9.15865723       9.22075963      11.76467942       0.03300549      -0.02264842       0.10054045       0.03777907      -0.00011705      -0.22780868       0.01122378      -0.05566635
O        3.75313316       1.26361457      12.06752832      -0.97750278       0.21117868      -0.66147446      -0.32966182       1.71859241       0.20426309      -0.02720901      -0.09993879
C        2.57913287       1.70466893      11.42201279      -0.10006527       0.98874750       0.34533572       0.08704150      -0.97084838       0.14241508       0.01297874      -0.23178342
C        2.79925763       1.60600360       9.87938925       0.44149709       0.22262141      -0.46106444       0.61166018       0.98209572      -0.33762836       0.02319050      -0.09735151
F        3.35986010       0.44504392       9.59125999      -0.79135656       0.25518141      -0.15245835       0.13571368      -1.27883685       0.40858769      -0.01149278      -0.15517405
F        3.73180267       2.47624160       9.46892626       0.56286875       0.33101433       0.00425891      -0.03256938       0.95396590       0.00842863      -0.01158877      -0.21744585
F        1.73477919       1.76148871       9.08299812       0.17660297      -0.38704714      -0.40142598      -0.10657945       0.08398099       0.73250294      -0.01214501      -0.26279786
C        2.22461270       3.08784674      11.99554974       0.32543121       0.12591764      -0.26121179       0.56647235       0.47787976       0.95752525       0.02387189      -0.13770409
F        2.81708853       4.08298459      11.31656463       0.08242492      -0.64667877      -0.22842024       0.28630680      -0.06043376      -0.01677182      -0.01044756      -0.26399213
F        2.57672999       3.21715516      13.30214497      -0.60786436      -1.17387636      -0.10399817       0.39248791      -0.56826943      -0.89359915      -0.01151925      -0.24673341
F        0.93785572       3.32307381      11.98002459       0.57857967      -1.67921659       0.70278641      -0.81877339      -0.20422828      -0.50328153      -0.01037952      -0.18063305
H        4.03075679       0.43738154      11.70984115       0.20468936       0.13392531      -0.33251923       0.24387334      -1.12589371      -0.48133552       0.02172782      -0.05143311
H        1.77008638       1.02392654      11.68137381       0.07869950       0.15250735      -0.12638173      -0.41693208       0.09095106      -0.12032285       0.01371715      -0.04730473
O        2.37820238       6.99197213      11.16888928       0.00470918      -1.59691208       0.83090811      -0.97473699       0.53475600       0.61967814      -0.03104885      -0.06818844
C        1.98324548       7.57280511      12.40946954      -0.76116001       0.20308042       0.13275376      -1.13804364      -1.45286822      -1.22562599       0.00973985      -0.24913105
C        2.67365358       8.87227619      12.62794896      -0.14188220      -0.21629284       0.47147117       0.96136415      -0.01715265       0.42263848       0.02213452      -0.16767554
F        2.54105414       9.72486736      11.61305341       0.40244100      -0.58840032       0.74410639       0.07819396      -0.25009179       0.47286922      -0.01245029      -0.24387389
F        3.99214962       8.66129058      12.83774577      -1.50173698       0.38966743       0.61408142      -0.31466830       0.38516772      -0.39927524      -0.01236452      -0.23517096
F        2.15484721       9.42850279      13.73791231      -0.36044930      -0.47614388      -0.43408986      -0.00888593       0.59960967      -0.24903652      -0.00887899      -0.21863282
C        2.09702139       6.57710044      13.60385063       0.15799425       1.25908250       0.19857591       0.81647331      -0.66547191       0.09030117       0.02552103      -0.12096854
F        3.31110400       5.93848496      13.61508849      -1.14841340      -0.89727313       0.55121594      -1.07498384       0.60299116      -0.31120524      -0.01100000      -0.25865352
F        1.13473208       5.65018321      13.59289087       0.45676741       0.32126518       0.19005256       0.30243605       0.26362407      -0.61793947      -0.01007698      -0.24129269
F        1.98553424       7.16022110      14.80833772      -0.62165099      -0.25188972       0.55965154       0.01085245       0.20823911       0.01643315      -0.00382661      -0.20574455
H        3.20721176       6.50992959      11.18342052      -0.04573159      -0.15042028       0.14229187       0.36210510      -0.03999644       0.56399369       0.02038686      -0.08951831
H        0.90407045       7.84740661      12.28136561       0.24033816      -0.03176180      -0.01793621       1.05030429      -0.54565722       0.29277658       0.00956404      -0.01328243
O        4.09540956      14.79414030       7.00183411      -0.45217155       1.66720483       0.19330964       0.04695689       0.34912199      -0.10590146      -0.02528785      -0.07856140
C        4.61835699      13.58642286       6.57017122       0.07055725       1.05575910       0.57497461      -1.03756404      -1.13649452       0.28194237       0.00897914      -0.19978526
C        6.12760007      13.52270882       6.89622542       0.00740153       1.26266880      -0.43248296      -0.03795809       0.51588112       1.01752508       0.02239343      -0.11565568
F        6.27365368      13.28271159       8.21689992      -1.00701324       1.88846026      -0.20858827      -0.54220974      -0.18510243       0.21721594      -0.01541441      -0.24433669
F        6.87843695      14.61556773       6.69515034      -0.01502028       0.04735620       1.46251855      -0.74309391       0.07632414      -0.70508128      -0.01061221      -0.26760772
F        6.67480884      12.51954996       6.26547366      -0.88676634       1.59267097       0.31913455       0.49085000      -1.02089858      -0.93995893      -0.00992300      -0.24675503
C        4.22979460      13.32132532       5.10479186      -0.19177062       1.35029081      -0.16244613      -0.22123513       0.24955505      -0.49636209       0.02378953      -0.11318293
F        4.98027374      14.09070354       4.29334935       0.62520329       1.38622600      -0.26791177      -0.37563372      -0.38067752       0.00888591      -0.00804236      -0.27514595
F        2.91188709      13.66651411       4.89917270       0.03362572       3.08275408       0.52558085       1.16079521       0.07003251       0.17096215      -0.01087874      -0.23681432
F        4.32151785      12.03266176       4.73440243       0.18782923       1.46816039       0.47957056       0.42912400       0.53734773       0.70544583      -0.01146923      -0.22162873
H        3.51836886      15.16757125       6.32115400       0.06447742      -0.07118488      -0.07613003       0.01601201      -0.05455197       0.19707769       0.02572007      -0.03396174
H        4.11984673      12.70217929       7.09664428      -0.08097928       0.12759287      -0.08638698       1.01430809       1.13980746      -0.39872980       0.00875589      -0.01635674
O       11.74242817      13.11451029       8.80066797      -0.50782502       1.02790347      -0.15872226       0.67053562       1.53581274      -0.65993232      -0.02961409      -0.00520916
C       10.94316625      12.10167781       8.34435045      -0.83025366       0.51214956      -0.19575651      -0.38297874       0.38586169      -0.14205509       0.00902413      -0.24674754
C       11.57877607      11.44168774       7.11264621      -0.07729313       0.31528342      -0.09944701       0.51503706      -0.97853220       0.68236864       0.02145872      -0.12623914
F       12.61980843      10.61807364       7.37870220      -0.91985763       1.60348498      -1.92401958      -0.03737849       0.62630409       0.34858152      -0.01540801      -0.22212353
F       12.07219942      12.40601198       6.33511053      -0.33931554       0.81674640      -0.29413992      -0.10577925       0.22021735      -0.65441239      -0.00918947      -0.27835271
F       10.71963003      10.67015490       6.47338312       1.01597987       1.01956411      -1.81420778      -0.67019051      -0.00216568      -0.51222712      -0.01117192      -0.23060447
C        9.51513508      12.62402303       8.01153273      -0.24893668       0.91794519      -0.08921258       0.90905315       0.36659351       0.37815931       0.02217326      -0.11063263
F        9.40855672      12.89275216       6.71166673      -1.46645703       0.16482926       0.73737419      -0.58478522      -0.06189206      -0.10794057      -0.00832775      -0.22605312
F        9.31126159      13.79999875       8.65092314       0.54469725       0.43340078       0.24363852      -0.41542894      -0.94948351      -0.21251410      -0.01249267      -0.23585917
F        8.61556212      11.69668055       8.39913525       0.59080811      -0.29089427       0.19935356      -0.00159196       0.68764335      -0.34429142      -0.01250193      -0.27845100
H       11.95659030      13.73117792       8.05587489      -0.04477130      -0.15621191      -0.07039543      -0.23017412      -0.64205611       0.91840649       0.02553334      -0.02662709
H       10.82582915      11.44245666       9.18274783       0.22577371      -0.05381893      -0.01071888       0.03141172      -0.81025863       0.14819664       0.01013902      -0.04106930
O       14.25753795       8.70629625      10.72484761      -0.02020664      -0.83076836       0.63637204       0.73732084       0.58265907      -1.24267757      -0.02467865      -0.03157184
C       12.96938571       8.75381983      11.21719590      -0.03065128      -0.76749314       0.18369572      -0.36419219      -0.20045257       0.74356663       0.01138732      -0.17139213
C       12.05886110       8.20119597      10.09451201      -0.53585471       0.70358827      -0.16813033       0.08453023       0.25504455       1.57109809       0.02242011      -0.11228111
F       12.32379594       6.90902020      10.01469842      -1.19012330       0.20060461      -0.36907120       0.02538290      -0.86590910      -0.15365115      -0.00994254      -0.23434971
F       12.41205114       8.74005078       8.96862891       0.32697873       0.45457447       0.09652128       0.17220381       0.85379994      -1.85281181      -0.00916757      -0.23182911
F       10.74398787       8.34974979      10.24070705       0.53610576       0.49692321       0.59895647      -0.19569838       0.27308130       0.28143948      -0.01115560      -0.26701042
C       12.76711540      10.13220881      11.84145862      -0.56122028      -0.42758346       0.31401837      -0.24244875      -0.01806967       0.38091376       0.02180262      -0.14262402
F       12.63829712      11.06765785      10.91970105      -0.22381333      -1.33461401       0.04153058       0.21550046       0.78646380      -0.90331364      -0.01057584      -0.25545335
F       13.81831086      10.43410459      12.63381880      -0.74577730      -0.83257471       0.64870862      -0.41695428      -0.22562645      -0.40899229      -0.01205529      -0.27876157
F       11.67321420      10.22258805      12.58725502      -0.09370067      -0.72066180      -0.40248291      -0.47476417      -0.35898665       0.41185072      -0.01137751      -0.25546408
H       14.37388865       9.36783286       9.98769302       0.22736852      -0.02182019       0.28341231      -0.18933636      -0.98006570       1.07848406       0.02301582      -0.04521079
H       12.85695328       8.05222859      12.05220878      -0.17483089       0.03856447      -0.06213211       0.22774270      -0.08091444      -0.06506774       0.01381643      -0.03714353
O        1.91395782      12.44482099       7.04062856      -1.03267155      -0.23467811       0.70865746      -0.69238770      -0.41849369       0.60522938      -0.02157173      -0.07901926
C        2.04852035      11.70555210       8.23628438      -0.07189039      -0.13091147       0.27644472       0.50424016      -0.12513998       0.19571324       0.01582953      -0.17846428
C        2.11052210      10.18359085       7.92894312      -0.03659324       0.32588461      -0.38314540       0.22493562      -0.76416373       0.52439618       0.02440559      -0.12260806
F        3.01598930       9.85270297       6.99780994      -0.99456353       0.22357410      -0.33519295       0.00516883       0.93988758       0.07635436      -0.01111705      -0.26228604
F        0.95733372       9.68559490       7.49242240      -0.19402785       0.02811358       0.04371184      -0.70765007       0.15104927       0.10898644      -0.00953514      -0.27781975
F        2.46943621       9.49334376       9.03581688       0.75765159       0.96070808      -0.57640832      -0.36534482       0.46198499      -0.16076504      -0.01216557      -0.25137627
C        1.04000706      12.20515332       9.36430719       0.22553529       0.52955384      -0.39883287      -0.57196987      -0.07107747      -0.05790275       0.02409988      -0.07616834
F       -0.19773807      12.30829658       8.87225717       0.34088482      -0.26757082       0.40500621       0.47200269       0.00845073      -0.51378566      -0.01158783      -0.22437000
F        1.39744173      13.42098602       9.79976706       0.43385208      -0.05259436       0.28960848      -0.09728258      -0.49013644      -0.37787560      -0.01090693      -0.21051386
F        0.89881062      11.45496183      10.47688974       0.80062294      -0.34218388      -1.08856847       0.96298981      -0.28908023      -0.71572661      -0.01054999      -0.21784110
H        1.06438426      12.26099115       6.58145869      -0.09307002      -0.11628187       0.18678126       0.56523752      -0.00843629       0.54585016       0.02598739      -0.05448050
H        3.05987635      11.89627134       8.64342584      -0.01328371       0.25287477       0.15784911      -0.42810592       0.23497164      -0.16300185       0.01404399      -0.02177549
O        9.13157814      11.68050628       4.28538323       0.72188580       0.90912671       0.23898664      -0.03647450       0.12654805      -0.01681352      -0.02875983      -0.10387141
C        8.95708447      12.74169296       3.41270881       0.87323860       0.42664165      -0.40728175      -0.33826861       0.98816872      -0.22412008       0.01153162      -0.26309097
C        7.76568325      12.49815501       2.46463509      -0.15802495       0.16410411      -0.15363343      -0.53007489      -0.20010315       0.69406521       0.02305726      -0.15833479
F        6.66529447      12.18377049       3.16596404       0.27982141      -0.17469489       1.00143870       0.45382065       0.34731385       0.02608018      -0.01277922      -0.21277232
F        8.01544009      11.45717234       1.65702430       0.19409520       0.68263177       0.44482317      -0.01998210       0.32624036      -0.03386422      -0.01189136      -0.25367600
F        7.46980219      13.60224517       1.74512641       0.59170292      -0.14550113       0.54166652       0.03175602      -0.30605611       0.34743547      -0.00934626      -0.21217784
C       10.21135165      12.98161927       2.55188961       0.02776179       0.36711656       0.00864857       0.04847995       0.54136616       0.40574256       0.02144826      -0.16274212
F       10.65219333      11.85661693       1.97652711      -0.64680532       0.04924162      -0.27972613       0.00468475      -0.33596727      -0.06555428      -0.00901814      -0.26783824
F       11.18624086      13.46531472       3.31620583       0.28289456       0.29693676      -1.45152672       0.36364633      -0.21629871       0.34041294      -0.01167447      -0.24166538
F       10.01176505      13.86857198       1.57964727      -0.06367656      -0.46035426      -0.37890778      -0.18778194       0.21200398      -0.22571734      -0.01083894      -0.24424478
H        9.48541341      10.92790222       3.80016660       0.13699776       0.05480849       0.04616401       0.00778559      -0.21217354      -0.03258624       0.02413712      -0.04234172
H        8.75807098      13.68286443       4.01328704       0.07981873       0.13936901       0.09082807       0.20075466      -1.07678115      -0.71266353       0.01377042      -0.05266104
O        6.74285677       3.49159524       9.11049161      -0.66729705      -0.57705813      -0.31672413       0.70736814       0.29557109      -0.72724283      -0.02702377      -0.08258440
C        6.30856979       3.76121368      10.39843286      -0.50164645      -0.09844106       0.67399668       0.41452730       0.29785356      -0.26108181       0.01301222      -0.30282304
C        5.74889372       5.21842014      10.47230474      -0.36791563      -0.84686398       0.12943031      -0.44046283       0.44135782      -0.14924896       0.02388263      -0.10371635
F        4.68381547       5.44034217       9.62918688       0.80047762      -1.60824619       0.85943223       1.25596559      -0.47312170       0.06690159      -0.01154476      -0.27262765
F        6.73951712       6.08549342      10.18217935      -1.81283958      -0.85107835       0.60215836      -0.54441851      -0.42983282      -0.23065719      -0.01090775      -0.22941247
F        5.26838208       5.59403502      11.66118577      -0.33000581      -1.65077778       0.10278397       0.18617451      -0.39095628       0.48100340      -0.00942344      -0.25359005
C        7.42704784       3.56038033      11.45496952       0.06936828      -0.14183527       0.86450467       0.36952999      -0.22547376      -0.34811127       0.02342670      -0.11689580
F        8.43841830       4.49548285      11.39621921      -1.06377531      -0.33476577       0.15276920      -1.09631205      -0.93575269       0.10272542      -0.01195584      -0.25591141
F        8.00992265       2.33872809      11.34532135       0.61753815       0.49079031      -0.45369336      -0.45973444       1.44052041      -0.16648680      -0.01277033      -0.22251011
F        6.84201061       3.63349214      12.64373685      -0.75473594      -2.03810800      -0.16172250       0.32938108       0.10011150       0.61422038      -0.00919540      -0.25186941
H        7.52863048       4.01712709       8.83081608       0.09863624      -0.30336211      -0.19251018      -0.76609343      -0.30608037       0.53456932       0.02470436      -0.05710891
H        5.53359947       3.00968913      10.60570898      -0.20252292       0.12824905      -0.02799251       0.14336404       0.50600952       0.23749365       0.01138378      -0.04959170
O       10.76191744       3.16324096      10.47001860       0.44371041      -0.60094597       0.65598575      -0.71703547       0.02835003       0.23035589      -0.02753940      -0.08906978
C       11.51458506       3.03448272      11.61906252       0.87421844      -0.75115369       0.20345173       1.79440475      -0.60103339      -0.76611918       0.01296424      -0.30169874
C       12.27933267       4.32703703      11.91919117      -0.11283026      -0.04597719       0.25597513       1.20919621       0.23115231       1.60580373       0.02102553      -0.16910669
F       11.43285555       5.35966609      11.99320191       1.00350755      -1.33845746       0.71452848       0.30308124      -0.32707614      -0.18439235      -0.01307432      -0.26573077
F       13.26303009       4.61055225      11.03451198       0.12316629      -1.79376025       0.23929427      -1.01964879       0.03087212       0.44222125      -0.01244709      -0.22672719
F       12.89183860       4.21729201      13.16313914       1.76378156      -1.05171109      -0.46139647      -0.57805490       0.12543067      -1.62704825      -0.01511576      -0.21699709
C       12.50041954       1.79584156      11.50527733       0.62717890      -0.13035335       0.37078094       2.02062917       1.05582690       0.23834753       0.02310250      -0.04057839
F       13.53723806       1.95694481      10.59559873       1.47732987      -0.59168966       1.01910541      -0.72584927       0.75751591       0.79641044      -0.01615898      -0.19935681
F       11.92888149       0.74012502      11.03176021       1.39612766      -1.37672965      -0.86213258      -1.57144904      -1.32599282       0.23245427      -0.00985701      -0.19164842
F       13.10301402       1.52153493      12.69914548       1.60855699       0.70062888      -1.10827414      -0.79179513       0.12971374      -0.86706263      -0.01209002      -0.26913142
H       11.26920041       2.94928171       9.69285490       0.31484252      -0.00366380      -0.04512395       0.46487135      -0.10200188      -0.49480128       0.02214156      -0.05467433
H       10.87727345       2.88065445      12.46885674       0.27090994       0.05609567       0.11363268      -0.46677721      -0.26533592       0.37688971       0.01178399      -0.05151889
O        6.26183484       6.96477251       7.69756163      -0.45638967       0.65502321       0.14598955       0.40023524       0.05016854       0.72864157      -0.02576644      -0.02753888
C        6.88324854       7.44373796       6.55459781      -0.20857211      -0.48246821      -0.16845784       0.00420922      -0.60169768      -0.50686759       0.01497797      -0.26686361
C        6.08043088       8.62123210       6.00503497      -0.43821493      -0.17824369      -0.45507448       0.51033866       1.94665921      -0.63825691       0.02286133      -0.12418357
F        6.02544394       9.50329367       7.02283543       1.18589799      -0.84458656      -0.20442724      -0.16512696       0.09234673      -0.06211454      -0.01434381      -0.24665162
F        4.82072050       8.42452376       5.59952938       0.08354948       0.62908014       0.40628809       0.55162537      -0.68450546       0.31383145      -0.00940641      -0.23653527
F        6.73166333       9.27376507       4.98546946      -0.40035092       0.40339719      -0.02130676      -0.36803123      -0.85980225       0.75153768      -0.01440623      -0.25898305
C        7.09334787       6.26697543       5.58016366      -0.82924560      -0.43164058       0.68895508       0.83830130      -0.11928330      -0.17590928       0.02401703      -0.15030439
F        5.95106269       5.62191388       5.39676779      -0.83010776       0.47434304      -0.82015013      -0.62845886      -0.23478304      -0.14748529      -0.00583359      -0.27058420
F        7.96962784       5.36654689       6.09740925      -1.00306432      -2.21675484      -0.16942824      -0.40847236       0.55802041      -0.02320511      -0.01255723      -0.26234972
F        7.56801042       6.62420175       4.37707714      -1.72380556      -0.17245121       0.58590784      -0.10265549       0.17504185       0.34990188      -0.01046625      -0.26822862
H        5.41690823       6.51398659       7.56471693       0.01760599      -0.01899434       0.09720853       0.12700468       0.12568086      -0.48591781       0.02621167      -0.05184128
H        7.88035153       7.86749179       6.82173501       0.18062536      -0.02515212      -0.21748664      -0.73094624      -0.37592471      -0.09670164       0.01379643      -0.04775904
192
Lattice="14.354016673502986 0.0 0.0 0.0 14.354016673502986 0.0 0.0 0.0 14.354016673502986" Properties=species:S:1:pos:R:3:momenta:R:3:forces:R:3:charge:R:1:energies:R:1 Built=T with=T Packmol=T charge=0 spin=1 external_field="_JSON [0.0, 0.0, 0.0]" energy=-18.719287872314453 stress="-0.0020973666105419397 -0.0031664730049669743 -0.00034653686452656984 -0.0031664730049669743 0.0008617650019004941 0.002304996829479933 -0.00034653686452656984 0.002304996829479933 0.0013486187672242522" dipole="-0.5813084840774536 -0.36197972297668457 -0.9762759804725647" free_energy=-18.719287872314453 pbc="T T T"
O       13.39470802       5.88644469       6.98374939      -0.62730842      -0.66477996       0.06146486       0.08352202      -0.01496732       0.21051937      -0.02567558      -0.08452424
C       12.64898489       4.71878407       6.78605461       0.68203669       0.28540154      -0.29469554      -0.33076444       1.03076839       0.23482144       0.01523842      -0.21982932
C       11.15411141       4.99057155       7.07563944       0.20496689      -0.24532393      -0.11877131      -0.56015790       0.23107406       1.01972079       0.02331915      -0.12943538
F       10.66998804       6.06969907       6.45720203      -0.00436156      -0.53836729      -0.55974098       0.57512397      -0.23572241      -0.94112796      -0.01237067      -0.24493155
F       10.95483864       5.30380440       8.37778743       0.36915615      -0.52650630      -0.93031220       0.36820817      -0.76077306       0.25188363      -0.01230297      -0.25650802
F       10.37291023       3.94205109       6.77160564       0.56435624       0.22466260      -0.59238141       0.35008851       0.12353954       0.01039282      -0.01041669      -0.27675417
C       13.33369411       3.50962239       7.43250902       0.06042572      -0.12724696      -0.86635854       0.41821906      -0.67592442       1.57083809       0.02503152      -0.07351919
F       13.83455700       3.68551464       8.72753346       0.43585628      -0.17294581      -0.99760201      -0.52215910       0.47203535      -2.46784592      -0.01310781      -0.22528732
F       14.31549689       3.18674167       6.58677099      -0.63359205       0.19832989      -0.16667895       0.51666796      -0.03200747       0.66056138      -0.00880297      -0.22340544
F       12.56306618       2.41478299       7.54934489       0.45879126       1.12696293      -0.19848646      -0.46839973       0.17132209      -0.19508900      -0.00955863      -0.26925457
H       13.39061305       6.19027441       7.91164788      -0.09744540      -0.09337299      -0.00378180      -0.18217421      -0.42137238      -0.32178777       0.02305136      -0.06875674
H       12.73479753       4.46937262       5.73349962       0.00534823       0.12631251       0.04747699      -0.22558050       0.18204734      -0.30662709       0.01512305      -0.01408116
O        2.03982868       9.25073492       2.22755860       0.45170902       0.78389380       0.49066906      -0.03217658       0.00602528      -0.13343808      -0.02911942      -0.19983009
C        3.04536973      10.16521264       2.56769599      -0.28365694      -0.35337434       0.16483294      -0.35286540       0.16372791      -0.40550190       0.01203346      -0.24701291
C        2.76406460      11.58793083       1.94098967      -0.22222330       0.00077480      -0.44672528      -0.04566488      -0.54132664       1.18898416       0.02276922      -0.11119382
F        1.46700019      11.85643316       2.18783957       0.44675336       0.29384541      -0.33345082       0.61497718       0.40142661       0.39492804      -0.01195026      -0.25467250
F        2.92453990      11.70127681       0.65990932       1.00133619       0.47985674       1.00805169       0.21780719      -0.52284503      -1.95404613      -0.00837250      -0.22051941
F        3.57704937      12.52632862       2.45872186      -0.14100243      -0.60509590      -0.23031637      -0.65082264      -0.06124374       0.37620932      -0.00938730      -0.20162526
C        4.38471730       9.58164421       2.12680725      -0.14061188       0.07120846       0.59724804       1.26578689      -0.35203326       1.10936844       0.02349136      -0.11112477
F        4.34990671       8.95636587       0.93438787      -0.77813811       0.62449486       0.17316401      -0.22039856       0.28207803       0.68237209      -0.00810902      -0.24636708
F        4.87785773       8.69143438       3.03445558      -0.05230590       1.11779723      -0.42781551      -0.90169990       0.01416429      -0.65825987      -0.01251025      -0.23729959
F        5.29902092      10.53138152       2.08357144      -0.31249746       0.56364914      -1.13676023       0.30758196       0.54315418      -0.61179417      -0.01065996      -0.21471076
H        2.31901029       8.72660522       1.44878247       0.12562884      -0.05428503       0.20960148      -0.24507742       0.44733182       0.50372338       0.02187954      -0.03783248
H        3.04261571      10.32471192       3.66405969      -0.08247462       0.04854380      -0.03240426       0.15570223      -0.16884664      -0.56900251       0.01144245      -0.06050306
O        7.52310811      12.83786901      13.71384416      -0.17718369      -0.16223069       0.13292534      -0.46984339       0.26820183       0.01611480      -0.02849633      -0.10101580
C        7.87838949      13.07770342      12.40556527      -0.68659823       0.44347286       0.24130533       1.97876656      -1.39687562      -0.15047424       0.01131863      -0.21058668
C        9.37839971      13.57350677      12.31961875      -0.25404310       0.63861428       0.15939546      -0.14466451       0.61873168       0.47266570       0.02190008      -0.13794696
F       10.10947944      13.04032650      13.31111899      -1.29363249       0.50017283      -0.51039288      -0.47922602       0.08047868      -0.18954989      -0.01353986      -0.25791824
F        9.50639022      14.92734231      12.41378391      -0.14237423       0.34308856      -0.62032321      -0.22386216      -0.71394318       0.15103818      -0.01279130      -0.26524699
F        9.95539216      13.20041243      11.18432296      -0.49760251       0.07891288      -0.74534355      -0.18071228      -0.15345599      -0.35080808      -0.01223490      -0.23230785
C        6.86576922      13.90564971      11.68430154      -0.14138399       0.53278172       0.60670755      -0.75222832       0.28950351      -0.21743575       0.02425568      -0.12448828
F        6.42072182      14.91353347      12.47236163      -1.04123596      -0.15193869       0.67243229       0.55229050       0.24862546      -0.40148133      -0.00823459      -0.24383105
F        5.75773327      13.17241526      11.46588740       0.27331560       0.94141609      -1.33979185      -0.22673103      -0.34573108      -0.25328398      -0.01191182      -0.27346590
F        7.29144017      14.34035082      10.50166268      -0.38934463       1.02199493      -0.07610577      -0.05092755       0.23536271       0.54101062      -0.01032627      -0.23545997
H        7.07764255      13.61396042      14.09129165      -0.01571036      -0.06987703       0.02449214       0.23529176      -0.22321740      -0.08310108       0.02593977      -0.02482112
H        7.92890628      12.09166756      11.87936653      -0.07359524       0.10566840      -0.03905677      -0.19711980       0.65536600       0.30141348       0.01177600      -0.03215237
O       13.62029352       8.85484083       1.59857571      -0.03012363       0.28430216       0.47228648      -2.55073547      -0.77780265      -0.03031620      -0.03309177      -0.10598549
C       12.57281517       9.13398871       2.51977079      -0.21412696      -0.78239652       0.67031707      -0.07177746       0.69974291      -1.03804684       0.01266074      -0.23050763
C       12.97084820      10.34644918       3.35044087       1.29212314      -0.14899540       0.22528188       1.10127258      -0.50275314       0.72122031       0.02351917      -0.12663884
F       13.46582869      11.27628702       2.53002336       0.65095827       1.41662516      -1.88179471      -0.59975082       0.09826192       0.36234593      -0.00964417      -0.22364630
F       13.96384067      10.02072564       4.22772566       0.42862457      -0.21741435      -2.76855213      -0.10023860       0.21975154      -0.35810107      -0.01450446      -0.27457958
F       11.99122628      10.84758260       4.09217171       1.21952946       0.75770907      -0.68663736      -0.31369936       0.01807852      -0.25934607      -0.00813427      -0.24196379
C       12.22454102       7.86508588       3.29248500       0.18901159       0.45149719      -0.32490230      -0.80674464      -1.65099812       0.32360929       0.02429493      -0.12165479
F       13.05802773       7.51415044       4.28434365       0.60479599       0.10386443      -1.53854443       0.01652819       0.31463546      -0.73589915      -0.01061481      -0.25989014
F       12.16139972       6.84171950       2.39764122      -0.00825041       0.18306549      -0.24424715       0.60530788       0.24580361       0.10091592      -0.01323317      -0.25036481
F       10.98693646       7.84563907       3.83542888       0.94599403       1.46114988      -1.73156667       0.10723519       1.03598177       0.06359251      -0.01405568      -0.25272042
H       14.41207450       9.26187248       1.88789654       0.05794415       0.10351827       0.21848895       1.75196493       0.70353031       0.60875267       0.01930739      -0.06391390
H       11.64060874       9.47567585       1.98922847       0.22802756       0.21636059       0.01746641       0.78556734      -0.61257374       0.17265062       0.01301457      -0.04650479
O       10.96951417       4.43149585       0.66580584      -0.11192439      -1.04612606      -0.00010939       0.03499950      -0.59731579       0.96202165      -0.02705830      -0.08662444
C       10.74968828       3.22883019       1.41329971      -0.08312610      -0.60019265       0.48602542      -0.30509841       1.83595634      -0.36694098       0.01316373      -0.22064891
C        9.59158327       3.47607866       2.38176945      -0.01794465      -1.06943644       0.45489339      -1.28239346      -1.43316126       0.57894921       0.02419844      -0.11236255
F        8.52725322       3.97859826       1.74451000       0.10246582      -0.75104727       0.47476332       0.44813505       0.48719618      -0.03372148      -0.00941908      -0.26156962
F        9.86018950       4.24079530       3.45911384       0.19393969      -1.65684415      -0.65042197       0.38914171       0.21699658      -0.81389201      -0.01062688      -0.27515557
F        9.15799195       2.29859435       2.89009172       0.71283674      -1.00037779      -1.27396532       0.22402924      -0.16183923      -0.03890346      -0.01215472      -0.23963545
C       12.02591078       2.71551496       2.10395914       0.32660704      -0.50892221       0.68801501      -1.01893604      -1.12839437      -1.40769994       0.02418286      -0.11796369
F       12.65964541       3.65076551       2.76896483      -1.03788727      -0.79336382       0.08557794       0.41488993       0.19148143       0.43576038      -0.00618200      -0.27818277
F       12.79219809       2.26825680       1.07858826      -0.22797762      -0.09980342       2.22348121       0.25225198       0.02792549       0.99172127      -0.01053994      -0.24677274
F       11.73490805       1.66601125       2.92852629       0.56442465       0.19608925       0.19427819       0.64714110       1.04693127      -0.56506443      -0.01098653      -0.24419267
H       10.90034299       5.17574525       1.27970624       0.13484665      -0.06831065       0.10478128       0.25025353       0.18958059      -0.16613027       0.02298182      -0.05820174
H       10.45908317       2.53628145       0.62347826      -0.14190417       0.00837803       0.09597361      -0.18694776      -0.52120268       0.59889179       0.01334064      -0.03763460
O        8.93651184       7.23237815      12.04206257       0.04501488      -0.06272479      -0.66585891       1.41183460       0.72982895      -0.74051845      -0.03058321      -0.04531255
C        8.71974158       8.53102236      12.49664037       0.07538569      -0.60701588       0.38397922      -0.00228274      -0.96516955       0.26874956       0.01097152      -0.26300511
C        9.41515333       8.68189710      13.88193795       0.67571684      -1.05804269       0.79048108       0.16824028      -0.45795146      -0.91337484       0.02246779      -0.12528650
F       10.58387488       7.98381756      13.88313408      -1.05142618      -0.37610681       1.16832838       0.00606188       0.97772610      -0.38250878      -0.01431601      -0.26652396
F        8.74694185       8.13205623      14.87347728      -0.38053090       0.55852072       0.73243342      -0.91255140       0.22462857       0.76423424      -0.00895091      -0.26204759
F        9.63097033       9.98377127      14.11386785       1.10486159      -0.70157336       0.92579509       0.11463806      -0.38237220       0.45311749      -0.01228501      -0.25488859
C        7.20965940       8.78513251      12.47912218       0.06635560      -0.84719822       0.19778408      -0.06371388       0.44026405       0.01941468       0.02381649      -0.13799776
F        6.54768077       7.87938608      13.22827117       0.66888915      -0.33880545       0.36859803       0.26725683       0.19144070      -0.37657571      -0.00992060      -0.27601898
F        6.73159302       8.73593820      11.22462862       1.33273141       0.01768763       0.61614455       0.21210447      -0.36753282       0.22154967      -0.01313616      -0.27051196
F        6.92029241      10.00214310      12.92742736       0.49731294      -0.92347237       1.09091343      -0.07824506       0.40356040       0.52399004      -0.01113539      -0.26567295
H        8.23378643       6.63541406      12.23348306      -0.12559238      -0.08046229       0.03762319      -0.99684948      -0.59273547       0.40037632       0.02252452      -0.05322326
H        9.21534351       9.25057926      11.83294888       0.01767253      -0.03510150       0.00047747      -0.20589155      -0.19654554       0.02635404       0.01092717      -0.05993583
O        3.74170491       1.27898338      12.09753764      -0.67339738       0.22703195      -0.75936341       0.95449454      -0.50067723      -0.24044719      -0.02827017      -0.12218445
C        2.58953565       1.74161794      11.47851609       0.04796234       0.41493466      -0.07183184      -0.20529053      -1.52029228      -1.41164613       0.01093842      -0.19519150
C        2.83171265       1.63238949       9.90210243       0.48581767       0.71717846      -0.40022512      -0.33440614       0.78550488       0.47433183       0.02355072      -0.08083221
F        3.35539008       0.44572317       9.63040094      -0.62502592      -0.31005857       0.04402004       0.44207931      -0.83092773       0.41158217      -0.01082893      -0.16514926
F        3.76180598       2.50066865       9.50849187       0.53666401       0.72284968      -0.06346665      -0.03299639       0.66949570      -0.27870619      -0.01019606      -0.23474285
F        1.74677944       1.76000995       9.11567696       0.21501398      -0.28076910      -0.04238864       0.26995009       0.34431571       0.70930904      -0.01310497      -0.26392481
C        2.25085044       3.10861343      12.04634133       0.43562448       0.18240722       0.26211681      -0.15104926      -0.33463246       0.92152816       0.02368420      -0.13459721
F        2.83304258       4.08447619      11.35846931       0.23240430      -0.52321016      -0.22322706       0.31150019       0.50238836       0.06020799      -0.00880254      -0.27432656
F        2.57539700       3.19787318      13.35059555      -0.30101481      -1.32744662      -0.45990995       0.82020944      -0.12569034      -0.47177091      -0.01117056      -0.24406630
F        0.95118744       3.29371735      12.04499560       0.14714333      -1.63138905       0.38898863      -0.80340904       0.28545851      -0.69495660      -0.01115082      -0.17412923
H        4.11874000       0.51065459      11.60584214       0.00154027       0.34305662      -0.19041349      -0.56907976       0.74490905       0.54997540       0.02231101      -0.04598714
H        1.73386737       1.08383173      11.67550215      -0.22413786       0.08098981      -0.08556763      -0.05672555       0.11820891       0.07249060       0.01272481      -0.04744311
O        2.38292533       6.97632207      11.24663814      -0.25650881      -1.38285545       1.17178051      -0.02419145       0.16762531       0.82857877      -0.03116891      -0.10316167
C        1.96769840       7.59599405      12.45772420      -0.10975080      -0.63397989      -0.25650441       1.65582585      -1.31248260      -0.36369485       0.00995856      -0.27204120
C        2.68598959       8.90029627      12.70143526       0.08833062      -0.26653262       0.42962341      -0.27475718      -0.24559337      -0.53396714       0.02194409      -0.16655053
F        2.56222381       9.74984385      11.68336749       0.38848220      -0.63268070       0.85739927      -0.09739715       0.03780744       0.01751325      -0.01339085      -0.25223318
F        3.97095702       8.70938690      12.90588067      -1.32553381       0.45849479       0.48563567       1.03267539      -0.07894223      -0.06240847      -0.01001365      -0.22882633
F        2.15392443       9.46038678      13.78478964      -0.43774360      -0.12737448      -0.37508267      -0.29355910       0.74085516       0.40220946      -0.00922066      -0.22836262
C        2.11698901       6.64245116      13.67079269       0.29279183       0.44379734       0.26761671      -0.27726164      -2.23435187       0.16116478       0.02560434      -0.08833691
F        3.28951815       5.94578549      13.68465721      -1.54916781      -0.44013947       0.37565626      -0.48167104       1.04964161      -0.33191586      -0.00996715      -0.25261718
F        1.15328003       5.68520184      13.65118022       0.59719005       0.56816586      -0.12560851       0.20819108       0.61966252      -0.63077098      -0.01311522      -0.23226269
F        1.97846688       7.18614274      14.88544697      -0.55464175      -0.05777060       0.55720347       0.22305602       0.52196646      -0.04228947      -0.00283908      -0.20130467
H        3.21339513       6.47655694      11.36074690      -0.05962675      -0.05854393       0.35885783      -0.35676545       0.33543706       0.19640464       0.02074262      -0.08287371
H        0.95364214       7.84570238      12.33672525      -0.30531615      -0.04606717       0.00288045      -1.21056449       0.04526576       0.04653875       0.00961499      -0.02083125
O        4.10093455      14.90806641       7.03735589      -0.30338768       1.63592049       0.17500184       0.18100311      -0.12706584      -0.33513921      -0.02688097      -0.09864464
C        4.63311507      13.68284715       6.61661306      -0.16915313       1.11057279       0.13169925       0.30877382       1.62350726      -1.94897366       0.00924110      -0.18839109
C        6.15041326      13.63222943       6.92097894      -0.22178731       1.18359285       0.25058592      -0.79300511      -0.78493595       1.43557477       0.02264733      -0.08392747
F        6.27096108      13.38569438       8.24798315      -1.24330470       1.70900578      -0.05672301      -0.48953539      -0.42167610       0.41002256      -0.01639550      -0.23736677
F        6.90402443      14.68182671       6.75527708      -0.19071008       0.40201947       0.95370415       0.00503416       1.30956030      -1.21330237      -0.00816889      -0.24087837
F        6.68347294      12.60689354       6.29402796      -0.63011611       1.08618238      -0.14703386       0.40404338      -0.79047823      -0.80878770      -0.01080944      -0.25517139
C        4.23993213      13.43402450       5.11712403      -0.13161779       1.37455508      -0.22422685       0.42720079      -0.09271093       0.28750938       0.02436882      -0.09116783
F        5.01434945      14.18318378       4.30503991       0.36132335       1.15098264      -0.21994871      -0.61455363      -0.44856381       0.13750881      -0.00789560      -0.27697331
F        2.93271375      13.80331280       4.93397879       0.62279219       2.99950956       0.54116193       1.16409194      -0.17829615      -0.09093691      -0.00941514      -0.24290402
F        4.34649768      12.12605066       4.77112469       0.29944398       1.85871495       0.80261158       0.05508451       1.06824982       0.61449170      -0.01227866      -0.22823545
H        3.53910845      15.21937672       6.31617851      -0.05362403       0.04845286      -0.04518797      -0.13634542       0.27804986       0.31738150       0.02484202      -0.02189295
H        4.17869682      12.87408418       7.09447793       0.10848615       0.11550720       0.10665874      -0.43861085      -1.34956288       1.17788720       0.00907552      -0.03143740
O       11.77824046      13.20560873       8.83251036      -0.48525400       1.09345763      -0.07448424      -0.27949464      -0.42509055       0.16521713      -0.03029973      -0.03990530
C       10.95769471      12.17365104       8.37408846      -0.57056918       0.40975232      -0.00002166       1.37024212      -0.60938203       0.58818334       0.01019698      -0.21933812
C       11.62679968      11.49743587       7.14212136      -0.05143085       0.16761994      -0.02570941      -0.48379284       0.46323860      -0.46237308       0.02173710      -0.10737905
F       12.65134902      10.70640173       7.36424167      -0.67808520       1.67852274      -1.54121735       0.98403609      -0.24099675       1.06638265      -0.01325670      -0.20534888
F       12.11365741      12.48108625       6.35073429      -0.40751766       0.93450847      -0.53999613      -0.20663640       0.26811841      -0.34402019      -0.01160998      -0.28371376
F       10.78608251      10.74139731       6.45138736       0.59844047       1.00010886      -1.97013420      -0.90214193       0.01200048      -0.19903657      -0.01210850      -0.22655293
C        9.55329729      12.71322834       8.04788856       0.10873840       0.71494453       0.24273526       0.45207942      -1.03722692       0.75615358       0.02281933      -0.10637819
F        9.40723356      12.95162486       6.75736444      -1.68889903       0.19168949       0.57656060      -0.38268125       0.15666555      -0.39500695      -0.00779036      -0.22815463
F        9.36141307      13.86427543       8.69258296       0.27084557       0.06472718       0.16180560      -0.64195830      -0.50035095      -0.07250018      -0.01055202      -0.22801131
F        8.66727963      11.74405720       8.43761106       0.59530830       0.16493640       0.03603158       0.04782334       1.09312141      -0.27770218      -0.01449258      -0.27533692
H       11.99710381      13.73231444       8.06943388       0.06522917       0.06606225      -0.16934575       0.33396930       0.66924530      -0.38169372       0.02417978      -0.02335364
H       10.95909277      11.42093426       9.19222284       0.08503789      -0.11586977      -0.17974579      -0.53830051       0.45013934      -0.55305052       0.01003718      -0.05093822
O       14.32060833       8.71361458      10.78954532       0.12315940      -1.29680611       0.84184837       0.02211699      -1.25868118       0.74198073      -0.02476040      -0.02499676
C       13.01912969       8.76331900      11.27580672      -0.20194385      -0.49428049       0.32017568      -0.21702315       0.74192071       0.26462618       0.01239016      -0.19530068
C       12.09359436       8.26310441      10.14446925      -0.15720205       0.54046150       0.43993928       1.26115596      -0.78101742       0.60687333       0.02281738      -0.11499229
F       12.34526210       6.93956265      10.04655841      -1.18060664      -0.02549860      -0.43644857      -0.04984453      -0.01795580      -0.12564534      -0.01210881      -0.24462217
F       12.47333852       8.79383425       8.99853818       0.32140884       0.82020492      -0.62624153      -0.22158791       0.56227517      -0.83924389      -0.01050799      -0.26390523
F       10.80035595       8.40021709      10.30097284       0.26427591       0.69859851       0.70677809      -0.73745382       0.56184143       0.21220243      -0.00880933      -0.25433546
C       12.79941991      10.15598726      11.90567896      -0.42123223      -0.52494949       0.32038665       0.64011824      -0.29861602      -0.29194522       0.02235339      -0.13019717
F       12.68738205      11.08500979      10.96161889      -0.10910405      -0.95627608      -0.33993642       0.23722166       0.57316464      -0.57408857      -0.01087153      -0.26710576
F       13.85462765      10.45550570      12.70106762      -0.96718494      -0.91448836       0.41463246      -0.51334947      -0.16080794      -0.49187019      -0.01231191      -0.28179562
F       11.71581421      10.24516915      12.63356678      -0.46799849      -0.86416097      -0.10540813      -0.97059500      -0.27188638       0.69760191      -0.00968867      -0.24934341
H       14.53310706       9.40272623      10.17109413       0.19952826       0.19791528       0.11409184      -0.12893310       0.67278194      -0.46471074       0.02141775      -0.06072558
H       12.86343109       8.06238322      12.09573056      -0.00751835      -0.15229103       0.04464037       0.40046486      -0.24801210       0.06406088       0.01386014      -0.04247633
O        1.88838556      12.48764020       7.09756305      -1.05128756      -0.37659089       1.08238652       0.21986857      -0.20557773       0.72975290      -0.02286304      -0.11886334
C        2.06008655      11.75227969       8.28501585       0.15556358       0.05990643       0.39210037      -0.14749634       0.61307186       0.07174564       0.01526594      -0.17547321
C        2.12010811      10.23225075       7.95412296       0.05804273      -0.02819063       0.00924511       0.09957004      -0.48674127       0.92162299       0.02494900      -0.10794606
F        3.00380108       9.90596802       7.01850977      -0.90906372       0.66530552      -0.37706404       0.26368606       0.85164458      -0.24365449      -0.01015743      -0.25586164
F        0.95257318       9.72881280       7.52630465      -0.45552994       0.16932733       0.14455235      -0.34897405       0.41008323       0.32100201      -0.01054589      -0.28127331
F        2.49683890       9.56060409       9.05834853       0.55032832       1.10547244      -0.61639605      -0.39482671       0.11372940       0.03542149      -0.01165756      -0.25400281
C        1.04784668      12.27425937       9.38883242      -0.04002946       0.25269167      -0.30266442      -0.36676672      -0.93908721       0.34444472       0.02419586      -0.09285355
F       -0.18756236      12.35416182       8.91650809       0.47384346      -0.18453033       0.10201362       0.05301633       0.28761566      -0.69121808      -0.01068253      -0.23140499
F        1.41366271      13.47339969       9.84593354       0.35273090      -0.27231574       0.06837058      -0.22007379      -0.40770799      -0.48785663      -0.00996668      -0.21118313
F        0.92912179      11.49292878      10.48903603       1.23442603      -0.46223257      -1.37001920       0.82816005      -0.26830623      -0.44792604      -0.01139785      -0.23485160
H        1.03892547      12.25360269       6.72313501      -0.14626386      -0.13346986       0.19204388      -0.48970351      -0.01194721      -0.33452022       0.02475980      -0.04852588
H        3.00990809      12.06323161       8.71824135      -0.17575413       0.17682372      -0.00155403       0.33543450      -0.33733892      -0.18461308       0.01409008      -0.02736866
O        9.19281037      11.75774647       4.30895527       0.76574257       0.90093289       0.08156893       0.11830718       0.16135766      -0.40381378      -0.02972516      -0.09506280
C        9.02358156      12.82004542       3.41040011       0.48373719       0.55952370      -0.44782421      -0.86352736      -1.39160275      -0.60762721       0.01132000      -0.27765971
C        7.79017247      12.55560459       2.47902498      -0.16207899       0.05937993       0.39848018       0.49979186      -0.22325112       1.31440973       0.02347983      -0.14428701
F        6.70410287      12.23328657       3.20450229       0.55327251       0.02991397       0.92109218       0.60715318       0.44933897      -0.21681398      -0.01280829      -0.22573495
F        8.05381625      11.52462124       1.67482514       0.13918571       0.76627213       0.37922406      -0.19085653       0.08719481      -0.15007478      -0.01174000      -0.25403273
F        7.51584513      13.65478736       1.76794744       0.49047236      -0.20746290       0.62791540      -0.39066646       0.03272729       0.07997970      -0.00839610      -0.21758911
C       10.25697256      13.05439726       2.56397391       0.11043469       0.43814843      -0.02649982       0.26286256      -0.27780193      -0.55919421       0.02187690      -0.16659123
F       10.68055863      11.90643545       1.97779815      -0.64347179      -0.04351954      -0.24497931      -0.04080345      -0.00308668       0.19754796      -0.01090099      -0.27110091
F       11.24370718      13.52879365       3.29570902       0.52255056       0.22315150      -1.19246240       0.59091592      -0.06594192       0.59235728      -0.01061972      -0.23547874
F       10.05112811      13.91715168       1.57501848      -0.16554074      -0.29745568      -0.49714881      -0.20626459       0.41998363      -0.26646733      -0.01079005      -0.24213694
H        9.58102764      11.00040787       3.84789729       0.07840021       0.08099128       0.09158965      -0.10306261       0.06012281       0.03215477       0.02343259      -0.04819863
H        8.85096387      13.69345954       3.99027108       0.10511679      -0.15758202      -0.15137690      -0.29744929       0.88956785       0.43908429       0.01382409      -0.04672827
O        6.75155734       3.48863104       9.13749931      -0.83490852      -0.67153179      -0.28730532      -1.46413958      -0.63724339       0.83050776      -0.02803903      -0.03474526
C        6.32216454       3.77633898      10.46328529      -0.06311581       0.07709139       0.27314083       1.24567294       0.43502104      -1.13205457       0.01263757      -0.27251339
C        5.75646751       5.21074411      10.52136897      -0.37408147      -0.60866936       0.13301917       0.43655342       0.39696395       0.19220048       0.02305637      -0.14632411
F        4.72991112       5.41916478       9.69098932       1.13286209      -1.79413442       0.71195540       0.09463640      -0.38121086      -0.63547689      -0.01021603      -0.27677071
F        6.71943968       6.08762936      10.23897040      -1.87453113      -0.92156012       0.45112974       0.20654330       0.15316831      -0.34011859      -0.01146635      -0.23775631
F        5.28279789       5.57287467      11.71701861      -0.29779175      -1.80408179       0.43281568      -0.06812451      -0.34262189       0.84598470      -0.01015503      -0.26542082
C        7.46142872       3.56646857      11.52963718      -0.01243345      -0.30529419       0.31309403      -0.70427001      -0.35442087      -1.59938610       0.02374175      -0.10070372
F        8.44058251       4.50092020      11.44964749      -1.48393566      -0.66603459       0.27685842      -0.63957036      -0.38298804       0.38767681      -0.01070380      -0.26794559
F        8.05692088       2.36944991      11.38094315       0.40970131       1.06759526      -0.48716345      -0.31859082       0.84782058      -0.03561830      -0.01222144      -0.22900826
F        6.85370670       3.59743567      12.69848240      -0.57022891      -1.92193872       0.30361769       0.39638960       0.22114205       1.10585082      -0.00875585      -0.25085288
H        7.55981901       3.88871533       8.84276015       0.05992364      -0.18899505       0.05515253       0.75818062       0.70571023       0.30105582       0.02374482      -0.06533199
H        5.48715752       3.11873382      10.66770226      -0.08665017       0.18972264       0.10033312       0.16790569      -0.34750867       0.25432006       0.01113806      -0.05341724
O       10.82299226       3.15555462      10.52873949       0.69551129      -0.80454038       0.26331184       0.68539900      -0.42126897       0.01023492      -0.02806828      -0.12526733
C       11.61321597       3.01385928      11.67203084       1.41420623      -0.81707437       0.12007442       0.15140751       0.18350939       0.64842898       0.01255160      -0.25946683
C       12.34228602       4.33991877      11.99347644       0.69531034      -0.35571399       0.82883845       1.73196137      -1.39734745       0.63518929       0.02106371      -0.16195700
F       11.50758610       5.34751072      12.06132974       0.99060202      -1.29033760       0.64473764      -0.22238621       0.35838374      -0.03467280      -0.01118484      -0.27078700
F       13.31609476       4.58517000      11.08956584      -0.32786771      -1.63075114       0.38312306      -0.71661150       0.51064771       0.11315248      -0.01335029      -0.23766097
F       12.98757835       4.20929228      13.19768588       1.42120114      -0.92792135      -1.10206550      -0.58642840       0.29655111      -0.86006284      -0.01437641      -0.23125437
C       12.59688065       1.80382498      11.56616752       1.41398005       0.02469682       0.09728800       0.98726106      -0.40467978      -1.31503963       0.02378921      -0.07379121
F       13.62761524       1.95494740      10.67076817       1.09116663      -0.19955328       1.28153736      -0.63551521       0.78597844       0.24652456      -0.01545831      -0.19635111
F       12.00708732       0.70305661      11.05950977       0.83112583      -1.58304516      -0.52766963      -0.61363995       0.37460241       1.04298246      -0.01385101      -0.22569297
F       13.19490289       1.54594858      12.72109928       1.23173713       0.65305507      -1.23857321      -0.54669225      -0.29549229       0.35998410      -0.00929078      -0.25588015
H       11.41976619       2.98560364       9.77896920       0.02603214       0.12211803       0.27456607      -0.40955970       0.16090509      -0.00631136       0.02190453      -0.04400526
H       10.99888116       2.87901730      12.59102640       0.09238830      -0.11591620       0.05398939       0.02287963      -0.33745128      -0.82555437       0.01134769      -0.04381505
O        6.27908912       7.01543634       7.73961185      -0.12113478       0.73568394       0.43569954       0.64499968       0.16131347       0.28179988      -0.02572743      -0.04465649
C        6.90385551       7.45135014       6.57031349      -0.30419754      -0.66439078      -0.42887710      -1.09565485      -0.37255663      -0.61957413       0.01502740      -0.24547938
C        6.09732255       8.66775398       6.00806200       0.08068802       0.57575968      -0.56397752       1.37630582       0.84298080       0.22336265       0.02311016      -0.11140455
F        6.08001579       9.52259000       7.04701301       1.05242097      -0.74993951      -0.21178898      -0.27573776       0.29279077       0.04132969      -0.01449350      -0.24219683
F        4.84528440       8.47195200       5.63496309       0.18781911       0.29049274       0.47684829      -0.05999035      -0.61184096       0.01335128      -0.00873624      -0.24430262
F        6.74748924       9.31791916       5.01014803      -0.56451255      -0.00291752       0.26112843      -0.25102264      -0.66097534       0.29268405      -0.01323369      -0.26452893
C        7.09879239       6.27321877       5.62676751      -0.38197773      -0.59128869       0.36689675       0.69421268      -0.53209102      -0.99571598       0.02418270      -0.14245248
F        5.95042896       5.65579504       5.39835738      -1.16684351       0.28910216      -0.78846616      -0.71316183      -0.46006367       0.21232839      -0.00621137      -0.26625440
F        7.97386763       5.33708000       6.11832843      -1.30229693      -1.77007121      -0.21673777      -0.80528408       1.04912364      -0.16622692      -0.01298442      -0.26619250
F        7.55564536       6.64879863       4.41355403      -1.67232853      -0.09254038       0.81667733       0.23953485       0.14549351       0.53042799      -0.01157645      -0.26164553
H        5.45291722       6.54016783       7.58291307       0.03044883       0.00667028      -0.14290244       0.07911371       0.05990277      -0.35560209       0.02585503      -0.05082989
H        7.89481770       7.84291131       6.75186809      -0.17259988      -0.16377635      -0.13038850       0.20187704       0.15855138       0.54631174       0.01371207      -0.04417149
192
Lattice="14.419673780312642 0.0 0.0 0.0 14.419673780312642 0.0 0.0 0.0 14.419673780312642" Properties=species:S:1:pos:R:3:momenta:R:3:forces:R:3:charge:R:1:energies:R:1 Built=T with=T Packmol=T charge=0 spin=1 external_field="_JSON [0.0, 0.0, 0.0]" energy=-18.908550262451172 stress="-0.003471540519967675 -0.0012220758944749832 -0.0006702153477817774 -0.0012220758944749832 0.0008027188014239073 0.001975096995010972 -0.0006702153477817774 0.001975096995010972 -0.002103088889271021" dipole="-0.14919351041316986 -0.4964112341403961 -0.4027371406555176" free_energy=-18.908550262451172 pbc="T T T"
O       13.43923671       5.89494106       7.01827903      -0.40727629      -0.46804509       0.08966364       0.72061431       0.82824290       0.21334720      -0.02503834      -0.12428418
C       12.72639952       4.75869285       6.80779236       0.17110603       0.48540887      -0.23245848      -1.55630231      -0.39669904      -0.53965402       0.01375072      -0.18596634
C       11.20957973       5.00627215       7.11071072       0.06079220      -0.09400706       0.16824943       0.01047213       0.33120531       0.03906253       0.02289561      -0.12793869
F       10.72244986       6.08204464       6.46691517       0.28753221      -0.65331126      -0.94277899       0.59599030      -0.25842372      -0.62000847      -0.01351503      -0.25925183
F       11.01646827       5.31010640       8.39480440       0.50252828      -0.83830527      -0.66774996       0.16501096      -0.51379544       0.80689061      -0.01051955      -0.26473838
F       10.43679359       3.96596985       6.78743918       0.69157582       0.20503267      -0.57278977       0.20300041      -0.17199704       0.05142255      -0.01029102      -0.27824944
C       13.40046894       3.51748144       7.44808131       0.19212615      -0.16515322      -0.05899420       0.06955311       0.58527738       1.28080893       0.02442998      -0.07623626
F       13.90597336       3.70111486       8.72701387       0.20970814       0.08294829      -2.06408854      -0.31562117       0.56706351      -1.77459860      -0.01294897      -0.24913806
F       14.36959435       3.20544128       6.61520858      -0.19121402       0.09166069      -0.01783041       1.16381598      -0.36785120       0.01847029      -0.00825972      -0.22718371
F       12.62817980       2.45426000       7.57736438       0.08681049       1.00120322      -0.30498443      -1.00955296      -0.61943471      -0.21073717      -0.00832405      -0.26551944
H       13.39094388       6.14671195       7.94533499      -0.13225677      -0.14761197       0.06668227       0.05678251       0.14401180       0.33734241       0.02296223      -0.05374137
H       12.77416665       4.55702550       5.72867390      -0.07387939       0.12948837      -0.12516424      -0.11202660      -0.07004137       0.18812372       0.01407039      -0.02114435
O        2.05959880       9.31702820       2.25427391       0.13809888       0.75653611       0.63188988      -0.97815502      -0.40878150       0.20816259      -0.02617567      -0.21793792
C        3.04715684      10.20344295       2.58031395      -0.22358562       0.03641609      -0.16888242       0.64223450       1.21186948      -0.81651288       0.01160029      -0.22923304
C        2.76934663      11.63468346       1.94626302      -0.08636914      -0.30696537       0.27206209       0.55953693      -0.56313169       1.22962749       0.02267241      -0.10048185
F        1.48821033      11.92067238       2.19162707       0.63982270       0.47203863      -0.15193836       0.23436403       0.32759038       0.33258224      -0.01120431      -0.26107395
F        2.96468665      11.76361447       0.67439200       1.04662034       0.18867959      -0.14498458      -0.00181684      -0.67201817      -2.24400520      -0.00858025      -0.21240565
F        3.58597856      12.56802096       2.46728685      -0.41866831      -0.58997260       0.05444647      -0.48576888       0.05581833       0.75617671      -0.01041869      -0.20032939
C        4.41074349       9.62801122       2.16686104       0.37340513       0.14185103       0.73908260       0.57830107       0.71896857      -0.59415483       0.02409492      -0.11739270
F        4.34838465       9.01501203       0.94814888      -0.87133574       0.73085089       0.58159575      -0.17631869       0.17262802       0.95546180      -0.00995923      -0.24887398
F        4.89413300       8.75882603       3.03469552      -0.36335455       0.96238289      -0.55334698      -0.30637643      -0.62139761       0.19462056      -0.00876385      -0.24020073
F        5.31637738      10.59666632       2.06080662      -0.24092180       0.72622205      -1.32089583       0.04593696       0.17678884      -0.19853531      -0.01113718      -0.22850472
H        2.37239166       8.74581871       1.55112872       0.06575055      -0.10545389       0.08403673      -0.15820843      -0.23192441      -0.41908693       0.02227190      -0.02737932
H        3.03912206      10.38161459       3.64201013       0.01331197       0.01011857      -0.01805894       0.18930168       0.03113460       0.55640364       0.01122638      -0.05053300
O        7.54980037      12.89153381      13.77957396      -0.29105239      -0.21556762       0.03315939      -0.14512976      -0.18820393      -0.27219999      -0.02826303      -0.09183843
C        7.90643688      13.14671417      12.47159553       0.24479072       0.18498649       0.24930229       1.40653920       0.51842159       0.18653870       0.01187710      -0.22736186
C        9.40881296      13.66480730      12.38294638      -0.36641990       0.70452510       0.08297718      -0.28481781      -0.36548245      -0.69869518       0.02239246      -0.12601399
F       10.12024390      13.11332500      13.35833455      -1.40979852       0.52955860      -0.51820872      -0.06562320       0.07314597       0.12519255      -0.01230622      -0.25294709
F        9.54492388      15.00048919      12.45569652      -0.23544451       0.06239702      -0.52330488      -0.17495953      -0.36476916       0.19992450      -0.01123343      -0.26710507
F        9.98600445      13.26260602      11.21626710      -0.68833256       0.09023925      -0.66020115      -0.59400940       0.19778802       0.58222604      -0.01484540      -0.23741853
C        6.88366745      13.99334752      11.75670305      -0.49127964       0.61460108       0.26031106      -0.44857782      -0.04351306      -0.93144464       0.02423600      -0.11744032
F        6.42676914      14.97990211      12.54428646      -0.76525403       0.02573994       0.48051565       0.48142481       0.44941783      -0.34945765      -0.00737198      -0.25215960
F        5.78976870      13.25472812      11.48293250       0.16944236       0.76434874      -1.36799305      -0.19831041      -0.31249353       0.04192461      -0.01264071      -0.26821274
F        7.31448403      14.43354565      10.55298259      -0.40589916       1.10708472       0.38261182      -0.04672800       0.22270870       1.19471061      -0.01204767      -0.23560131
H        7.11128817      13.64964628      14.17420281      -0.00362501       0.00734396       0.07046696       0.01483398       0.20654783       0.08439524       0.02547692      -0.03024168
H        7.91496006      12.22452120      11.93062386      -0.10603293       0.07042456      -0.03453824       0.09898442      -0.81304848      -0.31051371       0.01226076      -0.03069033
O       13.67656776       8.90409332       1.62499486      -0.03725983       0.39918823       0.86728431       0.97478056       0.41879404       0.98278069      -0.03612896      -0.08223040
C       12.62949403       9.15702354       2.54843553       0.36302161      -0.05297045       0.20430191       1.94554639       1.77394533      -0.76251060       0.01063208      -0.19959219
C       13.08572753      10.38590500       3.37441429       1.19392997      -0.15046844       0.00125429      -1.54308629       0.52411985      -1.60553956       0.02415197      -0.07220535
F       13.53956014      11.36175297       2.49781346       0.26784427       1.09509409      -1.42124684      -0.83584130      -1.17136168       1.29083478      -0.01338592      -0.22658020
F       14.04166772      10.06215184       4.17689932       0.80100534      -0.13864930      -2.50861433       1.71023178       0.03972730       1.28183770      -0.00772514      -0.24837667
F       12.07679711      10.91644143       4.09164644       1.20509844       0.71082760      -0.79509256       0.32312733      -0.18261181      -0.22206624      -0.00963843      -0.25028196
C       12.28047239       7.90165234       3.29602754      -0.15051055      -0.39547318      -0.28899368      -0.35917759      -1.34558797      -0.29204017       0.02429626      -0.14045364
F       13.13347804       7.55308245       4.26067991       0.61206352       0.23505786      -1.75605158       0.05467978       0.16033271      -0.20928663      -0.01000317      -0.27480984
F       12.22056551       6.87912519       2.40275979       0.27175746       0.27049677      -0.21946904       0.49780038       0.03749248      -0.04726418      -0.01346600      -0.25517446
F       11.06071534       7.92514270       3.81025995       0.80377147       1.87728893      -1.50983599      -0.67716992       0.71271056       0.72785860      -0.01192126      -0.25370347
H       14.51788653       9.32616709       1.98596726      -0.15646802      -0.16397454       0.01728886      -1.04615355      -0.91125101      -0.78344589       0.01993872      -0.06014600
H       11.80954729       9.55626034       1.99784446       0.06313486      -0.02527250      -0.08670879      -1.14082074      -0.27706668      -0.47390527       0.01270998      -0.04160903
O       11.01644063       4.41663378       0.67778793      -0.09946243      -1.25119256       0.56523676       0.01599812      -0.74035752       0.80279231      -0.02676371      -0.11402648
C       10.79213751       3.23624024       1.43682814      -0.26535099       0.15367375       0.36930617      -0.54490286       0.80481821      -0.10269970       0.01191510      -0.22109996
C        9.62447943       3.43907242       2.41204463      -0.42948988      -1.36177381       0.37288240      -0.25302312       0.35046875      -0.82360840       0.02329917      -0.14424348
F        8.57171011       3.97999500       1.76475676       0.30839308      -0.57133670       0.48171109       0.33790833       0.18409848       0.08197369      -0.01120601      -0.27250966
F        9.91259767       4.21942668       3.45500701       0.35869254      -1.47791266      -0.81163312       0.25848934       0.35989553       0.09259196      -0.01071722      -0.28912771
F        9.21849914       2.28029746       2.87173038       0.67501676      -1.31231961      -1.10681956      -0.36051515      -1.22510004       0.64087051      -0.00867486      -0.23976521
C       12.07944934       2.69897655       2.12623147      -0.46918079      -0.78774531      -0.05484664      -1.88007319       0.24563193      -1.23625743       0.02343925      -0.12481042
F       12.69453779       3.64981028       2.78778383      -0.72038375      -0.53389829       0.41324644       0.63871634       0.62685823       0.73184651      -0.00801737      -0.28545931
F       12.84821827       2.27516288       1.14438236       0.10134113      -0.21203508       2.36282369       1.04282713      -0.49800220      -0.33547342      -0.00906554      -0.25246832
F       11.80654656       1.68327362       2.94502047       0.78693597       0.46220856       0.10902159       0.23019356       0.02609237       0.20297980      -0.00947343      -0.25660765
H       11.04506124       5.16260232       1.29229055       0.24616164      -0.08455344      -0.07146919       0.18143289       0.14889699      -0.11690718       0.02274484      -0.06286129
H       10.42963176       2.48822954       0.72559104      -0.13836653      -0.21869134       0.27442000       0.24686345      -0.12728226       0.16790262       0.01282737      -0.04132234
O        8.98008294       7.26073200      12.07417452      -0.03034880      -0.38118623      -0.76428068      -0.29933274      -0.73435581      -0.05833707      -0.03087500      -0.09137585
C        8.76354379       8.53788087      12.57204394       0.11809272      -0.92036958       0.51429143       0.04902089      -0.44840357       0.34686506       0.01004689      -0.24129041
C        9.48181452       8.68005604      13.96685604       0.33562042      -0.83111800       0.25201580      -1.49457955       1.19174886      -0.96041554       0.02247339      -0.12617442
F       10.60810649       8.01469256      13.97448835      -0.70643948      -0.14855808       0.99061996       1.29515219      -0.07532977      -0.27524525      -0.01069753      -0.26462981
F        8.77158565       8.18440135      14.96545297      -0.78461970       0.59336657       1.10431232      -0.67259777       0.01701283       0.63789105      -0.00972928      -0.27219844
F        9.70395199      10.00767368      14.20455908       1.11704412      -1.02434149       1.06578220      -0.01871460      -0.94090176       0.15004247      -0.01496491      -0.25845981
C        7.24756839       8.79889822      12.54623259       0.23605289      -0.37614053       0.33486932       0.66677445       1.23106027       0.53863573       0.02418578      -0.13177395
F        6.59552072       7.90693249      13.29606298       0.67548872      -0.35143529       0.20121734      -0.16393825      -0.21892168      -0.29358488      -0.00895060      -0.27835834
F        6.79724141       8.77373001      11.29265195       1.33230623      -0.19102042       0.65243498      -0.08824567      -0.44419062       0.00324985      -0.01195743      -0.27245638
F        6.96439100      10.02572238      13.01734048       0.47069624      -0.82256935       1.26138681       0.01407519      -0.01123145       0.24630716      -0.01268805      -0.27418745
H        8.23896597       6.66766077      12.31370681       0.14442615       0.18006648       0.01314730       0.61159956       0.34592772      -0.10470386       0.02312835      -0.04552162
H        9.23886950       9.25278333      11.90163640      -0.07641372      -0.10226961       0.05759043      -0.01408378       0.09915096       0.02838686       0.01055292      -0.05592396
O        3.74135564       1.29434796      12.13287529      -0.52842277       0.45479855      -0.47523629       0.41269532      -0.06812650       0.21695289      -0.02833506      -0.17024070
C        2.59711725       1.75223096      11.51380921      -0.28356894      -0.18774756      -0.75271001      -0.50730264      -0.40055397      -1.26017666       0.00980728      -0.15366691
C        2.85953798       1.67284341       9.93685947       0.21956761       0.78826391      -0.10524561      -0.59079349      -0.43896484       0.58985007       0.02454131      -0.06189933
F        3.35763108       0.43698458       9.67839381      -0.38448794      -0.42086865       0.26668823       0.47837225       0.36827093       0.49040458      -0.01190167      -0.17342642
F        3.79235361       2.53413905       9.54826812       0.47608426       0.94137072      -0.22849250      -0.24105138       0.23147285      -0.34183019      -0.00874483      -0.24263255
F        1.76260214       1.76369089       9.16065958       0.40699019      -0.03170713       0.28830686       0.48436350       0.64681876       0.62083435      -0.01307684      -0.25961500
C        2.27501523       3.12379443      12.11739712       0.19562517      -0.19831266       0.39573304      -0.70264834      -1.08543026      -0.50586653       0.02348108      -0.10306126
F        2.85359112       4.09340603      11.40575256       0.33200096      -0.22521529      -0.10281889       0.05574160       0.56146753       0.47750852      -0.00868592      -0.28273061
F        2.58533005       3.17846650      13.39842155       0.17906717      -1.26931757      -0.50085512       1.07723343       0.23671062       0.25174630      -0.00890597      -0.23955821
F        0.95508385       3.26959388      12.10573340      -0.14437851      -1.35993050       0.05465838      -0.35711980       0.69457150      -0.60634947      -0.01212163      -0.17621374
H        4.14451554       0.63867667      11.55757752       0.10966240       0.04951375      -0.28792633       0.16782297      -0.37962550       0.13271326       0.02198962      -0.03117948
H        1.68326145       1.15747714      11.69016019       0.02655409       0.17371272      -0.07513357       0.43060184      -0.18985891       0.04698229       0.01224607      -0.04244798
O        2.38571116       6.96760079      11.33978407      -0.26813794      -1.25787641       1.51238186       0.14249796       0.08773243       0.54735959      -0.02998773      -0.16468874
C        1.97201879       7.59934022      12.50387654      -0.36150975      -0.75674981      -0.15707108      -1.11900747       0.36061829       1.00227547       0.00838835      -0.24573937
C        2.69396750       8.92716863      12.77007941      -0.38631832      -0.41135071       0.07199678      -1.30394244      -0.27759597      -0.69503057       0.02151123      -0.15991718
F        2.58296372       9.77897089      11.75786352       0.29240153      -0.54437520       0.72676257      -0.28626299       0.24111432      -0.47709551      -0.01360721      -0.25353771
F        3.96420623       8.75964658      12.97771589      -0.53191139       0.31530535       0.52389852       1.80909038      -0.45232159       0.19093382      -0.00903594      -0.21707551
F        2.15048314       9.50467260      13.84120882      -0.59132261       0.18024658      -0.13538102      -0.33771259       0.44552833       0.43041313      -0.01072056      -0.24111818
C        2.13248227       6.66954373      13.74555539      -0.07458760      -0.52849979       0.31868521      -1.05464160      -1.36016870       0.03654954       0.02502887      -0.07495011
F        3.26427613       5.96767077      13.75511647      -1.45379308      -0.00925913       0.24578928       0.79444027       0.59657538      -0.16183737      -0.00730343      -0.24676909
F        1.17403826       5.72895157      13.70668536       0.53799318       0.75257705      -0.39450444      -0.51848817       0.03817625      -0.45209929      -0.01332492      -0.22880778
F        1.97506955       7.22092791      14.96696642      -0.39417103       0.19881377       0.45303397       0.36636153       0.44511747      -0.35692543      -0.00503008      -0.22242743
H        3.18870146       6.49099789      11.58462428      -0.03723133      -0.05791161       0.29490458       0.26719874      -0.21822008      -0.43246609       0.02141806      -0.04691394
H        0.87023670       7.82799071      12.42182241       0.17900022      -0.20244751       0.12908788       1.45896602      -0.28977332       0.21882163       0.00872721      -0.01610482
O        4.11136144      15.02489795       7.07106508      -0.20759163       1.49655269      -0.05990804       0.50458843      -0.44700903      -0.19285730      -0.02679403      -0.10552903
C        4.64763352      13.80031291       6.63854795      -0.24732786       1.34532231      -0.32883358      -0.54697752      -0.59858394       0.24269372       0.00928327      -0.18015821
C        6.16172725      13.73220659       6.97430290      -0.56801666       0.62691976       0.70919909      -0.43505225      -1.08924055       0.27905685       0.02288928      -0.10968666
F        6.26478257      13.48778651       8.28724699      -1.43777360       1.43167870       0.18926868      -0.37697998      -0.59143943       0.58548242      -0.01460331      -0.23524745
F        6.93153741      14.76858146       6.80281704      -0.11483718       1.11075033       0.33731225       0.10279065       1.32660592      -1.14929938      -0.00841879      -0.23843683
F        6.69941234      12.68910112       6.31532875      -0.54252316       0.87524554      -0.36805125      -0.10925795       0.00474437      -0.06068401      -0.01295215      -0.26910290
C        4.25941712      13.54915526       5.13717308       0.15261582       1.22307543       0.11647904       0.64088660      -0.34506011       0.95632470       0.02448799      -0.10393304
F        5.04270316      14.27501183       4.31993053       0.06449922       0.94007590      -0.15264058      -0.53157747      -0.32558808       0.12101391      -0.00784614      -0.27759910
F        2.96883450      13.94210372       4.96932471       1.09945203       2.82852731       0.42730603       0.81264794      -0.31760567      -0.30624318      -0.00870406      -0.24948303
F        4.37383685      12.23628728       4.81700559       0.25715067       2.36550173       1.03570781      -0.17689858       1.04074049       0.39953405      -0.01260076      -0.23627667
H        3.52549850      15.33790734       6.37706572      -0.08153299       0.14948694       0.15047530      -0.25259322       0.22879426       0.07147421       0.02453502      -0.02864038
H        4.23372218      12.91980327       7.24309754       0.13118221       0.07732741       0.16337366       0.43032688       1.16182828      -0.98193657       0.00917648      -0.02569089
O       11.81699388      13.29920381       8.86520831      -0.47434522       1.06236566      -0.48568329      -0.07163766      -0.53506476      -0.43763268      -0.03012498      -0.02452821
C       11.00125506      12.24293965       8.41266734       0.27334255       0.35877797      -0.14194583       1.67223513       0.47733074      -1.10170555       0.01167834      -0.22581199
C       11.67060510      11.56529363       7.16536749      -0.42861580       0.63771381      -0.50970589      -0.74421036       1.18602490      -1.36916184       0.02234563      -0.07687430
F       12.69944456      10.79557267       7.36597337      -0.05199312       1.39032367      -0.90415067       1.27552152      -0.64363039       1.33032632      -0.01246307      -0.19350925
F       12.15699027      12.56371011       6.36446117      -0.53731678       1.02837858      -0.61510842      -0.36356914       0.17797418      -0.01581662      -0.01345701      -0.28084692
F       10.84523026      10.81659133       6.43002025       0.16989446       1.02566008      -1.91465835      -0.78153265       0.18569507       0.30712575      -0.01269593      -0.22405812
C        9.60395018      12.78791349       8.09995305       0.18599116       0.07142678       0.42720569      -0.08394900      -1.29315424      -0.11615507       0.02311458      -0.11295554
F        9.40523639      13.01690857       6.80113392      -1.75206369       0.27419492       0.44842201       0.02722746       0.15600757      -0.02108756      -0.00938984      -0.23444630
F        9.40698242      13.92707856       8.73653358      -0.05883418      -0.08601335       0.17957246      -0.65160716      -0.19507213       0.14131393      -0.00977791      -0.22134042
F        8.72244873      11.80897013       8.47588204       0.59756022       0.68825528      -0.03726511      -0.01545979       0.97642446       0.00583636      -0.01500352      -0.27379727
H       12.08314845      13.82217305       8.08816120       0.02132136      -0.02885180       0.16735548      -0.08852840      -0.12083555       0.35941815       0.02430173      -0.03355994
H       10.98391074      11.45489722       9.13741791      -0.17282678      -0.02003814      -0.08656612      -0.35946882      -0.11742330       0.83707941       0.01074712      -0.05281027
O       14.39117778       8.71336626      10.86301721       0.18436064      -1.18044384       0.65005165      -0.28506663       0.14295916      -0.13344097      -0.02519743      -0.02781512
C       13.07038795       8.78801028      11.34487001      -0.13635833      -0.31754996       0.53779211       0.56516212       0.06325209       0.28274387       0.01370071      -0.22757500
C       12.15500001       8.31349062      10.20929716       0.41053289       0.05681543       0.33138436       0.76716936      -0.99321371      -0.91786331       0.02358131      -0.12583283
F       12.37114774       6.97220625      10.08069748      -1.17291871       0.15100527      -0.46736319       0.03348177       0.65772235      -0.03114840      -0.01297594      -0.24580948
F       12.53635360       8.85740755       9.02184456       0.11026713       0.93027120      -0.61615079      -0.56744957      -0.05666361       0.78756011      -0.01303031      -0.27744019
F       10.85259778       8.46040682      10.36745060       0.00870609       0.98485440       0.78023490      -0.10766552       0.61141717       0.12564775      -0.00860079      -0.24839914
C       12.84720516      10.17885814      11.96936307      -0.13242093      -0.59482947       0.12138977       0.31388700       0.06346699      -0.40847713       0.02358901      -0.13360263
F       12.74414201      11.11355790      11.00066242       0.01162480      -0.80565201      -0.46347640       0.24990939      -0.04464006       0.06101751      -0.01157481      -0.27625361
F       13.89001964      10.47899240      12.76668343      -1.18213425      -0.95605831       0.16798937      -0.39343640      -0.06449109      -0.46815762      -0.01102695      -0.27619368
F       11.75154630      10.26825160      12.69258983      -0.87681276      -0.96741987       0.16693595      -0.58407873      -0.22771114       0.30169559      -0.00935657      -0.25457156
H       14.63851549       9.49102093      10.32828329      -0.05985559      -0.10608219       0.40114368      -0.31487450      -0.30781922       0.25950828       0.02124171      -0.06794733
H       12.95925323       8.03601664      12.14766242       0.12890508      -0.05518325      -0.08418101       0.04827066       0.32795182      -0.20923038       0.01404014      -0.04365473
O        1.86184374      12.53103708       7.16495608      -1.32786260      -0.51550899       1.09586141      -0.69150680      -0.14780526      -0.30099112      -0.02417615      -0.12153524
C        2.07057247      11.81355302       8.33817493      -0.10499971       0.28302359       0.35044642      -0.19713944       0.33027229       0.02478072       0.01402019      -0.16906725
C        2.13191504      10.27619695       7.99904145       0.00728508      -0.02814814       0.36117867      -0.35202515       0.49962020       0.37933528       0.02499151      -0.08878058
F        2.99607025       9.97338992       7.03919143      -0.74614120       1.02690912      -0.50152175       0.28918120       0.68991953      -0.20820002      -0.01028939      -0.25942436
F        0.94397244       9.78055266       7.56701365      -0.50576362       0.39661330       0.36062750       0.11897928       0.50479972       0.57090098      -0.01199122      -0.28653124
F        2.52021509       9.63209577       9.08521985       0.38881659       0.98115302      -0.46297031      -0.20328259      -0.55778337       0.57020283      -0.00976805      -0.25079083
C        1.04989185      12.33053240       9.42305338      -0.02364509      -0.24424856      -0.12672111       0.46386954      -0.93081248       0.30911899       0.02392114      -0.10948130
F       -0.17689475      12.40798618       8.95540038       0.38324724      -0.01913781      -0.24798006      -0.33088836       0.33447066      -0.69525492      -0.00961877      -0.23780565
F        1.42740335      13.52553369       9.88962145       0.19254794      -0.45905332      -0.17040157      -0.41623226      -0.39296502      -0.46940565      -0.01064490      -0.21493173
F        0.96967367      11.53154984      10.50007505       1.53752891      -0.63175112      -1.43463246       0.47543481      -0.47834748       0.10695327      -0.01042017      -0.25077876
H        0.98362849      12.26835970       6.82914297      -0.01305899      -0.00425763       0.14191356       0.35371017       0.30737782      -0.10016619       0.02458209      -0.04124968
H        3.02046573      12.16215459       8.75345121       0.14863498      -0.01539053      -0.01426839       0.20924298      -0.54775053      -0.13466260       0.01366869      -0.02441908
O        9.25832142      11.84202975       4.32864728       0.75133798       1.09547910      -0.08427519       0.03666179       0.30975783      -0.42739701      -0.02983220      -0.09225980
C        9.07579996      12.88498703       3.40327444       0.03178078      -0.07900906      -0.48481243      -0.99798834       0.21211886       1.18537951       0.01158438      -0.26776531
C        7.82648917      12.61344715       2.51790679       0.22865565      -0.02859584       0.87309521       0.90510064      -0.09988438       0.46645436       0.02384917      -0.15535575
F        6.75257596      12.29278260       3.24158486       0.80797160       0.23711881       0.82036155       0.45874178       0.38140997      -0.09474250      -0.01176723      -0.23418635
F        8.09271984      11.59726441       1.69150018       0.01043475       0.76013059       0.32835720      -0.30845302      -0.05378168      -0.00847121      -0.01219476      -0.25210923
F        7.55985622      13.71241050       1.79270531       0.24201620      -0.16332078       0.66940489      -0.53057337       0.06849949       0.20461738      -0.00923638      -0.22375500
C       10.31103545      13.12679706       2.56693739       0.23018070       0.14167327      -0.42763449       0.16429421      -0.75542098      -0.88242775       0.02240490      -0.16877836
F       10.71267222      11.96047352       1.98217239      -0.64138321       0.03234365      -0.10806327       0.04409470       0.25804761       0.29280281      -0.01199597      -0.26787192
F       11.31208587      13.59610381       3.28386570       0.76401162       0.19356366      -0.89696011       0.33624333      -0.09377134       0.45625174      -0.01035463      -0.24098539
F       10.09175768      13.97606790       1.56787059      -0.23572792      -0.06452822      -0.60360094      -0.07117896       0.47353142      -0.18579116      -0.01072791      -0.24565454
H        9.66291404      11.07751325       3.89705482       0.08299564       0.02740896       0.02813546      -0.04980175       0.06440811      -0.07709973       0.02324085      -0.05110213
H        8.89957645      13.81204544       4.00538949      -0.04020330       0.21797133       0.03081607      -0.01323461      -0.66956419      -0.53905958       0.01353128      -0.04535860
O        6.75097082       3.48244133       9.17666331      -1.02614035      -0.66361910       0.11151814       0.36447179       0.46086252       0.90736198      -0.02778245      -0.08590263
C        6.35890654       3.79893754      10.51207944       0.34533986       0.09874421      -0.16810961       0.13130450      -0.52376574      -0.45707926       0.01161891      -0.23463103
C        5.77420458       5.21254433      10.57821384      -0.01236470      -0.50196759       0.32376973       0.82975370      -0.01701897       0.56183302       0.02245913      -0.15419395
F        4.77868361       5.39570996       9.74825640       0.87322306      -1.91871647       0.24654924      -0.96465111      -0.25861019      -1.11868906      -0.00999791      -0.26238978
F        6.70508643       6.09447175      10.29514898      -1.53929062      -0.63384667       0.26945942       1.00689089       0.94171286      -0.34897542      -0.01095777      -0.23223817
F        5.29861751       5.54993341      11.78722704      -0.34989864      -1.93069843       0.84073365      -0.11273738      -0.30629432       0.74856067      -0.01109351      -0.28243321
C        7.48519176       3.56780140      11.57951364      -0.53956118      -0.39003134      -0.40308658      -1.25347078       0.06828947      -1.03103197       0.02388344      -0.11707699
F        8.43827441       4.50355790      11.51187247      -1.62814977      -0.65775693       0.48971859      -0.09736863       0.35639912       0.46784109      -0.01007686      -0.26560068
F        8.10276176       2.41097180      11.42014442       0.30118539       1.21183544      -0.51454354      -0.11808550      -0.21375342      -0.14807564      -0.01080565      -0.22391541
F        6.87327148       3.56600168      12.77040122      -0.32486361      -1.77125329       0.70102932       0.57089871       0.26210526       0.36519572      -0.01058367      -0.26602483
H        7.63564294       3.85676986       8.96357715      -0.05046774      -0.10081882       0.28745477      -0.77944314      -0.16901185       0.35806489       0.02433984      -0.05910109
H        5.50036058       3.17237325      10.78419424       0.07376980      -0.01972330       0.14504867       0.53188324      -0.29877073      -0.11100295       0.01069327      -0.04522210
O       10.89561783       3.14357609      10.59308607       0.88323522      -0.91009984       0.77555928       1.49995458      -0.31782299       0.00554535      -0.02947348      -0.11917944
C       11.72194470       2.99720051      11.73586407       1.27555022      -0.66387289       0.27750351      -0.21787567       0.23651153      -0.56908256       0.01147714      -0.26007849
C       12.44017946       4.32955938      12.08370660       1.18089507      -1.11856700       0.77685616       0.01083092      -1.42948365      -0.80685079       0.02093427      -0.15979697
F       11.58430193       5.34109977      12.13323658       0.88676901      -1.11491914       0.66090674      -0.00798839       0.10113999       0.13190550      -0.01274171      -0.28809413
F       13.36548925       4.56819726      11.14972421      -0.49962825      -1.27613146       0.29764237       0.01166853       0.78231657      -0.45683879      -0.01309350      -0.24502754
F       13.08102077       4.20666618      13.22750946       1.26859411      -0.76191433      -1.11264886       0.16165283       0.28701681       0.85196650      -0.01074887      -0.23276886
C       12.71549522       1.80635769      11.60724530       1.39724642      -0.34126607      -0.68754532      -0.98392963      -0.88585025      -1.47220528       0.02338010      -0.07436174
F       13.71539943       1.96353540      10.75182981       0.94389635       0.16093373       1.10579236       0.21240735       0.65794241      -0.98652077      -0.01192959      -0.19569379
F       12.08144533       0.67054698      11.10403091       0.73908888      -1.09479058       0.07879509       0.23376466       1.35819674       1.29574990      -0.01762461      -0.23873642
F       13.28460309       1.56688671      12.75264328       1.07554435       0.37754912      -0.72081746      -0.05623472      -0.77374995       1.51590049      -0.00788567      -0.23261386
H       11.51476781       3.05765991       9.83687226       0.11506512       0.12484076      -0.18777970      -0.71323967       0.17074604       0.23454985       0.02118308      -0.04647451
H       11.09574825       2.79775677      12.58924967       0.05596740      -0.26999100      -0.19537618      -0.40992057      -0.31915760       0.26697862       0.01131061      -0.04804785
O        6.30724534       7.07012336       7.78746659       0.03774979       0.70341679       0.27298690       0.10121177      -0.18714938      -0.90645880      -0.02643954      -0.10410535
C        6.91071036       7.45661662       6.57853721      -0.75633205      -0.63416611      -0.54714353       0.45597246       0.83540064       0.40506828       0.01397817      -0.18674769
C        6.14109568       8.73278975       6.01810234       0.62984523       0.50434867      -0.21324164       0.62699145      -1.05341291       1.11057377       0.02337084      -0.10694695
F        6.13316318       9.54943164       7.07439416       0.90746210      -0.51386972      -0.15057791      -0.22718817       0.61250639       0.18874508      -0.01361254      -0.24051517
F        4.87161426       8.51486170       5.67271812       0.14080606       0.05527707       0.43980515       0.01924535      -0.32177037      -0.08376476      -0.01044142      -0.26262441
F        6.76322766       9.35758462       5.03980688      -0.55870430      -0.17061435       0.18514321       0.27531126      -0.01720458      -0.58987212      -0.01004121      -0.26431328
C        7.11947392       6.27245314       5.65687831      -0.27896493      -0.82874193      -0.14316819      -0.32988244      -0.32279539      -0.88324189       0.02454926      -0.12825741
F        5.94366275       5.68590302       5.40468390      -1.43163633       0.02785580      -0.61222360      -0.42639187      -0.58740264       0.42100573      -0.00757716      -0.26465502
F        7.97164172       5.32291544       6.13950505      -1.68201651      -1.20654983      -0.31507757      -0.78626013       1.07495594      -0.24459532      -0.01169473      -0.27198064
F        7.54973083       6.67767881       4.45745356      -1.41271217      -0.02951935       0.97599032       0.71399105       0.10054553       0.08347501      -0.01078965      -0.25324205
H        5.50884100       6.58384826       7.53328223       0.08365807       0.04267595      -0.14236353      -0.07134406      -0.02432519       0.34680766       0.02521100      -0.03521816
H        7.92121106       7.83998955       6.79068107       0.07574418      -0.01757568       0.12637712      -0.30544657      -0.03632385       0.15023820       0.01308549      -0.03720634
192
Lattice="14.49694286828765 0.0 0.0 0.0 14.49694286828765 0.0 0.0 0.0 14.49694286828765" Properties=species:S:1:pos:R:3:momenta:R:3:forces:R:3:charge:R:1:energies:R:1 Built=T with=T Packmol=T charge=0 spin=1 external_field="_JSON [0.0, 0.0, 0.0]" energy=-19.092655181884766 stress="-0.0039430418983101845 -0.002290303586050868 0.00021980633027851582 -0.002290303586050868 0.0020830826833844185 0.0021564483176916838 0.00021980633027851582 0.0021564483176916838 -0.0017439681105315685" dipole="0.0010202527046203613 -0.9023695588111877 -0.13060243427753448" free_energy=-19.092655181884766 pbc="T T T"
O       13.50445255       5.92044586       7.06434117      -0.04813372       0.09074007       0.52955895       0.57632196       1.02509058       0.92654711      -0.02530435      -0.13121630
C       12.78525150       4.79615579       6.82744092      -0.60326060       0.05513709      -0.54622412      -1.28249145      -0.92301315      -0.06216359       0.01269347      -0.17381720
C       11.27371738       5.03215103       7.15227766       0.16154973       0.03171004      -0.07677051       0.29446888       0.14471364      -0.88403755       0.02276912      -0.13524087
F       10.79091716       6.09628112       6.47442541       0.55440095      -0.75874876      -1.11002367       0.51371402      -0.21394178      -0.12700754      -0.01378891      -0.27234417
F       11.08889606       5.31448876       8.42873287       0.51168057      -0.99201920      -0.16286442      -0.06310394      -0.19694467       1.07362258      -0.00885093      -0.27692360
F       10.51149371       3.99106495       6.80963982       0.74695584       0.08342027      -0.51129742       0.08577974      -0.27331755       0.16162696      -0.01048740      -0.27586508
C       13.47892931       3.53843277       7.49248605       0.08207468       0.30411964       0.11076228      -0.53665686       1.02749395      -0.71777630       0.02372892      -0.08392052
F       13.98481586       3.72698073       8.71262252       0.16405888       0.39745707      -2.51703191       0.16214730       0.75601006      -0.13757324      -0.00964403      -0.26126534
F       14.44912918       3.22242758       6.64986347       0.36872535      -0.10527072      -0.04943074       0.96220952      -0.36078608      -0.06199846      -0.00956307      -0.24744463
F       12.69115894       2.48812759       7.60901873      -0.45281939       0.57414173      -0.37705908      -1.07045102      -0.90010834      -0.11362885      -0.00867147      -0.27134493
H       13.41733481       6.12605652       8.01153491      -0.03585804      -0.06524950      -0.02701813       0.25428998       0.24886169      -0.21661715       0.02297922      -0.04358169
H       12.80053056       4.62882816       5.74911148      -0.08115273       0.04494349       0.06593480       0.09007570      -0.29669291       0.00952639       0.01363702      -0.03073715
O        2.06860960       9.38317034       2.28336462      -0.24261100       0.26429733       0.43417737      -0.69735241      -0.73780507      -0.19912255      -0.02645616      -0.21218327
C        3.06310961      10.27192742       2.58441328       0.23504638       0.60861644      -0.15827752       1.00994265       0.87492049       0.78403825       0.01199451      -0.23373097
C        2.78719124      11.68118306       1.97435425       0.23853842      -0.39297937       0.43445387       0.63202500       0.30552247      -0.59684205       0.02292573      -0.13870606
F        1.51381712      11.99833820       2.20140815       0.71783910       0.57030864      -0.00779630       0.20184757       0.07148095       0.23337731      -0.01079688      -0.25883645
F        3.00676785      11.82672425       0.66320342       0.94822799      -0.20281267      -0.85275551      -0.31401786      -0.91614401      -0.55430490      -0.01181216      -0.23537080
F        3.59183544      12.62055695       2.48713586      -0.59186393      -0.55634199       0.46620093      -0.24536493       0.01529428       0.87818205      -0.01017387      -0.20112865
C        4.45066945       9.69570205       2.19718203       0.31448932       0.68795709       0.06965134      -0.68082952       1.24038768      -1.83667445       0.02456628      -0.10087517
F        4.34853961       9.08282472       0.97415014      -0.90024833       0.76097015       1.02006246      -0.01112374       0.01990440       0.81723046      -0.01177822      -0.24710734
F        4.91053990       8.82544448       3.03982496      -0.34837553       0.53458962      -0.25156080       0.23242733      -0.86783761       0.83102560      -0.00680615      -0.23568936
F        5.33915351      10.67274079       2.03752423      -0.18754704       0.74800058      -1.29555411       0.18689704       0.00644781       0.18351313      -0.01072087      -0.23739885
H        2.37632924       8.76360683       1.60441662      -0.10639499       0.02722762       0.13670399      -0.18724804       0.17248853      -0.05364538       0.02226143      -0.04016764
H        3.08004948      10.44427245       3.68248152       0.07493081       0.01133412       0.00102214       0.04016914      -0.03088572      -0.50653070       0.01144101      -0.04522891
O        7.57991362      12.95459412      13.85280505      -0.36360632      -0.15074629      -0.08897524       0.07780544       0.06576505      -0.49547237      -0.02836483      -0.08895860
C        7.96688491      13.22850220      12.54702446       0.48068118       0.28276173       0.07150979      -0.44519609      -0.27674639      -0.86472702       0.01198549      -0.21670340
C        9.44180325      13.75982533      12.44381433      -0.46821049       0.29728588      -0.37106014      -0.10462943      -1.09434354      -0.95557261       0.02270192      -0.12470654
F       10.13866054      13.19765570      13.41783025      -1.32467581       0.55458335      -0.40396380       0.27909392       0.06410794       0.25046089      -0.01191156      -0.24651483
F        9.58894587      15.08110226      12.51022742      -0.31404475      -0.01334318      -0.42287994      -0.17502818      -0.00019432       0.15502010      -0.01022892      -0.26598892
F       10.01764978      13.33781179      11.26420986      -1.00781735       0.24616394      -0.24777480      -0.71421528       0.40726402       0.95727766      -0.01591366      -0.23697411
C        6.89946823      14.09048402      11.82154531      -0.45748591       0.40876908      -0.14019310       0.49380484      -0.71602666      -0.58290803       0.02402277      -0.11051349
F        6.44424163      15.06376664      12.62160993      -0.55608650       0.24616056       0.29423205       0.34189838       0.38352484      -0.41391930      -0.00726561      -0.26186904
F        5.82385449      13.34358787      11.51011159       0.06745555       0.61936911      -1.26179149      -0.18883298      -0.22230971       0.29247585      -0.01246111      -0.27099821
F        7.34298164      14.54105326      10.62701177      -0.41612178       1.23325269       0.95453586      -0.00537655       0.38209626       1.07572913      -0.01242669      -0.23660012
H        7.16861118      13.72016600      14.27437972       0.09496735      -0.03649081       0.01339012       0.14938624       0.02933648      -0.07301115       0.02523911      -0.03777610
H        7.93001407      12.27191335      11.96997944       0.01548712      -0.00926927       0.01449748       0.35015765       0.57293600       0.51911813       0.01203516      -0.03449341
O       13.74590522       8.96084898       1.66103930      -0.39925528       0.06439037       0.73746564      -0.18303764      -0.70244074      -0.70104277      -0.03486979      -0.11711376
C       12.72381861       9.22129433       2.55970155       0.70869660       0.73290692      -0.38503357      -0.55893278       0.99940944      -1.39382219       0.00943504      -0.18897088
C       13.18330577      10.44377806       3.37238023       0.09266151       0.31156220      -1.01037382      -2.18724132       1.15487885      -1.95661831       0.02438065      -0.05233937
F       13.61380613      11.44211108       2.48360138      -0.13013107       0.37803495      -0.69443796      -0.76197457      -1.54539144       1.47224522      -0.01497073      -0.22598854
F       14.15039302      10.11248300       4.14482197       1.79267534      -0.13350032      -1.67696609       1.84496927       0.10399121       1.48360693      -0.00646572      -0.23927924
F       12.17539623      10.99155279       4.09185726       1.42998332       0.55537171      -0.87361450       0.57879555      -0.36904699      -0.14172074      -0.01026093      -0.25596067
C       12.34048491       7.92123249       3.29678017      -0.03488007      -0.52305149      -0.57254972       0.78775156       0.92517483      -0.72295320       0.02418661      -0.14118811
F       13.21989804       7.59975399       4.23835012       0.62026276       0.20774960      -1.68190693      -0.01260756      -0.25865090       0.34237701      -0.00978131      -0.28398785
F       12.29559077       6.92220291       2.40913016       0.43760943       0.17095650      -0.30509655       0.18118195      -0.41380757      -0.31802237      -0.01149696      -0.27055585
F       11.13494315       8.01931804       3.79744389       0.31390753       2.06734412      -1.02957248      -1.11181402       0.17860088       1.03046775      -0.01075439      -0.26137477
H       14.58277288       9.28204350       1.99207738       0.33724207      -0.10321230       0.07743920       0.78079629       0.12408861       0.17946239       0.01941651      -0.06640843
H       11.83186145       9.54942301       1.95958345      -0.07152054      -0.22688376      -0.00959801       0.54401517      -0.36770594       0.62416965       0.01170327      -0.04662936
O       11.07238733       4.39631361       0.70195364      -0.09904841      -1.53518874       0.71794270       0.04682766       0.00701828       0.12517150      -0.02500311      -0.11354680
C       10.83303755       3.26090203       1.45982274      -0.55283228       0.05254022       0.41955098      -0.44867533      -0.97691625       0.38686317       0.01191592      -0.19409277
C        9.65993119       3.41174851       2.42968383      -0.28313108      -0.76051258      -0.15923950       0.62137300       1.64382780      -1.02610791       0.02322407      -0.13944602
F        8.62705023       3.98712713       1.78719938       0.39036513      -0.54770771       0.52063772       0.01612668      -0.10252461       0.08874705      -0.01115554      -0.27451560
F        9.97601934       4.20613348       3.45460921       0.41408294      -1.30504224      -0.60716198      -0.00508361       0.20932236       0.58479267      -0.01149615      -0.29210502
F        9.28196518       2.24957609       2.86364575       0.38570644      -2.01782230      -0.68664332      -0.65608346      -1.42505789       0.85272837      -0.00674588      -0.23886196
C       12.10897907       2.69013289       2.12786177      -1.13620366      -0.22634422      -0.29018658      -0.55562657       1.69323528       0.31677145       0.02274035      -0.14445561
F       12.74704550       3.65908551       2.81710019      -0.52835988      -0.28541423       0.65160942       0.03139220       0.33537298       0.21457508      -0.01238061      -0.29384407
F       12.92691738       2.27808596       1.20652469       0.65610535      -0.51275432       1.87912554       1.01268649      -0.61412680      -1.28702641      -0.00857551      -0.24490380
F       11.89009589       1.70247788       2.96596372       0.72206676       0.26835105       0.31715015      -0.44027501      -0.63333678       0.54028189      -0.00881203      -0.24533077
H       11.24143817       5.17087651       1.27004244       0.30034970      -0.05141085      -0.05552898      -0.00447568      -0.42383552      -0.12608251       0.02346326      -0.06857604
H       10.46136291       2.41734501       0.85876321       0.04630697      -0.07703672       0.19024280       0.32758191       0.44164845      -0.59695512       0.01252890      -0.01703943
O        9.03183741       7.28894779      12.11371482       0.27632459      -0.27337984      -0.84414266      -0.30996317      -0.36039999       0.34400219      -0.03036660      -0.12204926
C        8.81550347       8.54402485      12.66296628       0.12828757      -0.93036035       0.58657180       0.06672513       0.50145066      -0.20615646       0.01059443      -0.23419964
C        9.52889382       8.70660621      14.04579551      -0.51856614      -0.14162789       0.04838980      -1.52082157       1.22091866       0.23163901       0.02292279      -0.13851102
F       10.65594314       8.05190461      14.07322578       0.00153063      -0.32465904       0.85326496       1.18959308      -0.45119074      -0.23498124      -0.01042461      -0.26696318
F        8.79533588       8.24368778      15.07647670      -0.96278038       0.60294140       1.20572761      -0.12228103       0.08448224      -0.17480567      -0.01123095      -0.27936131
F        9.78397468      10.02855066      14.30819349       1.01922517      -1.50609683       1.02592403      -0.33040792      -0.99650031      -0.22654825      -0.01533798      -0.24996516
C        7.30303289       8.84217721      12.63325394       0.56672573       0.13796515       0.63235496       0.58210623       0.65648448       0.56441700       0.02458222      -0.13702625
F        6.64677589       7.93866628      13.37064599       0.54370177      -0.46779906       0.05521897      -0.26979738      -0.20850018      -0.30525383      -0.00932937      -0.27762902
F        6.86720382       8.81328917      11.37009983       1.25591264      -0.36881503       0.67083496      -0.08391875      -0.26413247       0.20417428      -0.01210708      -0.27537656
F        7.01417894      10.05786845      13.12059721       0.50118790      -0.84732167       1.30836915       0.13401437      -0.07535943       0.06856804      -0.01193301      -0.27671665
H        8.30600184       6.71614882      12.41017862      -0.08087197      -0.18147961       0.11639036       0.38785195      -0.18472916      -0.13409831       0.02306957      -0.03667226
H        9.26464958       9.27762495      11.99062323      -0.00797901      -0.00296152       0.05579526       0.14751613       0.06490043       0.13685194       0.01065345      -0.04687581
O        3.75136451       1.30891220      12.17954120      -0.14223963       0.03435775      -0.75065257       0.18253943      -0.17740752      -0.16505615      -0.02913133      -0.16525301
C        2.60023592       1.75620163      11.53488577      -0.15289043       0.00192807      -1.13323529       0.46056888       0.47191310      -0.10825281       0.00997212      -0.17013581
C        2.87901739       1.70662226       9.99038610       0.02662290       0.36803556       0.07349453      -0.07867137      -1.10186172       0.05535746       0.02546765      -0.05801525
F        3.36867325       0.43299210       9.74024900      -0.15765302       0.00517850       0.50491420       0.41285056       1.25952911       0.50189811      -0.01345247      -0.16707551
F        3.82241870       2.57207273       9.59185896       0.23474428       0.88482821      -0.33219997      -0.73389000      -0.40347821      -0.06520054      -0.00883838      -0.24690792
F        1.78553731       1.77685073       9.22068765       0.62563855       0.33053569       0.53823978       0.39220676       0.80826908       0.41408640      -0.01201029      -0.25427070
C        2.28782507       3.12176798      12.18873631      -0.16332996      -0.68861064      -0.16179347      -0.69079632      -0.76383454      -1.44457626       0.02372721      -0.07863953
F        2.87681119       4.11212843      11.46840008       0.24074728      -0.07091922       0.26105335      -0.41362441      -0.01104428       0.96565127      -0.01008503      -0.27908617
F        2.61049270       3.16462454      13.45951558       0.67761689      -1.11127440      -0.32959645       0.89709544       0.25718370       0.19009122      -0.00751435      -0.24032651
F        0.95534176       3.25705828      12.16864853      -0.18516022      -0.94604417      -0.18642197       0.19177845       0.85970891      -0.38534591      -0.01228824      -0.17934467
H        4.18832503       0.69986043      11.57552831      -0.02222698       0.18492463       0.11693108       0.17728244      -0.37958357       0.22611552       0.02166859      -0.02935550
H        1.70355071       1.17660551      11.72692326      -0.02821991      -0.16109569      -0.03601039      -0.03021931      -0.60633391      -0.03636062       0.01267235      -0.04254248
O        2.39399993       6.96518082      11.44968029       0.01487727      -1.36080915       1.63274788       0.54456019      -0.28976220      -0.02239403      -0.02991228      -0.16290839
C        1.97128651       7.61212944      12.57990248       0.11685883      -0.63299228       0.68662399       1.66168475       0.19310528       2.05492878       0.00890215      -0.20891303
C        2.68237484       8.95669841      12.83687521      -0.78010226      -0.44369683      -0.07868032      -0.11203317       0.17554967       0.16387874       0.02178151      -0.16352452
F        2.60200253       9.81882659      11.83584648       0.08946932      -0.43490240       0.41075484      -0.52055246       0.10402448      -0.69844776      -0.01277651      -0.24657279
F        3.98137063       8.81135976      13.06178758       0.11220748       0.04107032       0.58443330       0.59642476      -0.60173476       0.04885542      -0.01122989      -0.23135641
F        2.14479310       9.56198405      13.91370657      -0.72864095       0.26865341      -0.03582186      -0.24291444      -0.07276769      -0.07105280      -0.01180744      -0.24748504
C        2.13097107       6.67709213      13.83201783      -0.51133023      -0.66883080       0.29787023      -0.53819776       0.74577403      -0.06053483       0.02499413      -0.06273031
F        3.25169590       6.00179722      13.83455888      -0.79697987       0.12360432       0.21430736       1.63416266      -0.01224124       0.05198602      -0.00591057      -0.23798752
F        1.18852824       5.77699772      13.76771500       0.00303996       0.49457613      -0.53998097      -1.61514032      -1.05258226      -0.16984147      -0.01089465      -0.21387538
F        1.97777354       7.26673058      15.05597861      -0.22028545       0.31435068       0.20616928       0.29420346       0.02779581      -0.61356032      -0.00627433      -0.24205433
H        3.19514041       6.48522854      11.71769012      -0.03159870      -0.09067502      -0.01784076       0.03871018      -0.05993669      -0.57840800       0.02165459      -0.03663834
H        0.94535252       7.78380035      12.55069992      -0.22047448      -0.07298435       0.08114911      -1.58753991       0.48045057      -0.27402830       0.00916218      -0.01691667
O        4.13130041      15.14808393       7.10659818       0.04319738       1.32211942      -0.09929583       0.28479481       0.03166485      -0.15591320      -0.02713525      -0.06693345
C        4.66034307      13.92599269       6.66361043      -0.22140896       1.35588016      -0.26556500       0.86828738       1.35535121      -0.58726710       0.00955177      -0.18923256
C        6.17082118      13.82407180       7.03790867      -0.51000423       0.37302867       0.45000936       0.60470605       0.16261168      -1.14187670       0.02344530      -0.11622588
F        6.25932713      13.59286711       8.34031912      -1.56045359       1.09260711       0.47120663      -0.22591108      -0.67302531       0.48234177      -0.01233528      -0.24031323
F        6.96504432      14.88233330       6.84162194      -0.22457945       1.45651901      -0.11333833      -0.59217829       0.11637017      -0.65324926      -0.01091313      -0.25750378
F        6.71966866      12.78098745       6.34102301      -0.69797901       1.01256688      -0.19933448      -0.51979268       0.55413431       0.67932659      -0.01387951      -0.26530403
C        4.29457822      13.66901790       5.17877831       0.43635138       1.12109433       0.54454108       0.49026653       0.11795265       0.65867329       0.02424425      -0.12876715
F        5.06854598      14.37393543       4.33998715      -0.13140661       0.80333691      -0.08185112      -0.24265604      -0.16897316       0.16672349      -0.00847567      -0.27861857
F        3.01729881      14.08725492       5.00489196       1.37888017       2.59647397       0.26288637       0.41730821      -0.43579465      -0.30228466      -0.00903866      -0.25570378
F        4.40255370      12.36823796       4.87160249       0.14495446       2.70484606       1.17214182      -0.24303097       0.44125527       0.24925750      -0.01166940      -0.24338612
H        3.47937735      15.50500010       6.48183313      -0.13282164       0.14353320       0.15762334       0.25478142      -0.35912111       0.17715266       0.02485773      -0.04231360
H        4.32618116      13.12211651       7.25836495       0.01551894       0.25971012      -0.13116530      -1.12206471      -1.12597728       0.40806594       0.00990944      -0.00796236
O       11.86352797      13.39372389       8.90148285      -0.58939789       0.44004910      -0.22446789       0.27257353      -0.65510267      -0.17817584      -0.02904154      -0.01537818
C       11.08370708      12.32597330       8.44258535       0.73363216       0.41996834      -0.52127932       0.04496594      -0.21087027      -0.35752976       0.01262477      -0.24394706
C       11.71192043      11.66279545       7.16962204      -0.50097807       1.01001051      -1.11607133       0.49093953       0.20054774      -0.91932917       0.02313016      -0.09440236
F       12.77237731      10.88604236       7.39003190       0.33820521       1.17825767      -0.32144877       0.22106440      -0.04211799       0.90931964      -0.01447395      -0.21836136
F       12.20571857      12.65850264       6.38295963      -0.73660965       1.09032626      -0.58713913      -0.45569149       0.17451447       0.00606225      -0.01234868      -0.27689001
F       10.90329366      10.90267219       6.41818575      -0.14992384       1.16705484      -1.62373332      -0.49902707       0.46858549       0.70955801      -0.01216975      -0.22482753
C        9.66125327      12.84937409       8.15607810       0.08811242      -0.32029734       0.12003843      -0.21731187      -0.16505727      -1.00036550       0.02286502      -0.12686454
F        9.41162050      13.09443300       6.84988869      -1.61359716       0.31439689       0.52875136       0.39271009       0.02672457       0.30795985      -0.01133481      -0.23420355
F        9.45210611      13.99802464       8.78902147      -0.33112484      -0.21710547       0.25864542      -0.44492990      -0.41770482       0.15199548      -0.01112933      -0.22564779
F        8.78412525      11.89507874       8.52112717       0.53812928       1.02295311       0.05290133      -0.21808657       0.38059723       0.35872382      -0.01353643      -0.27429223
H       12.17914302      13.92840443       8.15163895       0.09667493       0.14565149      -0.09364119      -0.22874302      -0.29112917       0.22590962       0.02456010      -0.03959170
H       10.94753297      11.52906389       9.21019938      -0.14367438       0.15913152       0.07610785       0.49365216       0.75703466      -0.28854990       0.01099701      -0.05159108
O       14.46859864       8.71928629      10.94482776      -0.16722460      -1.39103081       0.86595180      -0.36611649       1.03270411      -0.21693343      -0.02650087      -0.05626646
C       13.14240040       8.82267110      11.42582090       0.24423110      -0.30636990       0.35190393       0.70793462      -0.23095191      -0.74573421       0.01379401      -0.22942731
C       12.24023613       8.35241664      10.26614826       0.46854200      -0.26266462      -0.24155027      -0.43687212      -0.18616310      -1.11079860       0.02401362      -0.12628232
F       12.40788093       7.01802772      10.12256324      -1.09257460       0.50182726      -0.47252979       0.21287282       0.66993302      -0.06163828      -0.01168514      -0.24964188
F       12.60258958       8.92726238       9.06171136      -0.18392098       0.75673759       0.03139667      -0.58958894      -0.54863334       1.64127827      -0.01429279      -0.27196708
F       10.91259603       8.53461548      10.44354439       0.21756921       1.22648388       0.79003462       0.90024906       0.42540717      -0.04559274      -0.01077968      -0.25011048
C       12.91069965      10.21129026      12.03490228      -0.20494414      -0.46196845      -0.03718605      -0.59223437       0.32105738      -0.22696510       0.02471797      -0.12563455
F       12.81429950      11.15092389      11.04933863       0.13029709      -0.94322047      -0.28675541       0.22489756      -0.49414802       0.57354987      -0.01182834      -0.27750653
F       13.93217353      10.51048556      12.83677042      -1.28200841      -0.93125672      -0.02321617      -0.08651974       0.11731070      -0.28769988      -0.00919157      -0.26701540
F       11.79007226      10.29696422      12.76527467      -0.93871967      -1.06113340       0.13315390       0.25458670      -0.21315278      -0.42110449      -0.01044756      -0.26228166
H       14.70490391       9.57143428      10.52324703       0.03890662       0.19812287       0.16579948       0.04509917      -0.61721390       0.07921810       0.02118340      -0.06352204
H       13.07327730       8.06323675      12.19055052       0.01249629      -0.05359297       0.06020654      -0.43399352      -0.09637994       0.48939133       0.01384493      -0.03881101
O        1.83108141      12.58386983       7.23478133      -1.23847835      -0.35400305       0.92077986       0.12362330       0.54379636      -0.66971397      -0.02465701      -0.11534741
C        2.07877825      11.88920867       8.39750707      -0.02488446       0.22786220       0.33184129      -0.08560658      -0.74849993      -0.35993630       0.01348820      -0.19501108
C        2.13852697      10.33752717       8.05717321      -0.27143753       0.37143363       0.30805783      -0.70699239       0.95135808      -0.51036584       0.02470906      -0.07640748
F        2.99428113      10.05744850       7.06355527      -0.65578332       1.33170871      -0.48853505      -0.01096226       0.65609825       0.27325678      -0.01128290      -0.26728854
F        0.93771726       9.84635779       7.62089387      -0.33451398       0.63588550       0.68291614       0.51404816       0.50024515       0.75816029      -0.01294364      -0.28450799
F        2.54290133       9.70430220       9.12647534       0.33370442       0.57746449      -0.09067305      -0.03906600      -0.92167485       0.80049080      -0.00869178      -0.24582410
C        1.06105266      12.37950218       9.47057293       0.31640177      -0.52368075      -0.04971900       0.74536932      -0.15198503      -0.06116904       0.02371767      -0.12549663
F       -0.16989909      12.47574073       8.99312202       0.25522586       0.09639038      -0.51585024      -0.02823208       0.09268172      -0.36191463      -0.00976219      -0.25003532
F        1.43707127      13.58360310       9.93546544      -0.04406552      -0.65909938      -0.37122817      -0.50800574      -0.47461629      -0.35360754      -0.01177080      -0.22017998
F        1.01653031      11.57352727      10.52134934       1.64250338      -0.91763229      -1.21862843       0.06779540      -0.72915554       0.66664845      -0.00843313      -0.25813770
H        0.95697731      12.34531869       6.90064128      -0.16417251       0.02372293      -0.00044320      -0.06107868       0.02914234      -0.06764208       0.02463760      -0.04523689
H        3.08025755      12.15637087       8.76649556      -0.01070914      -0.23611220      -0.11847271      -0.26039433      -0.09795893      -0.06631390       0.01346200      -0.04199933
O        9.33146854      11.93988995       4.34611125       0.76638722       1.13270268      -0.25265338      -0.08189193       0.19923192      -0.02851787      -0.02937979      -0.09247915
C        9.11867172      12.95761865       3.41577454      -0.19940473       0.22511666       0.13588697       0.33454740      -0.09894022       0.41660273       0.01185320      -0.28885585
C        7.88536616      12.67942601       2.56694133       0.54574844      -0.03969066       0.74787919       0.29880536       0.02612573      -0.87799156       0.02410977      -0.16564459
F        6.81209320      12.36686705       3.27991895       0.98032307       0.38383738       0.81478633       0.32249147       0.23314577       0.11734671      -0.01085488      -0.23939405
F        8.13441641      11.67843545       1.70945465      -0.13484924       0.70249419       0.37759726      -0.26087877      -0.12280152       0.22928260      -0.01267701      -0.25208265
F        7.60347867      13.78179874       1.82149910       0.01248782      -0.16553902       0.83648026      -0.36547327      -0.08791144       0.51215929      -0.01080668      -0.22813797
C       10.37592659      13.19594441       2.55630983       0.20234694      -0.16969212      -0.70078571      -0.27992758      -0.39444405      -0.16687103       0.02280511      -0.16329406
F       10.75425982      12.02709917       1.99161962      -0.56372213       0.16039497       0.00388571       0.22847299       0.22611463       0.13214104      -0.01077720      -0.26687086
F       11.39317137      13.67286131       3.28031568       0.76045324       0.08612065      -0.77734219      -0.31842995      -0.35158116      -0.05428989      -0.01115709      -0.25184250
F       10.13977973      14.05199257       1.55988658      -0.21289255       0.12676450      -0.64685307       0.15186268       0.26638240      -0.02006334      -0.01092273      -0.25293478
H        9.74138494      11.17442138       3.92919617       0.03373356       0.11384430       0.00846893       0.02306704      -0.05217161      -0.17145875       0.02330905      -0.04975633
H        8.93600730      13.87494078       3.96169943      -0.01340031      -0.18489073      -0.22884125      -0.09527293       0.23079967       0.23919749       0.01366220      -0.04463094
O        6.75548480       3.48344174       9.23785690      -1.08220981      -0.49844831       0.69442897       0.11519298       0.42370874       1.16793025      -0.02646825      -0.13454026
C        6.40429799       3.81532795      10.56052384       0.13655817      -0.32746766      -0.13679192      -0.74418235      -0.97688544       0.50540149       0.01196252      -0.21870960
C        5.81106866       5.21895651      10.65358896       0.23382526      -0.56047762       0.56853095       0.04374050      -0.17408437       0.33910125       0.02283566      -0.15702227
F        4.82006377       5.37377170       9.80015948       0.34803822      -2.00168282      -0.23465244      -0.93526286      -0.22367573      -0.68370128      -0.01077261      -0.26216564
F        6.70872259       6.11767919      10.35537044      -0.93607839      -0.08186638       0.13982998       1.20970654       1.10981131      -0.11688530      -0.01008161      -0.22764699
F        5.31769629       5.52811006      11.87557056      -0.34850609      -2.04650490       1.04739998       0.12737983      -0.29683742       0.09951171      -0.01131419      -0.29303142
C        7.49287993       3.57347990      11.61985661      -0.95782459      -0.23561690      -0.52531935      -0.26682067       0.41910949       0.52471936       0.02408478      -0.12306407
F        8.44146776       4.51421081      11.58897967      -1.60722347      -0.34484042       0.69195267      -0.01025418       0.81773508       0.37784445      -0.01056754      -0.25455272
F        8.15323115       2.45174557      11.46669971       0.23694194       0.87814912      -0.63314297      -0.18961507      -0.92726374      -0.36774847      -0.01026521      -0.20927690
F        6.90550014       3.54129965      12.85657087      -0.03098896      -1.60579224       0.56870615       0.56934154       0.30089176      -0.81888056      -0.01276315      -0.27061668
H        7.64440270       3.83247455       9.14208812       0.05070960      -0.05235850       0.15730134       0.41849917       0.06129898      -0.65693235       0.02418574      -0.03385490
H        5.61228303       3.15162750      10.88985352       0.19396500      -0.13212195       0.04551339      -0.24911992      -0.24109018      -0.18943341       0.01081651      -0.03524439
O       10.99378009       3.13105048      10.67023539       1.57127029      -0.96155903       0.65342269       0.13032824       0.04502863       1.08781278      -0.02954549      -0.10143868
C       11.83265692       2.98546457      11.80181135       0.96574166      -0.80078585      -0.10735483      -1.22450352      -1.01118147      -0.49913695       0.01115615      -0.25229764
C       12.54773392       4.29689874      12.16843583       0.67218305      -1.49091512       0.14602489      -1.65917838      -0.07041962      -1.41815770       0.02103952      -0.14360587
F       11.67022242       5.34002513      12.21624217       0.99116310      -1.24426616       0.72958514       0.44728535      -0.71661854       0.16645792      -0.01597201      -0.29203752
F       13.42567095       4.56483040      11.21313835      -0.34239399      -0.87989682      -0.04873634       0.49754721       0.69871843      -0.86982644      -0.01230813      -0.24280560
F       13.18659480       4.21108131      13.27859186       1.52141305      -0.65378861      -0.31996777       0.77989525       0.08380386       1.97608137      -0.00838569      -0.21340311
C       12.82574590       1.79387555      11.63240754       0.58159110      -0.71542559      -0.95252445      -1.87989187      -0.59695828       0.47313005       0.02267417      -0.07952872
F       13.81671143       1.98184995      10.82871242       1.27097619       0.41586150       0.28599922       1.01196313       0.36443958      -2.11782312      -0.00915929      -0.18073064
F       12.16785139       0.65530992      11.17334531       0.96927524      -0.34554641       0.65257014       0.68388438       1.52442610       1.00196302      -0.01677782      -0.25710389
F       13.38319123       1.57956070      12.81204808       1.02706339      -0.05830897      -0.00571298      -0.18413001      -0.91958570       1.10085285      -0.00969031      -0.23377392
H       11.52332934       3.15364448       9.88434623      -0.21326153       0.18819028       0.06571850       0.53100848       0.08835305      -0.79190493       0.02049275      -0.05811351
H       11.14655690       2.66154529      12.60811767      -0.00426735      -0.28572564      -0.05362080       0.49372002       0.39245641      -0.15523008       0.01129690      -0.04539322
O        6.34210333       7.12748684       7.82904530      -0.00821178       0.53568790      -0.30979391      -0.35784063      -0.49862176      -1.23588824      -0.02729540      -0.10944101
C        6.92870240       7.48179052       6.59912545      -0.13770874      -0.09840093      -0.12953919       0.89562166       0.72068697       0.86940026       0.01337934      -0.14699376
C        6.20114233       8.78565291       6.05364110       0.58374673      -0.26140266       0.36286749      -0.68027461      -1.69631135       0.98630154       0.02369805      -0.10592153
F        6.18818659       9.59161953       7.10979460       0.81328671      -0.17394039      -0.04034935      -0.09503629       0.68022752       0.21965757      -0.01283960      -0.23929991
F        4.90263546       8.56039653       5.71414107       0.28809920      -0.04696936       0.42506098       0.61234367      -0.13921805       0.08628313      -0.01274778      -0.27060413
F        6.78784237       9.40411930       5.06671218      -0.31251749      -0.09152982      -0.21027123       0.58376467       0.17145768      -0.79582441      -0.00875483      -0.25863826
C        7.13951099       6.27201034       5.67530459      -0.68327159      -0.75112213      -0.35989550      -1.27833629       0.64541835       0.01909898       0.02502105      -0.10265557
F        5.93680085       5.71328083       5.42069015      -1.52221453      -0.26427509      -0.38586503      -0.03455518      -0.56805527       0.44484261      -0.00851748      -0.27017647
F        7.96659874       5.32669434       6.16267828      -1.98179255      -0.72836404      -0.43652810      -0.54803449       0.77873671      -0.26283860      -0.01032086      -0.27654096
F        7.55922600       6.71316274       4.50535218      -0.94997313      -0.00213497       0.81375954       1.03236282      -0.00416191      -0.66635346      -0.00934672      -0.24408560
H        5.55376578       6.62888778       7.56306011      -0.02730036      -0.00211187       0.11969346      -0.16185519      -0.02300595       0.59235597       0.02464763      -0.02902178
H        7.92220398       7.84911201       6.87339471      -0.21029606      -0.11267734       0.02861600       0.08917498       0.00360767      -0.25585359       0.01268388      -0.02682092
192
Lattice="14.583053140555954 0.0 0.0 0.0 14.583053140555954 0.0 0.0 0.0 14.583053140555954" Properties=species:S:1:pos:R:3:momenta:R:3:forces:R:3:charge:R:1:energies:R:1 Built=T with=T Packmol=T charge=0 spin=1 external_field="_JSON [0.0, 0.0, 0.0]" energy=-19.501344680786133 stress="0.003125552088022232 -0.0023226612247526646 -0.00023469384177587926 -0.0023226612247526646 0.005310317035764456 0.001802518148906529 -0.00023469384177587926 0.001802518148906529 0.001534955925308168" dipole="-0.15366438031196594 -1.108624815940857 -0.4480075240135193" free_energy=-19.501344680786133 pbc="T T T"
O       13.58590610       5.96297618       7.12499496       0.06600663       0.29323632       0.59458793      -0.16715425      -0.06371354      -0.05400814      -0.02583206      -0.11429044
C       12.82919340       4.82062078       6.85094721      -0.80562643      -0.17446571      -0.22396506       0.51717299      -0.03448734       0.65303153       0.01366282      -0.20312873
C       11.34932588       5.06384500       7.18263720       0.22706191       0.03143497      -0.49209124      -0.08832288      -0.15796849      -0.63015372       0.02331613      -0.15404028
F       10.87231644       6.11179712       6.48451812       0.77168197      -0.82922888      -1.04375948       0.41391748      -0.11251140       0.28437066      -0.01262646      -0.27290809
F       11.16739424       5.31970546       8.48032459       0.46241272      -1.02851795       0.21862710      -0.07046419      -0.04969694       0.34548420      -0.00877088      -0.29205987
F       10.59353900       4.01528901       6.83814657       0.76069264      -0.03722250      -0.40497283       0.02554361      -0.20391840       0.22065757      -0.01058431      -0.26766378
C       13.55524745       3.57926379       7.52780269      -0.29080422       0.57007866      -0.67900090      -0.84553099      -0.05033779      -2.13681817       0.02406448      -0.08139377
F       14.07396794       3.76465260       8.70235462       0.32561854       0.81834489      -2.15210711       0.39804631       0.97169638       1.22199321      -0.00732640      -0.23865756
F       14.54881826       3.23718072       6.68807502       0.62525887      -0.20590845      -0.03606284       0.06857866      -0.03982509       0.09390077      -0.01106668      -0.26068750
F       12.74912754       2.51292573       7.64387153      -0.84224020       0.25103171      -0.42153294      -0.50440264      -0.28641438      -0.12700805      -0.01036680      -0.28279501
H       13.50289193       6.16719521       8.06667034       0.04465484       0.07378358       0.08479289       0.08523568       0.10858399       0.02479308       0.02255572      -0.05693157
H       12.85374284       4.64187869       5.77629266      -0.00673254      -0.08484793      -0.09649300       0.15559070      -0.07091130      -0.01078790       0.01426888      -0.04281016
O        2.06901940       9.44586716       2.31208938      -0.45165315       0.25092304       0.56867946       0.20930953       0.03313890       0.03839859      -0.02577135      -0.18002778
C        3.09894536      10.36182972       2.59951149       0.55333250       0.67767346       0.04020605       0.16505422      -0.55061400      -0.33417150       0.01371477      -0.26152086
C        2.81811090      11.74096054       1.99313184       0.41259526      -0.01389153      -0.16915254       0.05563779       1.03711319      -1.55086052       0.02354119      -0.14316337
F        1.54294762      12.08397776       2.21534683       0.85115883       0.51193213       0.05458306       0.38401920      -0.24201041      -0.00496459      -0.01111688      -0.25402752
F        3.04663829      11.88572859       0.64517691       0.74021534      -0.66508792      -0.72693928      -0.43305635      -0.93088484       0.83172572      -0.01390962      -0.24441391
F        3.59707081      12.68125814       2.51913836      -0.62069623      -0.53927780       0.84354964       0.10787664       0.07394738       0.65595001      -0.00926262      -0.20512530
C        4.48163959       9.79058171       2.19584822      -0.10390859       1.02842480      -0.69256372      -0.83060771       0.05731279      -0.92625248       0.02477749      -0.12210015
F        4.35137008       9.15627521       1.01026390      -0.86703302       0.73422930       1.26333688       0.07170270      -0.09457658       0.14229171      -0.01078923      -0.24050832
F        4.93209555       8.88781362       3.05595029      -0.25659304       0.32026154       0.05121569       0.03542799       0.15856513       0.24160796      -0.00900614      -0.25180465
F        5.36765492      10.75540910       2.01791701      -0.04432698       0.74145109      -1.14071494       0.37684149       0.03414815       0.30544335      -0.00961963      -0.23950729
H        2.34704850       8.81237162       1.63025367      -0.05116232      -0.02403237      -0.05904661       0.06496391       0.34916607       0.04914490       0.02211457      -0.05826834
H        3.13301225      10.51388241       3.66687566       0.05812899       0.03684273      -0.05864487      -0.06650124       0.15660958       0.49925327       0.01241145      -0.04506867
O        7.61587775      13.02643686      13.92691529      -0.21349659      -0.15310485      -0.45947446       0.24189109       0.38093060      -0.72709876      -0.02876661      -0.09254260
C        8.02483508      13.31792501      12.61720147      -0.03820625       0.34916656      -0.20630528      -1.37791264       0.79547191      -0.04692621       0.01214298      -0.20970248
C        9.47875871      13.84358412      12.49517361      -0.44617781      -0.14620229      -0.65794030       0.10780184      -0.49079451      -0.11547287       0.02264633      -0.14128119
F       10.16693092      13.29060653      13.48847508      -1.13217680       0.56215549      -0.30930809       0.37941551      -0.01071702       0.07851749      -0.01248357      -0.24431503
F        9.63662803      15.17030875      12.57437984      -0.40533591      -0.02671390      -0.37234035      -0.22320339      -0.12511328       0.01509453      -0.01113716      -0.26901644
F       10.04698724      13.42587974      11.33052488      -1.30179293       0.42572573       0.17657365      -0.51381755       0.29063281       0.66212195      -0.01411452      -0.24310219
C        6.92825326      14.18303427      11.88267792      -0.12020121       0.02700616      -0.23920465       0.70653576      -0.68781883       0.17064665       0.02425587      -0.10022837
F        6.47041558      15.16105997      12.70107638      -0.37199848       0.31172284       0.03364872       0.40865481      -0.15060836      -0.64076531      -0.00831771      -0.27124137
F        5.85916288      13.43752644      11.54830129      -0.00471269       0.51830151      -1.05337560      -0.09634901      -0.15693179       0.45241368      -0.01176039      -0.27512521
F        7.37615265      14.66183693      10.72041115      -0.37600020       1.42953950       1.33261317       0.16043328       0.48878503       0.50872838      -0.01145931      -0.23552568
H        7.26320931      13.81150498      14.37075691       0.12293270       0.06666483       0.03108442       0.18638852      -0.06812160      -0.09608847       0.02470736      -0.04420350
H        8.02193485      12.38503305      12.09036478       0.14674910       0.05813729       0.10485195       0.10898294      -0.64421517      -0.36501104       0.01235516      -0.03048315
O       13.82779347       9.01448776       1.68905908       0.57788527      -0.01223718       0.38050744       1.69393802      -0.34379742      -1.42473054      -0.03503839      -0.07744402
C       12.82079767       9.30772893       2.55006543       0.36236953       0.61655944      -0.67923131      -0.38346833      -1.26599300       0.23245665       0.00890881      -0.16384989
C       13.25075183      10.52874047       3.33810088      -0.41279944       0.75096121      -1.45804204       0.24687532       0.49949181       0.15352818       0.02390669      -0.11834298
F       13.68680334      11.51058892       2.48901179      -0.46152307      -0.29913926      -0.07510541      -0.57956040      -1.08361661       0.89209372      -0.01233238      -0.23966961
F       14.28792547      10.17091746       4.13250236       2.15036626       0.05186273      -1.30891035      -0.28270155       0.62748206      -0.10903496      -0.01184197      -0.27410394
F       12.28760815      11.06880254       4.09314711       1.61417349       0.37250889      -0.88641307       0.19502528      -0.31238669       0.04378705      -0.00903121      -0.25676194
C       12.42196909       7.96255860       3.28750996       0.44437911       0.34670236      -0.77302936       0.92272735       2.17257786      -0.01619899       0.02415418      -0.10561594
F       13.31378394       7.64806004       4.22290812       0.54137573       0.02687599      -1.44603144      -0.29089698      -0.37356263       0.41197163      -0.01023690      -0.28152770
F       12.38029173       6.96480613       2.41330899       0.43654582      -0.04751285      -0.47699078      -0.12725726      -0.30394873      -0.32403708      -0.01030799      -0.27658930
F       11.20317507       8.12006548       3.79953494      -0.08373838       1.98931237      -0.58457547      -0.30032429      -0.30498755       0.61869305      -0.01189785      -0.27837831
H       14.73105429       9.24728226       2.00843382      -0.21449278      -0.27413613      -0.06854236      -0.70052230      -0.05412922       0.05842080       0.02001829      -0.08789013
H       11.91321002       9.49416698       2.00753742       0.01953704      -0.13965603       0.04677012      -0.45073140       0.66932690      -0.58716798       0.01153881      -0.03410516
O       11.13548219       4.37732179       0.72710180      -0.09172632      -1.39168439       0.56803051      -0.12627980       0.19059989      -0.70205772      -0.02439575      -0.10486631
C       10.87325531       3.27079080       1.48918882      -0.55159557      -0.54438893       0.53285661       0.40486929      -1.39185607      -0.30896237       0.01327815      -0.21735184
C        9.71140427       3.41514193       2.43090048      -0.04363155      -0.16735426      -0.38134569       0.18585181       0.43465996       0.19029924       0.02411501      -0.15287553
F        8.68781962       3.99579804       1.81156985       0.32289006      -0.61634042       0.53128866      -0.24634978      -0.18073721      -0.01756720      -0.00894944      -0.26366013
F       10.04546065       4.19838070       3.46332684       0.35839053      -1.23983133      -0.30831848      -0.16585150      -0.02750621       0.53743768      -0.01123169      -0.28146553
F        9.34343988       2.20494042       2.86740184       0.13524967      -2.31782598      -0.38520634      -0.29352832       0.19146672       0.28068978      -0.00876670      -0.25599381
C       12.13732528       2.71235869       2.13639567      -0.78691953       0.44059038       0.18022126       1.84453166       0.65226460       1.40784407       0.02309838      -0.13057049
F       12.80789351       3.67520912       2.85069357      -0.67062333      -0.15568778       0.60550762      -0.59642845       0.23722386      -0.30619085      -0.01415007      -0.27871764
F       13.02474733       2.27567231       1.25396703       0.86438271      -0.66074971       1.25501399      -0.19450864       0.04946152      -0.99063206      -0.01014456      -0.24595609
F       11.97532980       1.71578800       2.99469662       0.36705188       0.00917945       0.51213776      -0.90198243      -0.28488579       0.22242811      -0.00994875      -0.22685805
H       11.44945178       5.12412710       1.24365721       0.29017018      -0.20973299      -0.03559274       0.11414527       0.09884572       0.34821570       0.02365549      -0.06825155
H       10.56578314       2.43196670       0.86296368       0.09144636       0.05250536      -0.19579144      -0.07579993       0.17691532      -0.60045898       0.01289412      -0.01187987
O        9.08719683       7.31852450      12.16538223      -0.09961271      -0.52377222      -0.46887787       0.33868796       0.70254862       0.42464292      -0.02963453      -0.11897786
C        8.87382617       8.56457276      12.75789809       0.15418503      -0.51862568       0.35711043      -0.02998364       0.79180390      -0.41513544       0.01197186      -0.23993875
C        9.55486084       8.76030501      14.13755537      -0.82243161       0.10965263       0.43930250       0.27046522      -0.30084190       1.20594358       0.02339248      -0.14132673
F       10.72380346       8.08929356      14.17723269       0.22557044      -0.44590591       0.72071537      -0.28100684      -0.05750388      -0.23990147      -0.01375851      -0.27822632
F        8.82291705       8.30889425      15.19432350      -0.91246675       0.65591666       0.92403561       0.20639125       0.15709060      -0.81189257      -0.01156293      -0.27375427
F        9.86542658      10.04409348      14.41755016       0.75366886      -1.83649686       0.83706598      -0.65881538      -0.36107332      -0.42811733      -0.01359511      -0.23579001
C        7.37329758       8.90267589      12.73780198       0.68592575       0.14213884       0.75211585      -0.10604886      -0.63475972      -0.08117948       0.02467705      -0.14143363
F        6.69887491       7.97309624      13.44946458       0.44923191      -0.48591428      -0.10398843      -0.04123475       0.11781869      -0.33344287      -0.01059983      -0.27716666
F        6.94009096       8.85513299      11.45715480       1.23444853      -0.41487617       0.87217380       0.08732554       0.05467303       0.65357298      -0.01340633      -0.27363920
F        7.06975824      10.09580644      13.23252525       0.57935821      -0.81373937       1.31349267       0.22269350       0.16782679       0.06455019      -0.01014677      -0.27525857
H        8.43008772       6.70885165      12.49449765       0.31838777      -0.04801715      -0.04369069      -0.29182988      -0.56452906       0.19782624       0.02275098      -0.04703960
H        9.32934711       9.32160430      12.11329910       0.04922283      -0.05711635       0.14536138       0.17091978      -0.10160934       0.02541580       0.01096717      -0.04047899
O        3.76725697       1.32115204      12.23117564      -0.21436741       0.20726250      -0.66010608       0.67474109      -0.47053373      -0.64694238      -0.02974552      -0.11525087
C        2.61176200       1.76609227      11.56141999      -0.04562010      -0.14302786      -0.82342565       0.42466682      -0.81255955       0.96792305       0.01081699      -0.20354939
C        2.89881225       1.72090818      10.05126531       0.15644116      -0.13472053      -0.03466354       0.54516232      -0.74641323      -0.37538642       0.02529643      -0.08547944
F        3.38710030       0.44437642       9.81401553       0.03256419       0.68037366       0.70430635       0.38221353       1.34754360       0.28958988      -0.01361561      -0.17371619
F        3.84563663       2.60632517       9.64052897      -0.22013912       0.53713900      -0.28695343      -1.04256606      -0.91110849       0.19334114      -0.01008700      -0.24787435
F        1.81408216       1.80099063       9.29126567       0.72930969       0.70997819       0.65144489       0.04872707       0.72959822       0.06066709      -0.01105603      -0.25353003
C        2.28888145       3.10774129      12.24198543      -0.41281447      -0.81839861      -0.69481142      -0.27066177       0.19945395      -0.55526465       0.02468201      -0.09682181
F        2.89659543       4.13317510      11.54971667      -0.06187513      -0.24383706       0.75962818      -0.77230930      -0.66610956       1.01382184      -0.01138854      -0.26494327
F        2.64797028       3.15601998      13.53015095       0.96717362      -1.02353275      -0.47813779       0.30670646       0.00632086      -0.86875528      -0.00873862      -0.24672681
F        0.95855918       3.25742867      12.23403533       0.03092962      -0.52659773      -0.33425089       0.61840081       0.76372832      -0.25429523      -0.01168799      -0.17883134
H        4.26225015       0.68980729      11.66203498       0.13811931      -0.15314257       0.01218621      -0.61834949       0.39231285       0.59527212       0.02150501      -0.04404644
H        1.74728906       1.09013684      11.75682899       0.21070836      -0.13311661      -0.14644132       0.44916913       0.38158274      -0.25489089       0.01288775      -0.05119712
O        2.41014930       6.96469540      11.56614691       0.06140435      -1.31589493       1.50154753      -0.01690151       0.19079149      -0.20256966      -0.02986403      -0.13001162
C        1.98772055       7.63535300      12.70006530      -0.13871466      -0.42244375       1.41195916      -1.16296434       0.40488040       0.69258684       0.00958148      -0.23828825
C        2.67062760       8.99552423      12.91445366      -0.45539500      -0.21811102       0.20067305       1.26874590       0.63730735       0.85484183       0.02276508      -0.14504524
F        2.61609177       9.86573210      11.91256011      -0.20617567      -0.48564838       0.10320458      -0.66262698      -0.37321597      -0.47389618      -0.01227823      -0.24108826
F        4.00852619       8.86106915      13.15424642       0.04741165      -0.23506321       0.54728916      -0.73951268      -0.50286734      -0.13662323      -0.01405837      -0.23378116
F        2.13765118       9.62431986      13.99388398      -0.78964959       0.13102318      -0.18998579      -0.06211069      -0.40510917      -0.49594879      -0.01224612      -0.24554937
C        2.12093252       6.70119129      13.92591845      -0.51274423      -0.04638310       0.28578022       0.44457221       1.27670038       0.07774328       0.02527243      -0.09747232
F        3.26057229       6.04008412      13.92298290      -0.05182450       0.07961415       0.28126817       1.13586307      -0.01990289       0.21818241      -0.00684872      -0.24932477
F        1.18434233       5.81593102      13.83516749      -0.87913471      -0.16188919      -0.54015248      -1.73359120      -1.34074283       0.13181275      -0.00960955      -0.21019867
F        1.98537793       7.31729395      15.14648260      -0.11484208       0.22567283      -0.13024677       0.10971858      -0.34485638      -0.70239103      -0.00629331      -0.25232553
H        3.22369827       6.46530706      11.73805396       0.06243526      -0.13040754      -0.12960657      -0.06994732       0.16444767       0.06493233       0.02145118      -0.06477022
H        0.86642389       7.81797663      12.63938647       0.16541410      -0.02665050      -0.00506152       1.67698038      -0.08673315      -0.08323424       0.00902200      -0.01206907
O        4.16058274      15.27917912       7.14597516       0.33765968       1.34780865      -0.02750987       1.00709724       0.11428741       0.41738102      -0.02644703      -0.05850147
C        4.68706465      14.07434946       6.68978781       0.06905103       1.60691792      -0.19693986      -0.17332345      -1.00615215       1.31564426       0.01006199      -0.19438139
C        6.19376721      13.92574042       7.08585685      -0.16839684       0.62084102      -0.12739653       0.51617777       0.67685372      -0.90097880       0.02416494      -0.12678671
F        6.25541434      13.69770162       8.40361763      -1.58902593       0.78343376       0.52222515       0.01341411      -0.47285610      -0.32296887      -0.01259628      -0.25086865
F        6.99574145      15.00669286       6.87622271      -0.63125895       1.24700496      -0.31725814      -0.99625075      -0.73892379      -0.23341176      -0.01227762      -0.26148728
F        6.73799652      12.88707831       6.37878714      -0.97276230       1.33311738       0.23150858      -0.59501272       0.78059107       0.98675764      -0.01283810      -0.25741598
C        4.34144978      13.79925265       5.23524529       0.56911409       1.31865309       0.62680636       0.06693603       0.69536608      -0.31039017       0.02379307      -0.15109667
F        5.09465763      14.47933333       4.36467511      -0.13678432       0.76110236      -0.00871959       0.23898076       0.07799273       0.09234263      -0.00908910      -0.27324432
F        3.07253163      14.23476776       5.03981811       1.46834350       2.32587795       0.15474699       0.04311948      -0.45740056      -0.10762958      -0.00997462      -0.25748676
F        4.43096654      12.51243524       4.93215040       0.03493415       2.69331458       1.26546829      -0.18258590      -0.25231868       0.24029660      -0.01105308      -0.24349785
H        3.45596625      15.62188284       6.59791142      -0.10197792      -0.02284816       0.10085085      -0.24554412      -0.21708092      -0.40205634       0.02483115      -0.04553374
H        4.24189675      13.20921987       7.27641403      -0.32797608      -0.01835799      -0.10409713       0.28676343       0.81291085      -0.80194819       0.00952522      -0.02032233
O       11.92052503      13.48479883       8.94314427      -0.28986120       0.28035330      -0.43916530       0.28916588      -0.88344836       0.44539055      -0.02881527      -0.03057817
C       11.17465715      12.41649960       8.46684204       0.39867401       0.51469260      -0.80626604      -1.09102702       0.75084114      -1.03153110       0.01210251      -0.22527893
C       11.76940057      11.77112881       7.16175944      -0.03019994       0.81302066      -1.23366786       1.19771290      -0.77917421       0.40019062       0.02399085      -0.08860544
F       12.85606065      10.98212311       7.42999710       0.18915031       1.29081403      -0.03798765      -0.69334197       0.51110274       0.23922949      -0.01662641      -0.23701280
F       12.25659886      12.76302951       6.40525209      -0.91761112       1.18191782      -0.64401126      -0.29518509       0.28919393      -0.31247926      -0.00971075      -0.27598542
F       10.96178454      11.00084163       6.41945365      -0.30447557       1.42172068      -1.21023668      -0.14456704       0.61708438       0.82816422      -0.01102547      -0.23111230
C        9.72051624      12.91554455       8.19860170       0.01463829      -0.07910421      -0.40400034      -0.09147957       0.97233272      -0.94365710       0.02255492      -0.11995950
F        9.42901875      13.18026977       6.90599027      -1.34223910       0.30237116       0.64330811       0.57109451      -0.02863882       0.10560988      -0.01146889      -0.23357734
F        9.49754007      14.07225630       8.84854749      -0.47007650      -0.49095641       0.29331194      -0.14807349      -0.66291302       0.00235860      -0.01335957      -0.23327021
F        8.84819526      11.99277981       8.57599179       0.36141901       1.00089442       0.29411306      -0.43146503      -0.36271387       0.59202206      -0.01216091      -0.27045822
H       12.24941088      14.01405480       8.22575295      -0.06441259      -0.06228004       0.11338782       0.19592603       0.45259443      -0.64280826       0.02401151      -0.03984687
H       11.01633054      11.72369605       9.27157813       0.15885234       0.22578989       0.00653045       0.51721680      -0.68976891       0.25292385       0.01100046      -0.03663419
O       14.54824790       8.74091142      11.03294346      -0.25741541      -0.68427263       0.69599638      -0.51228976      -0.17744365       0.39854774      -0.02465035      -0.06968150
C       13.23418660       8.85666857      11.50220941       0.32554341      -0.64314499       0.10287376      -0.46493432      -0.77173662      -0.36744779       0.01336565      -0.20975859
C       12.32544202       8.39313825      10.30947510       0.10922259      -0.08685017      -0.51877341      -0.83181018       0.82076108       0.08204447       0.02381326      -0.12064987
F       12.45511468       7.07584770      10.16974032      -0.94185698       0.69486819      -0.54504512       0.30069906       0.10685256      -0.28618532      -0.01022076      -0.25599784
F       12.66929526       8.99575568       9.12676757      -0.42918103       0.42606919       0.81450558      -0.40624326      -0.67687643       1.41775060      -0.01338702      -0.27965063
F       10.98983090       8.61904298      10.52519791       0.76564637       1.35786933       0.70976205       1.22168183       0.21803904      -0.20991173      -0.01307456      -0.25415197
C       12.97175002      10.25550019      12.10285906      -0.56567194      -0.37202195      -0.13616387      -0.69714832      -0.06355079      -0.24244978       0.02465398      -0.11349992
F       12.89492202      11.18964502      11.11170343       0.20307238      -1.17551117       0.04504107       0.05475955      -0.45955276       0.70626312      -0.01181451      -0.28266898
F       13.98198908      10.55014471      12.91104650      -1.24202685      -0.81133434      -0.11270154       0.11520680       0.28617635      -0.09460093      -0.00851066      -0.26298130
F       11.83882480      10.32963128      12.84066678      -0.66798488      -1.13110725      -0.20357772       0.67744195      -0.14499459      -0.87650084      -0.01137120      -0.26435781
H       14.80781819       9.58990448      10.69555827       0.07108484      -0.23013361       0.21867014       0.56105566       0.69965637      -0.57376915       0.02121676      -0.05568031
H       13.10800780       8.10665012      12.31078529      -0.16687024       0.08544776       0.05759276      -0.19588102       0.42359298      -0.35470310       0.01340513      -0.04763214
O        1.80313672      12.65217176       7.29886044      -1.23794586      -0.04158469       0.44448610       0.64233410       0.81454217      -0.76206648      -0.02438701      -0.09086809
C        2.08463430      11.95807638       8.45398095      -0.33729253      -0.35141830      -0.06331129      -0.55018634      -1.20206296      -0.97774500       0.01374280      -0.20662814
C        2.13361699      10.42179641       8.11153444      -0.55607461       0.67638259       0.01063871      -0.33033293       0.16653597      -0.50779450       0.02476311      -0.10143977
F        2.99430761      10.15564659       7.09583128      -0.74533377       1.63719178      -0.21839811      -0.38901335       0.69014806       0.75567430      -0.01207163      -0.26840043
F        0.93828659       9.92427007       7.68860709      -0.04815139       0.85674389       1.04580849       0.55357760       0.43359935       0.73487103      -0.01208126      -0.27990806
F        2.56611743       9.77144727       9.18242729       0.27537682       0.19118772       0.16812722      -0.23636113      -0.51012027       0.13370162      -0.00958000      -0.25386876
C        1.08607946      12.43264734       9.52305705       0.54384295      -0.42978422      -0.14814789       0.12455323       0.33791885      -0.23712586       0.02391959      -0.12812705
F       -0.16301259      12.55211831       9.03204767       0.41123477       0.04838469      -0.56186739       0.65743309      -0.27596474       0.11939576      -0.01121384      -0.25681797
F        1.44146016      13.64421572       9.98301900      -0.26186170      -0.88975503      -0.50055950      -0.34501442      -0.48686391      -0.20672134      -0.01176559      -0.22480048
F        1.06448868      11.61397028      10.55735593       1.56601373      -1.25738957      -0.81736700      -0.23610774      -0.63993073       0.76570988      -0.00759224      -0.26074162
H        0.92662138      12.43850258       6.96345558       0.00435683       0.04212683       0.09971100      -0.18344767      -0.14130667       0.06079251       0.02484580      -0.04960393
H        3.10621827      12.13919106       8.77587706       0.07484619      -0.07925918      -0.03371219       0.04859540       0.49743405       0.18300892       0.01373728      -0.03767744
O        9.40953799      12.04635622       4.36529701       0.72664370       1.11334436      -0.16636856       0.13739109      -0.46346328       0.15525439      -0.02860863      -0.10208061
C        9.17266953      13.03771938       3.43920231       0.23550467       0.02882950      -0.00898215       0.89840317       0.95507467      -0.00116247       0.01177968      -0.27319697
C        7.95440633      12.75379656       2.60137482       0.46781366       0.01031514       0.16259840      -0.52019984       0.23159072      -1.18892050       0.02394036      -0.16784789
F        6.87974389      12.45134313       3.32130118       1.11790136       0.45351834       0.87828237       0.33583334       0.08272177       0.16800898      -0.01107096      -0.24633272
F        8.17790139      11.76480074       1.73092538      -0.22595384       0.59239198       0.49159749      -0.11961301      -0.31913483       0.18821250      -0.01223185      -0.25466242
F        7.64714584      13.85865497       1.85733353      -0.10963313      -0.22394997       1.09437242      -0.15120444      -0.12591346       0.53135788      -0.01172959      -0.23345855
C       10.44182588      13.26655687       2.54450073      -0.01385182      -0.12345652      -0.54182489      -0.51737195       0.61880171       0.71351790       0.02289543      -0.14076923
F       10.80546598      12.10354503       2.00379615      -0.40023919       0.19928942      -0.00231939       0.39081359      -0.08151801      -0.16581893      -0.00872856      -0.26558402
F       11.47706726      13.75345951       3.27836862       0.44623886      -0.15512040      -0.91452160      -0.86128879      -0.61117256      -0.52216226      -0.01256195      -0.25346297
F       10.19590440      14.13958870       1.55290002      -0.09077590       0.15667545      -0.58562423       0.30996710      -0.15129445       0.23480606      -0.01155268      -0.25677717
H        9.82148123      11.28060932       3.93484270       0.03993729       0.07286870      -0.05557090      -0.13661626       0.14403881       0.08337379       0.02381131      -0.04312105
H        8.96049111      13.98217036       3.96016066      -0.07862816       0.23458921       0.10154881       0.17683004      -0.23111895       0.05376476       0.01340098      -0.04495769
O        6.77002396       3.49394502       9.32031266      -0.49188909      -0.15832179       1.01900333       1.06251097       0.46382913       0.26475114      -0.02553901      -0.12750411
C        6.43893092       3.81518693      10.62504796      -0.34154885      -0.77953109       0.27263153      -1.17906785      -0.89153183       1.07770848       0.01248475      -0.22794798
C        5.85240355       5.22602705      10.74127757       0.03668567      -0.58663593       0.56697802      -0.69793391       0.05426042      -0.31567281       0.02374229      -0.15635812
F        4.85308271       5.35297328       9.84990707       0.04734876      -2.05555886      -0.34358413      -0.26759726      -0.11470684       0.20663881      -0.01177966      -0.26895660
F        6.73111522       6.15764273      10.42061029      -0.46733061       0.29399879       0.18434865       0.54193807       0.31460905       0.32203019      -0.01014724      -0.23798937
F        5.34176206       5.50662001      11.97200133      -0.20979669      -2.13523007       0.88766448       0.39038518      -0.19399962      -0.64842075      -0.01053225      -0.28963819
C        7.50093008       3.58843263      11.67710703      -0.70425695      -0.10615695       0.03397253       1.10807371      -0.00077857       1.52115893       0.02393455      -0.11352744
F        8.44989024       4.53774031      11.67768212      -1.62550384       0.10077266       0.82808927      -0.18295497       0.94371629       0.23527290      -0.01106137      -0.24720673
F        8.20593140       2.48292255      11.51593134       0.06854035       0.41410329      -0.82925282      -0.47289708      -0.82069856      -0.44599789      -0.01152928      -0.20555294
F        6.94898205       3.52308367      12.94073853       0.20515301      -1.41809928      -0.01104022       0.38482627       0.34702662      -1.36072040      -0.01329423      -0.26456985
H        7.68284599       3.80516820       9.19605579      -0.14188637      -0.17015219      -0.14293870      -0.21604253      -0.12363258      -0.49601573       0.02464442      -0.03252555
H        5.68741400       3.09120871      10.95597736      -0.02990431      -0.14084023      -0.04146621      -0.37759635       0.33060035      -0.19724700       0.01114668      -0.02396266
O       11.10521606       3.12091247      10.76037350       1.45816685      -0.87447589       0.78851857       0.04459809       0.37302339      -1.64031529      -0.02880210      -0.04417075
C       11.93059135       2.95874744      11.86259496       0.47992650      -1.34441935      -0.38278918      -0.15690628      -0.77479261      -0.85180390       0.01132048      -0.28317693
C       12.63436291       4.26562734      12.23548478       0.00548897      -1.18610975      -0.29906942      -0.65656066       1.04904318      -0.24266398       0.02161290      -0.15753518
F       11.76806310       5.33385029      12.30843427       1.20516968      -1.72078585       0.77572953       0.41182086      -1.23748577       0.06495313      -0.01701754      -0.28023711
F       13.49967168       4.57311051      11.27301772      -0.11827380      -0.60148412      -0.45571759       0.30227894       0.36332038      -0.71254021      -0.01245962      -0.24503608
F       13.30802398       4.21931757      13.36014541       1.74139937      -0.65953761       0.42161538       0.06488036      -0.15129250       0.77008903      -0.00986312      -0.23471546
C       12.91078707       1.77197170      11.67282779       0.00497881      -0.79578641      -0.35401064      -0.06801119       0.31918362       1.60393822       0.02265049      -0.10818098
F       13.93672533       2.00557029      10.88723313       1.57104104       0.45951915      -0.68452049       0.02971400      -0.18945327      -1.57541180      -0.01000608      -0.20355563
F       12.26944762       0.65903136      11.26169969       1.28169386       0.27483620       0.99436847       0.56445324       0.84108144       0.41968244      -0.01240002      -0.26790625
F       13.48700423       1.58179338      12.89251788       0.81420420      -0.48314041       0.24687027      -0.59838969      -0.80895460      -0.03656521      -0.01271473      -0.23852661
H       11.56765596       3.27495218       9.89245446       0.00710634       0.20438168      -0.01236713      -0.25541010      -0.19567421       1.51086295       0.02126191      -0.06069447
H       11.27416229       2.59940936      12.64069010       0.19561308      -0.04605039      -0.05237805      -0.14821452       0.27327961       0.57278353       0.01160311      -0.03402837
O        6.37654992       7.18216226       7.85883812      -0.17898478       0.27643534      -0.68469828      -0.11996576      -0.39493549      -0.17506075      -0.02684283      -0.08102427
C        6.96574795       7.52400939       6.63925231      -0.12792787      -0.10067183       0.13574012       0.18769962      -0.33669695       0.42643052       0.01414784      -0.18612167
C        6.25296723       8.81371568       6.11047152       0.12617848      -0.79293506       0.55230675      -0.95182467      -0.26808614      -0.21925819       0.02378211      -0.12964052
F        6.24545521       9.64784015       7.15204929       0.77468300       0.08352856       0.02377644      -0.02512512       0.29927933       0.00112158      -0.01292784      -0.24090937
F        4.94405548       8.60908509       5.76009848       0.68928010      -0.12725548       0.52232515       0.96304113      -0.23057580       0.33361703      -0.01325068      -0.26426610
F        6.82336026       9.45755752       5.08806263      -0.08514553      -0.15351801      -0.38170889       0.27232942      -0.51617604       0.17126906      -0.01101359      -0.26201814
C        7.14035980       6.28823168       5.69693401      -1.33644627      -0.21659549      -0.18946690      -1.20722222       1.34763515       0.49998641       0.02511831      -0.09543592
F        5.93348158       5.73726548       5.44566015      -1.42985907      -0.48233150      -0.17908845       0.25331604      -0.31998911       0.36028084      -0.00832145      -0.27945608
F        7.95990645       5.34395467       6.18647903      -2.17499032      -0.39771515      -0.54688292      -0.44158423       0.58524632      -0.21436539      -0.01051453      -0.27732566
F        7.58616963       6.75258886       4.54792672      -0.45169236      -0.04835640       0.39034467       0.84287208      -0.19543554      -0.86329919      -0.00903299      -0.24530399
H        5.56644583       6.67313249       7.71737615      -0.04415872       0.02948017       0.27101872      -0.00926295       0.07556574      -0.06552766       0.02459351      -0.04999132
H        7.95986304       7.86786334       6.91325675       0.19373667       0.00075026      -0.02892239       0.29940572       0.01818902      -0.23391820       0.01276776      -0.02640427
192
Lattice="14.66385733935767 0.0 0.0 0.0 14.66385733935767 0.0 0.0 0.0 14.66385733935767" Properties=species:S:1:pos:R:3:momenta:R:3:forces:R:3:charge:R:1:energies:R:1 Built=T with=T Packmol=T charge=0 spin=1 external_field="_JSON [0.0, 0.0, 0.0]" energy=-19.509071350097656 stress="0.005955323576927185 -0.0009008911438286304 0.0008356910548172891 -0.0009008911438286304 0.006632241886109114 0.0016657512169331312 0.0008356910548172891 0.0016657512169331312 0.003972670063376427" dipole="-0.35549283027648926 -0.9614990949630737 -0.8284415602684021" free_energy=-19.509071350097656 pbc="T T T"
O       13.66039585       6.00300176       7.18255594      -0.15072589       0.10676461       0.51978634      -0.58415568      -0.71824914      -0.75842667      -0.02625110      -0.07043345
C       12.87832118       4.84211345       6.88333640      -0.15984662      -0.02618577      -0.07576851       1.78740025       0.62859017       0.35489959       0.01512387      -0.20120390
C       11.41911753       5.09044692       7.19938703       0.08762402      -0.12879323      -0.54497788      -0.34290528      -0.47691888       0.39791274       0.02402030      -0.15429038
F       10.95467197       6.12407437       6.49590119       0.91918848      -0.81806747      -0.83789206       0.23440321       0.10596954       0.44231069      -0.01083269      -0.26607341
F       11.24084831       5.32262439       8.53282739       0.43558611      -1.01390313       0.12045016      -0.01516540       0.03130079      -0.68772238      -0.01037293      -0.29550737
F       10.67173181       4.03541288       6.86693415       0.73311949      -0.12506041      -0.30435518      -0.09935893      -0.18831088       0.13984232      -0.01016241      -0.25753438
C       13.61182865       3.61772549       7.52345438      -0.54530268       0.25446119      -1.43389493      -0.04850811      -1.06732512      -0.59349358       0.02443441      -0.10874555
F       14.16190261       3.81261204       8.70286435       0.38823295       1.26030596      -1.57450214      -0.23550113       0.83936495       0.72400582      -0.00881171      -0.23807570
F       14.64398182       3.25020149       6.72464493       0.42786872      -0.15440564      -0.01657784      -0.77354020       0.18837696      -0.08301032      -0.01126111      -0.25219268
F       12.79637962       2.53322059       7.67421867      -0.90946532       0.30400859      -0.52326937       0.13056444       0.47776437      -0.34819135      -0.01188291      -0.27911437
H       13.60268664       6.22825731       8.11956173       0.03943601       0.01283133      -0.04148846      -0.12513140      -0.17504224       0.11586097       0.02246615      -0.06850144
H       12.93497606       4.64032537       5.80404966       0.03722016       0.00679905       0.10029880       0.03854848       0.32561064       0.21833375       0.01480325      -0.04163229
O        2.07127356       9.50677895       2.34168674      -0.09285761       0.39789067       0.57856302       0.91111875       1.02509165       0.61307949      -0.02612014      -0.15195692
C        3.13642340      10.43959288       2.61197379       0.35092491       0.32227897      -0.07309020      -0.87246788      -0.50536549       0.23258424       0.01420871      -0.24315178
C        2.84928313      11.81492769       1.98326736       0.31262438       0.40099867      -0.78017678      -0.34936744       0.48478431      -0.72701067       0.02372098      -0.14923526
F        1.57574507      12.16225070       2.22826675       1.00863323       0.35482011      -0.03437754       0.25406274      -0.32203132      -0.36337006      -0.01169745      -0.25032640
F        3.07984854      11.92923243       0.63650709       0.52496836      -1.02820404      -0.19496666      -0.37449208      -0.56256807       1.12607217      -0.01231850      -0.26180553
F        3.60260201      12.73869875       2.55801049      -0.45876836      -0.42838290       1.03886106       0.49159604       0.33782658       0.18124998      -0.00887806      -0.20979702
C        4.49582956       9.88309447       2.17717645      -0.35346246       0.75802002      -0.65064828      -0.10601531      -0.90597939       0.99355781       0.02474962      -0.12089205
F        4.35369322       9.22470697       1.04682030      -0.81606838       0.60499175       1.02746895       0.04957419      -0.41065609      -1.03299665      -0.00783830      -0.22020519
F        4.95233150       8.94870888       3.07394375      -0.31527614       0.65906869      -0.02985028      -0.25947422       1.13699031      -0.48373914      -0.01294076      -0.24951562
F        5.39857393      10.83416949       2.00165241       0.11942738       0.72629345      -0.98028424       0.19304195      -0.10011857       0.27082068      -0.00910803      -0.24377474
H        2.33774038       8.91183517       1.64051471      -0.02173804       0.18009048       0.01550534       0.24248455      -0.14255588      -0.42245623       0.02143781      -0.05951062
H        3.17070283      10.60632932       3.70384437       0.02577151       0.08728945       0.03177994      -0.05780330      -0.00848315      -0.46095604       0.01245365      -0.05228710
O        7.65307698      13.09835115      13.98492906      -0.10369667       0.12806936      -0.79956953       0.29152036       0.36607361      -0.85753149      -0.02832907      -0.11033306
C        8.05491569      13.41037404      12.67806818      -0.60682389       0.38712691      -0.28444375      -0.72955978      -1.03033268      -0.51224256       0.01243274      -0.18446766
C        9.51373607      13.91321590      12.54045710      -0.43340094      -0.11213332      -0.41859906      -0.17328665       0.54601198       0.98363280       0.02264082      -0.14787106
F       10.19653883      13.37832800      13.55530113      -0.93382585       0.51245217      -0.31687046       0.33817610      -0.15099083      -0.10762356      -0.01336914      -0.24806449
F        9.67814603      15.25240063      12.63431063      -0.51262161      -0.13919604      -0.38784807      -0.24697743      -0.29654807      -0.08546659      -0.01270349      -0.27189365
F       10.06683008      13.51238381      11.40058421      -1.42572498       0.48076123       0.32311674      -0.07889247      -0.04349452      -0.07300758      -0.01161941      -0.24168225
C        6.96713433      14.25743779      11.94220325       0.08601727      -0.18234143      -0.04253607       0.02914134      -0.09952822       0.49634206       0.02466552      -0.11402650
F        6.49956428      15.25085925      12.76802327      -0.13741959       0.09147165      -0.29934596       0.50696677      -0.68300307      -0.66173458      -0.01008084      -0.27492464
F        5.89128157      13.52440996      11.58833043      -0.00396235       0.44444991      -0.78715271       0.11501440      -0.11294368       0.55336201      -0.01180490      -0.27839702
F        7.40890918      14.78278848      10.81596419      -0.22898152       1.62461310       1.40976242       0.41508144       0.37717170      -0.05400857      -0.01043874      -0.22902936
H        7.38770314      13.89759601      14.45010527       0.20285827      -0.00123425      -0.00687708       0.00542693       0.16610010       0.15840974       0.02420866      -0.04545850
H        8.13177435      12.42444297      12.16581097       0.07886291      -0.05252428      -0.02082006      -0.38961387       0.60738564       0.09120797       0.01241780      -0.01830287
O       13.92205713       9.05910719       1.69429968       0.53162948      -0.31692175      -0.64698729       1.32978237      -0.21057555      -1.36690545      -0.03414263      -0.08638375
C       12.90114361       9.37003948       2.53865790       0.01405863      -0.06965441      -0.63303415      -1.10844934      -1.04434335      -0.43230242       0.01064569      -0.17236002
C       13.31587557      10.61776239       3.30499731       0.10436045       0.60483749      -0.93803324       1.43871045      -1.19249201       1.63440871       0.02429294      -0.07578330
F       13.74802128      11.56205619       2.50411778      -0.62130486      -0.54900453       0.07166576      -0.04086404       0.12932721      -0.36404747      -0.00838549      -0.23202689
F       14.41738278      10.23314556       4.11889154       1.64136396       0.41418151      -1.56624084      -1.37967610       0.79888940      -0.83741868      -0.01801053      -0.25652960
F       12.39709616      11.13806193       4.09399786       1.53119312       0.25411380      -0.76692355      -0.39285624      -0.13921994       0.41790903      -0.00783867      -0.25133339
C       12.51491803       8.04013624       3.27649119       0.63476134       1.18396889      -0.61512375      -0.22505546       0.98665422       0.44819844       0.02459535      -0.11177284
F       13.39902008       7.68942630       4.21130322       0.32434643      -0.06989029      -1.27449445      -0.52380514       0.04445417       0.18054552      -0.01006390      -0.26835662
F       12.45895717       7.00203098       2.41324042       0.33047271       0.02340061      -0.51827592      -0.25102746       0.66615677       0.16795591      -0.01159333      -0.27154842
F       11.26403901       8.21367863       3.80811157       0.09599729       1.74708447      -0.42755189       0.96895969      -0.48989838       0.02921733      -0.01392591      -0.27383190
H       14.81791133       9.20904933       2.06929217       0.25127432      -0.08434767       0.28153082      -0.57937461       0.10776851       0.10219492       0.02023402      -0.08663991
H       11.95963853       9.55939569       1.97215106       0.01596320       0.15882287      -0.17647489       0.71832877       0.33053276       0.00669143       0.01171635      -0.03781365
O       11.19414863       4.36318399       0.74447325      -0.05780572      -0.99510485       0.37418779       0.35336983       1.30542552       0.06505111      -0.02569882      -0.10260847
C       10.91750006       3.25279409       1.50982054      -0.17422892      -1.18297298      -0.04745230       1.07719815      -0.96242815      -1.66453040       0.01352784      -0.23965704
C        9.76326275       3.42582695       2.43427462      -0.08379023      -0.35996999      -0.05110422      -0.18715245      -1.07367051       0.91100460       0.02507100      -0.13090616
F        8.74232172       4.00104546       1.83491952       0.15681203      -0.68398920       0.48944800      -0.38474643      -0.15139459      -0.09204107      -0.00683910      -0.25171524
F       10.10915038       4.18923844       3.47756081       0.25739769      -1.27436650      -0.09136232      -0.21406473      -0.20122439       0.33724380      -0.01012556      -0.27068532
F        9.39756276       2.16219704       2.87407101       0.06722297      -1.81431094      -0.35888360      -0.04066918       1.51178908      -0.11550571      -0.01211863      -0.24389282
C       12.19514311       2.74522990       2.16966843       0.36365937       0.27685477       0.82742244       2.31439686      -1.17360866       0.96560526       0.02375842      -0.11526699
F       12.85736952       3.69339612       2.87967594      -0.99105255       0.00566835       0.40748765      -0.64592475       0.45828801      -0.36291078      -0.01132004      -0.27249229
F       13.11565078       2.27320134       1.28823166       0.51656589      -0.45017677       0.90404191      -0.97662222       0.68451238      -0.38048530      -0.01231652      -0.24441274
F       12.04515038       1.72493489       3.02520019      -0.09827887       0.00215745       0.54617624      -0.89910924       0.17870891       0.04819584      -0.01139990      -0.21932383
H       11.65819805       5.05217435       1.26000202       0.26403076      -0.25207920       0.01766202      -0.28321669      -0.33544523      -0.20496625       0.02369303      -0.06372791
H       10.65627887       2.49288867       0.75492035       0.03266430       0.12062816      -0.16521287      -0.17026775      -0.11076498       0.54257059       0.01293367      -0.02138961
O        9.13968292       7.35186273      12.22080751       0.11766963      -0.06640368      -0.23141370      -0.54849613      -0.21348846       1.11455047      -0.02959033      -0.07163031
C        8.92837364       8.59643281      12.84134800       0.11416323      -0.28933529       0.31837647       0.06605330       0.26324975       0.18956757       0.01228991      -0.24529433
C        9.58150608       8.80540305      14.24539462      -0.37936314      -0.37463546       0.95210380       1.26912224      -1.47034383       0.65415269       0.02348785      -0.10490707
F       10.78497812       8.12272762      14.27298482      -0.15666242      -0.42711905       0.61857406      -1.09907579       0.01070549      -0.09127742      -0.01685043      -0.27079087
F        8.84985037       8.37257578      15.29682689      -0.78156665       0.69011533       0.49560300       0.20912266      -0.02607612      -0.74431109      -0.01008611      -0.27303404
F        9.93502357      10.05247442      14.51633122       0.39614679      -1.72331444       0.63147479      -0.69971031       0.68400741      -0.30882782      -0.01215352      -0.22181363
C        7.43898878       8.94869244      12.83579556       0.49262374      -0.34043316       0.53630496      -0.50969934      -1.08938169      -0.66257274       0.02439509      -0.14463608
F        6.74776280       8.00603053      13.51940506       0.47168510      -0.37146556      -0.23646302       0.11389565       0.24160516      -0.17968726      -0.01117882      -0.27685493
F        7.01094342       8.89448952      11.54761477       1.26410465      -0.31434359       1.21367877       0.07634646       0.29756093       0.71395648      -0.01411393      -0.26716572
F        7.12535058      10.13223734      13.34002726       0.69139578      -0.68787084       1.32288430       0.27794039       0.20878309       0.05147038      -0.00973232      -0.27604479
H        8.55837808       6.63508853      12.59125162       0.14657047      -0.22346037       0.09293254       0.70913941       1.08872545      -0.29405022       0.02325799      -0.05892139
H        9.42983549       9.34633088      12.23229573       0.14113263      -0.04407872       0.04622464       0.04418385      -0.01679508      -0.20432732       0.01092805      -0.04035834
O        3.78767631       1.33141472      12.27478203       0.09156066       0.14494634      -0.75849947      -0.20379442       1.20052743       0.91592938      -0.02914049      -0.07370735
C        2.63378830       1.76371123      11.60079767       0.50198250      -0.39537096      -0.41166848       1.31638992      -0.31588838       0.65391266       0.01146315      -0.21345089
C        2.92740158       1.72084559      10.10225717       0.45391341      -0.24317405      -0.16916843       0.53236973       0.33320835      -0.07124770       0.02449444      -0.11808622
F        3.40934139       0.47153559       9.88740328       0.24874563       1.15648990       0.72294463       0.55142194       0.53045481      -0.19029801      -0.01201844      -0.19326434
F        3.85490337       2.62838871       9.68797615      -0.68691000       0.04755623      -0.17280737      -0.78703284      -0.96239531       0.20577343      -0.01068343      -0.25619334
F        1.84231161       1.83330578       9.35904702       0.64242423       0.99008717       0.57822940      -0.32021919       0.45721167      -0.27528784      -0.01117441      -0.25959265
C        2.28446204       3.09613167      12.28028385      -0.35945252      -0.54804320      -0.65047371       0.47464705       0.67935520       0.58427352       0.02529322      -0.10918684
F        2.90586139       4.14480097      11.63895381      -0.46545251      -0.64367540       1.15166973      -0.82804859      -0.88129789       0.58822370      -0.01180716      -0.26016274
F        2.68812468       3.14670606      13.58557219       0.95265072      -1.06383158      -1.07831883      -0.25038582      -0.23061079      -1.46152115      -0.01132030      -0.24125428
F        0.96872823       3.26637044      12.29174859       0.33877062      -0.19370506      -0.43961409       0.56702203       0.56041855      -0.21282636      -0.01056952      -0.18008828
H        4.26507398       0.67736102      11.79831017      -0.11861225      -0.05638756       0.14579025       0.39694199      -1.05779970      -0.76830721       0.02082781      -0.04880512
H        1.84457403       1.04785218      11.74075634       0.03118254      -0.12122088      -0.14510340      -0.77782875      -0.13495004       0.19409466       0.01270677      -0.04624882
O        2.42474511       6.96531048      11.67496657      -0.04298226      -1.09709106       1.41748264      -0.70649558       0.81689847      -0.03383347      -0.03114942      -0.06672905
C        1.99621117       7.66284127      12.82861294       0.39249964      -0.33384701       1.28683640       2.53572249       0.13875258      -1.05489135       0.01058611      -0.24038844
C        2.68160504       9.04244750      13.00278607       0.28370189       0.04477079       0.59757482       1.45358491       0.27745506       0.62676102       0.02361453      -0.12320828
F        2.62113253       9.90457515      11.97909106      -0.51579221      -0.76812009      -0.02728192      -0.57993746      -0.78015149      -0.05053008      -0.01249060      -0.24343619
F        4.02589378       8.90142500      13.24024764      -0.44835383      -0.41650193       0.46744309      -1.07468712      -0.22792080      -0.10175081      -0.01398569      -0.24030069
F        2.12917205       9.67847929      14.06335369      -0.76431190      -0.05689236      -0.42252167       0.11135944      -0.29553425      -0.38505578      -0.01163474      -0.24634704
C        2.11763865       6.74448549      14.01653842      -0.21697205       0.20595133       0.39399801       0.50941855      -0.36806569       0.33880603       0.02563476      -0.13512644
F        3.28201471       6.07636005      14.00888886       0.21712435       0.17042408       0.39919613       0.01245243       0.36733407       0.28375679      -0.00825730      -0.25993824
F        1.15959630       5.83736430      13.89941665      -1.42761482      -0.57973594      -0.39344318      -0.45585847      -0.27983201       0.42780882      -0.01095616      -0.23945406
F        1.99372925       7.36103237      15.22293810      -0.10257580       0.01172105      -0.42629347      -0.04902802      -0.46204907      -0.46683154      -0.00529957      -0.25490749
H        3.24667858       6.47477378      11.76927086      -0.01333268       0.01534899       0.03157830       0.21067376       0.11629799       0.53395140       0.02092315      -0.07804485
H        0.98799320       7.85938936      12.69048985      -0.05008643       0.06897349      -0.09009142      -1.83936083       0.37183547      -0.19746897       0.00949016      -0.01641419
O        4.19968134      15.40752581       7.18641921       0.62709019       1.54371670       0.03048221       0.24775140       0.67516768      -0.10554951      -0.02684326      -0.08946766
C        4.71270646      14.20499701       6.73201965      -0.03739347       1.02787196       0.34635206       0.40231705      -0.24994132       0.17377728       0.00989145      -0.21171333
C        6.22363868      14.03457595       7.11467011      -0.12612627       0.90752204      -0.28456254      -0.41660631       0.48126814       0.26282236       0.02456847      -0.12136202
F        6.24993197      13.79138301       8.45966653      -1.48564779       0.61437284       0.14672717       0.28807533      -0.16425572      -1.08469963      -0.01463804      -0.25694120
F        7.01201434      15.11662849       6.90519644      -1.09304589       0.81323879      -0.37183802      -0.87952727      -0.82590693      -0.04936422      -0.01105462      -0.26820683
F        6.74705286      12.99745611       6.42611259      -1.18354063       1.65474826       0.67397879      -0.29728538       0.56455541       0.77431655      -0.01099418      -0.25638574
C        4.38834672      13.93671427       5.28408148       0.53166112       1.65506697       0.29346460      -0.10455778       0.67592406      -0.88365912       0.02349254      -0.14569442
F        5.12202551      14.58032061       4.38877075       0.11341496       0.86961718      -0.01911786       0.76835775       0.43508253      -0.16301982      -0.00873046      -0.26470560
F        3.12656832      14.37075930       5.07140844       1.34707156       2.09597209       0.13948731      -0.44203430      -0.27990049       0.03163166      -0.01003813      -0.25337172
F        4.45544806      12.64834057       4.99356038      -0.03361065       2.41246991       1.36557774      -0.10219292      -0.62494409       0.26209712      -0.01162362      -0.24080679
H        3.42293465      15.66388385       6.66005262      -0.05083001      -0.16709990       0.06308799       0.32303417      -0.24472421       0.19652940       0.02471717      -0.03535554
H        4.17690024      13.38094066       7.18523115      -0.04596428       0.31114771      -0.31304217       0.15638983      -0.45880681       0.58176398       0.00918197      -0.01534759
O       11.98029784      13.56245870       8.98200657      -0.02628792       0.08224367      -0.45322294       1.12232494       0.73406446      -1.37645531      -0.02916491      -0.03922527
C       11.24130891      12.51162735       8.47284287      -0.15297858       0.65339137      -1.07608357      -0.90066653      -0.48469812       0.14810580       0.01103297      -0.20088735
C       11.84421395      11.86120545       7.15934398       0.44121036       0.41929704      -0.74092240       0.53204012      -0.54080975       1.34802330       0.02386612      -0.09049174
F       12.92706489      11.07973487       7.47051940      -0.21719923       1.54943027      -0.05202181      -0.83237904       0.56887734      -0.24410412      -0.01600571      -0.25448573
F       12.29989215      12.86612198       6.42134097      -0.94616405       1.31768492      -0.88449717       0.12714098       0.30819821      -0.68567389      -0.00844199      -0.27629170
F       11.01458160      11.10206736       6.42911422      -0.27694196       1.67327462      -0.79341574       0.23373005       0.48003218       0.78658497      -0.01057964      -0.24031682
C        9.77399240      12.99391731       8.22154494      -0.04086314       0.38603572      -0.59108234      -0.18262321       0.69982791       0.25339079       0.02231817      -0.12695432
F        9.45042982      13.26105256       6.96015345      -1.04100529       0.30576978       0.52560877       0.52917653       0.09066252      -0.58308768      -0.00984605      -0.23344019
F        9.53772692      14.13367501       8.90482867      -0.46927669      -0.76513387       0.25655380       0.09816625      -0.41598925      -0.11264257      -0.01425184      -0.23750523
F        8.90383254      12.08174312       8.63473535       0.15896691       0.71362077       0.56027720      -0.31257191      -0.64587331       0.46281564      -0.01279326      -0.27107897
H       12.31651960      14.12952125       8.24371675      -0.01313985       0.10130318      -0.05482371      -0.43061647      -0.51697332       0.85333025       0.02447239      -0.03695554
H       11.19515458      11.81050018       9.33097260       0.27413405      -0.07820655      -0.08440174      -0.08917157      -0.14130500      -0.89344925       0.01037979      -0.03280260
O       14.61822606       8.76465962      11.11915028      -0.29686362      -0.74161876       0.85496752       0.81539387       1.14422333      -0.21527539      -0.02483752      -0.04595219
C       13.31237779       8.87745606      11.56411466      -0.15895834      -0.58335165      -0.25170026      -1.33259106       0.93180847      -0.97424829       0.01178551      -0.20694940
C       12.39095637       8.44565507      10.35116051      -0.20299899       0.38258121      -0.12584988      -0.34591362       0.85599887       1.38020301       0.02316323      -0.12496145
F       12.50174551       7.13238449      10.20983642      -0.79219631       0.60728107      -0.72149566       0.21994023      -0.30699039      -0.43651238      -0.01034674      -0.26586169
F       12.72649763       9.05280881       9.20538322      -0.54789973       0.16260447       1.26415985      -0.09723248      -0.29260391       0.41157585      -0.01164145      -0.29205465
F       11.07734798       8.70281089      10.60028827       1.24006913       1.41430118       0.58371745       0.65673834       0.14641894      -0.21392897      -0.01302118      -0.26646397
C       13.01605439      10.29437280      12.16153227      -0.70750230      -0.55608926      -0.27668297       0.15270416      -0.67881918      -0.28187558       0.02355598      -0.10874887
F       12.97139342      11.21924311      11.17853425       0.16305445      -1.29122313       0.33746496      -0.20304722      -0.06813125       0.43362746      -0.01133805      -0.29093009
F       14.02830248      10.58967566      12.97929633      -1.16635636      -0.65000459      -0.13740981       0.06827854       0.27353233      -0.05042244      -0.01000800      -0.26687452
F       11.89135202      10.35713263      12.90083671      -0.36063189      -1.15358721      -0.64276146       0.44997740      -0.03734553      -0.88550067      -0.01105909      -0.26750949
H       14.98424733       9.63370948      10.79312860       0.19171538      -0.03762041       0.04639504      -0.62611943      -1.20510340       0.38263568       0.02211272      -0.07218814
H       13.09255401       8.20467867      12.38256534      -0.16546469       0.04359068       0.00776430       0.15967789      -0.53076720       0.13981380       0.01304603      -0.05002155
O        1.78233288      12.72693305       7.34820379      -0.83558869       0.29772547       0.11852167      -0.00025940       0.31802157      -0.86264586      -0.02456584      -0.09761462
C        2.08179675      12.00197491       8.48979036      -0.29349023      -0.62118842      -0.43720273       0.23629922       0.18593219      -0.55455732       0.01380455      -0.22799134
C        2.12277906      10.50501919       8.15377434      -0.46430003       0.48583966      -0.08994039       0.68002647      -0.79306889       0.11923775       0.02501060      -0.13693312
F        2.98882286      10.25817782       7.13469652      -0.96759289       1.91900471       0.18564294      -0.50788653       0.53971529       0.79009569      -0.01193917      -0.26700112
F        0.94495897      10.00360136       7.76222203       0.12004180       1.00042321       1.32228217       0.05599771       0.18392871       0.44629231      -0.00974739      -0.27741277
F        2.58519828       9.82869206       9.23659168       0.07492011       0.09949507       0.01983351      -0.53496969       0.10124756      -0.65490174      -0.01134605      -0.25858974
C        1.11283921      12.48676058       9.56775050       0.40979478      -0.32379776      -0.23981103      -0.57305986      -0.05399989      -0.16582024       0.02432397      -0.12115248
F       -0.14839911      12.62051235       9.06920562       0.80296550      -0.16065964      -0.40618068       0.87089789      -0.56076634       0.44007453      -0.01214732      -0.25027710
F        1.44125093      13.69417398      10.02451736      -0.33947119      -1.07316411      -0.55039826       0.02719560      -0.30133379      -0.02534266      -0.01055195      -0.22773567
F        1.10869653      11.64290777      10.59903041       1.37562721      -1.43374781      -0.51152153      -0.41288599      -0.14967415       0.39959171      -0.00744573      -0.26429057
H        0.88104533      12.50531082       7.04318471      -0.13985232      -0.02676779       0.08530601       0.45933253       0.09315219       0.17014575       0.02489493      -0.04559536
H        3.11668649      12.21725092       8.81350455      -0.14923294       0.09755798      -0.03395430      -0.45375848       0.21103196      -0.06839542       0.01394414      -0.04044344
O        9.48502786      12.14322282       4.38575568       0.77766078       0.87402507      -0.05817211       0.03854259      -0.20682813       0.31811178      -0.02844547      -0.11150865
C        9.23995201      13.12763446       3.45984178       0.52976162       0.82895108       0.05508457       0.47468370       0.92116308      -0.37280208       0.01162549      -0.27405927
C        8.01153397      12.82826853       2.61336333       0.17645581       0.19426759      -0.19106389      -0.44385272       0.45721614      -0.13220334       0.02366094      -0.16993068
F        6.94873341      12.53220392       3.36321769       1.26112913       0.45081232       0.93169433       0.30804068      -0.05406969       0.12242229      -0.01197142      -0.25374767
F        8.21693415      11.84258544       1.75370651      -0.24924233       0.35974955       0.50087909      -0.00722754      -0.55682397      -0.10835607      -0.01118592      -0.25968468
F        7.68589711      13.92931865       1.89833468      -0.16996209      -0.22363440       1.23534431      -0.15510938       0.17854545       0.05925180      -0.01085047      -0.24382539
C       10.49452775      13.34350975       2.54490844      -0.21102932       0.31642155      -0.12058206      -0.20541608       0.92740178       0.79162252       0.02282955      -0.13784713
F       10.85749501      12.17485841       2.01342112      -0.21610819       0.12866637      -0.11651943       0.26074129      -0.07986008      -0.22725108      -0.00848789      -0.26839024
F       11.54621953      13.82169804       3.26937090      -0.02292606      -0.45474847      -1.18434431      -0.94014287      -0.55843830      -0.56819212      -0.01305302      -0.25214791
F       10.25209104      14.22024633       1.54845239       0.06526512      -0.00014686      -0.40571873       0.29399437      -0.41539901       0.42632902      -0.01184181      -0.25847751
H        9.88097419      11.38739980       3.94369052       0.00207943       0.06104312      -0.01069646       0.06018503      -0.31710076      -0.01897798       0.02360142      -0.03875642
H        9.01427974      14.06824917       3.98848727       0.10143042      -0.20164017      -0.09060718       0.24685180      -0.26876470      -0.13035911       0.01326274      -0.04731115
O        6.79527260       3.50920259       9.40356758      -0.34932694      -0.15832556       0.96855719       0.51406908      -0.15754148      -0.55813766      -0.02572937      -0.06151928
C        6.45082348       3.79863719      10.70509480      -0.72726263      -0.94933073       0.71717734      -0.13470769       0.38831785       0.59579468       0.01276404      -0.28425649
C        5.87932819       5.23226736      10.81877399      -0.28506999      -0.51591049       0.27213698      -0.47157931       0.11907095      -0.77638900       0.02416864      -0.13998589
F        4.88057816       5.32960757       9.89840060       0.03197890      -2.01397722      -0.08069596       0.12713715       0.14541012       0.76019681      -0.01206033      -0.26676428
F        6.75787444       6.19908964      10.48598381      -0.42000219       0.18978889       0.43321370      -0.34974027      -0.66581970       0.67252326      -0.01130952      -0.24364917
F        5.36861354       5.48152875      12.05599895      -0.00254421      -2.13318549       0.44595541       0.39048073       0.06526804      -1.01166224      -0.00972975      -0.28159559
C        7.52610013       3.60180341      11.75772115      -0.10691173      -0.26186899       0.68623156       0.99792260      -0.59687716       0.86691284       0.02361069      -0.13957211
F        8.45368434       4.57135875      11.76492591      -1.69194919       0.54554179       0.90384722      -0.16158628       0.86212701       0.15318632      -0.01042298      -0.25508916
F        8.25000815       2.50287728      11.55585106      -0.17171081       0.09424763      -0.99977463      -0.42767799      -0.46942464      -0.28189892      -0.01278354      -0.21691115
F        6.99473515       3.50834328      13.00414907       0.33609090      -1.23022145      -0.57936042       0.16780846       0.28887373      -0.77767134      -0.01172521      -0.26859912
H        7.69540947       3.75995162       9.13838112       0.01104208      -0.08118833      -0.22695405      -0.26909581       0.14102712       0.41344237       0.02477101      -0.05301606
H        5.67093578       3.09036661      10.97967231      -0.15790548       0.05502283      -0.08451931      -0.25971249       0.21405840       0.09500635       0.01126391      -0.04064834
O       11.20713732       3.11321842      10.83429740       0.97999978      -0.83572937       0.37016797      -1.83812141      -0.48585540       0.33801705      -0.02702975      -0.06821788
C       12.01790938       2.91750937      11.90732080       0.55363303      -1.36188264      -0.46155843      -0.04324591       0.53404093       1.17746270       0.01245971      -0.27691332
C       12.70434179       4.25241176      12.29257170       0.14001642      -0.62075115      -0.15029550       1.09793162       0.94369793       0.64354801       0.02221506      -0.13797267
F       11.86597031       5.31128849      12.39674747       1.27617105      -2.28668613       0.76924931      -0.08819645      -1.08409739      -0.01476344      -0.01493172      -0.27305108
F       13.57246831       4.58462429      11.32019566      -0.06753294      -0.48750844      -0.68625125      -0.06607386       0.09757694      -0.27311438      -0.01323628      -0.24883673
F       13.42477268       4.22434728      13.44633969       1.50464116      -0.77160060       0.39400312      -0.80255961      -0.33773461      -0.70676506      -0.01305728      -0.24195242
C       12.99003374       1.75626595      11.73902850       0.54098527      -0.37434562       0.40291527       1.96372080       1.21327507       1.32045424       0.02338710      -0.11326605
F       14.05125847       2.02608471      10.92267574       1.19641543       0.22547511      -1.13153221      -1.31014323      -0.67994690      -0.34227863      -0.01304072      -0.22056027
F       12.37289566       0.67240194      11.35092010       1.41329840       0.36884783       1.02397107       0.08750783      -0.41450572      -0.18760669      -0.00910832      -0.25115281
F       13.57844581       1.57345788      12.96835874       0.47137110      -0.81735539       0.04263532      -0.64461601      -0.59265769      -0.64437222      -0.01344244      -0.24208614
H       11.64469309       3.37998925      10.05146238       0.18749897       0.22224497       0.15032766       1.07472014       0.47912583      -1.18835306       0.02089155      -0.05627570
H       11.39057488       2.60882947      12.76050112       0.05240527       0.02363005       0.17274798       0.06850127       0.19113095      -0.29200226       0.01156511      -0.03833263
O        6.40692010       7.22805494       7.88337888      -0.10830522       0.13229349      -0.45479884       0.33081338      -0.23120560       0.97354263      -0.02538397      -0.00460841
C        7.00491013       7.55823330       6.68478780       0.14548293      -0.27528008       0.22980094       0.02833122      -0.48479190      -0.29883337       0.01536680      -0.22612052
C        6.28511252       8.83364478       6.16158052      -0.18228743      -0.49066158       0.23890248      -0.16634697       1.24597836      -0.83316058       0.02376619      -0.12383039
F        6.29975921       9.70418917       7.19161700       0.74182524       0.09736591      -0.05350109      -0.06356677      -0.20267697      -0.29844403      -0.01388337      -0.24475098
F        4.99486947       8.65166143       5.80780281       1.08455917      -0.28324958       0.69953824       0.57269621      -0.41346368       0.38300860      -0.01135626      -0.26144820
F        6.85994036       9.50122892       5.10953248      -0.03454992      -0.56756248      -0.07519270      -0.02602305      -1.09466624       0.92245418      -0.01408592      -0.25072312
C        7.11716119       6.32737231       5.72512135      -1.62033270       0.39098669      -0.00671741       0.02717774       0.94092965       0.13565162       0.02498811      -0.12083824
F        5.93131345       5.75543084       5.47322534      -1.27731367      -0.53438205      -0.03402881       0.22020417       0.09598397       0.22097361      -0.00707779      -0.28044179
F        7.94515596       5.36720359       6.20554133      -2.37504394      -0.08312359      -0.61806037      -0.55043864       0.70758510      -0.10476677      -0.01236200      -0.27338552
F        7.62065607       6.78714059       4.57857029      -0.18791387      -0.18442556       0.07396510       0.16393042      -0.33874083      -0.34838182      -0.01014087      -0.25338218
H        5.57778658       6.73327169       7.85603074      -0.02548760       0.06699778       0.07657177       0.08313788       0.07893774      -0.61189872       0.02514381      -0.05587478
H        8.04527364       7.88461920       6.89921902      -0.09951467      -0.13327914      -0.17330064      -0.55487716      -0.24860705      -0.09688303       0.01297772      -0.03969448
192
Lattice="14.731757753096401 0.0 0.0 0.0 14.731757753096401 0.0 0.0 0.0 14.731757753096401" Properties=species:S:1:pos:R:3:momenta:R:3:forces:R:3:charge:R:1:energies:R:1 Built=T with=T Packmol=T charge=0 spin=1 external_field="_JSON [0.0, 0.0, 0.0]" energy=-19.590505599975586 stress="0.0037441991735249758 -0.0011956504313275218 0.0005478084203787148 -0.0011956504313275218 0.003962280694395304 0.0024133643601089716 0.0005478084203787148 0.0024133643601089716 0.0009999350877478719" dipole="-0.25663357973098755 -0.7777150869369507 -0.8071193099021912" free_energy=-19.590505599975586 pbc="T T T"
O       13.71471355       6.02814169       7.22441810      -0.42187097      -0.25762479       0.09812119      -0.48551518      -0.50473565      -0.20026821      -0.02642798      -0.08049449
C       12.94862048       4.87116712       6.91797043       0.62666883       0.35522578       0.19900005       1.18593776       0.68192875       0.11954147       0.01475383      -0.21283473
C       11.47364561       5.10345969       7.21701914       0.04876661      -0.39295010      -0.18122248       0.31473410      -0.55638391       0.89525980       0.02442812      -0.13696221
F       11.02996277       6.13254550       6.50738401       0.95711781      -0.70355020      -0.59339261      -0.00325967       0.26672429       0.50465417      -0.01014065      -0.26166296
F       11.30391118       5.32165944       8.56978121       0.40850919      -0.95397764      -0.35140396      -0.08732103       0.14210069      -1.11267638      -0.01121881      -0.29108465
F       10.73893208       4.04946840       6.89151254       0.62433602      -0.24331620      -0.26424564      -0.28582534      -0.32206047       0.00460030      -0.00926127      -0.25246358
C       13.65605352       3.63332317       7.50203550      -0.29225525      -0.30140875      -1.14050540       0.90895087      -0.95995682       1.45334160       0.02489378      -0.10563361
F       14.23423895       3.86711826       8.70529361       0.07748432       1.54868231      -1.41447515      -0.91471362       0.41715124      -0.05492711      -0.01169093      -0.23992629
F       14.71686296       3.26241282       6.75401781      -0.06065638      -0.07613717      -0.15273596      -1.08064353       0.05168568      -0.48318517      -0.01040653      -0.23792343
F       12.83405142       2.55673667       7.69361502      -0.72603477       0.63082151      -0.73880722       0.50552797       0.78839540      -0.54832947      -0.01128260      -0.27185920
H       13.66674080       6.24279018       8.17312742      -0.03102683      -0.08476298       0.06281007      -0.08739954      -0.30110365      -0.27503851       0.02258262      -0.06771290
H       13.01621754       4.70105219       5.84943129       0.04537724       0.14723897      -0.08157029      -0.02706236       0.26086193      -0.36232156       0.01451229      -0.03098506
O        2.08603687       9.57042715       2.37417609       0.48238940       0.79256297       0.71707112       1.45830250       0.24957977      -0.44224927      -0.02785438      -0.16109471
C        3.15496679      10.49867432       2.62258711      -0.16619393       0.25744734      -0.08494425      -1.01968861       0.16698362      -0.68355703       0.01260454      -0.23262042
C        2.87177778      11.88695121       1.95908677       0.15519908       0.34818516      -0.70208544      -0.19490609      -0.64901447       1.01732898       0.02380565      -0.12527928
F        1.60956943      12.22590530       2.23468297       0.99482262       0.22730844      -0.29175974      -0.27591676      -0.14091618      -0.67081761      -0.01189627      -0.24518988
F        3.10550855      11.95567809       0.64064861       0.36832945      -1.14737337       0.23507423      -0.21749283      -0.00335154       0.52388400      -0.00899425      -0.27818885
F        3.61116059      12.78928423       2.59646079      -0.15282220      -0.20606781       0.96762285       0.68623352       0.50632334      -0.39196792      -0.00966497      -0.21303944
C        4.50378758       9.95039879       2.17478373      -0.22687811       0.31022719       0.09995268       0.46471968      -0.73558521       1.69763005       0.02472547      -0.10678997
F        4.35314474       9.27967585       1.06954173      -0.78256394       0.32310136       0.30004850       0.04852348      -0.62344933      -1.66805625      -0.00606069      -0.20520517
F        4.96541312       9.01498614       3.08384152      -0.44155047       1.26872901      -0.30997749      -0.22363374       1.28576756      -0.55628157      -0.01408225      -0.24435468
F        5.42683789      10.90155929       1.98749971       0.09263680       0.56992595      -0.82483954      -0.28971282      -0.50233072       0.31198901      -0.00997948      -0.25136191
H        2.35648983       9.02028193       1.60792248      -0.00202434       0.16244399      -0.08078563      -0.31696358       0.42250490       0.48083001       0.02129861      -0.05355095
H        3.19273071      10.69424887       3.68365587       0.00832287       0.07865426      -0.10886080      -0.01417620       0.06136772       0.33901951       0.01187436      -0.05214924
O        7.68686150      13.16576669      14.02009340      -0.04156384       0.34965230      -1.04310081      -0.10937667       0.68214720       0.01182696      -0.02806516      -0.10653469
C        8.06397362      13.47687821      12.72042625      -0.69365249      -0.09224464      -0.46477002       0.19897541      -0.19394159       0.01523103       0.01263559      -0.20908655
C        9.53699549      13.98022731      12.59292768      -0.61009561       0.25501632       0.15196025      -0.51506752       0.74328279       1.07013535       0.02292126      -0.13684087
F       10.22178481      13.45222790      13.60920938      -0.76794336       0.40296412      -0.36331160       0.26977777      -0.23880064      -0.06636386      -0.01373486      -0.25317404
F        9.70815299      15.31770640      12.68238625      -0.63489468      -0.25855231      -0.40996155      -0.30567589      -0.14240885      -0.00106190      -0.01292076      -0.27236220
F       10.07716671      13.58635482      11.45986969      -1.35049242       0.37878949       0.14054530       0.21022063      -0.28993630      -0.52441013      -0.01121486      -0.23672807
C        7.00075096      14.31795403      12.00019000      -0.06762318      -0.01466850       0.15020508      -0.55416286       0.75289142       0.22076301       0.02490645      -0.12903666
F        6.52927989      15.31894947      12.81584614       0.10009643      -0.29754913      -0.54246732       0.41393983      -0.82141078      -0.29931971      -0.01091888      -0.27336472
F        5.91949289      13.59770267      11.62531836       0.08325790       0.37699490      -0.50223976       0.21349397      -0.13601954       0.53397548      -0.01168055      -0.28376758
F        7.44033565      14.89467953      10.90108257       0.01642201       1.70005286       1.26839473       0.54167771       0.03721012      -0.38049385      -0.01036746      -0.22281039
H        7.51921355      13.97754805      14.53129809       0.20550025       0.01222898       0.02959204       0.07343759      -0.31857389      -0.17859180       0.02406456      -0.04509740
H        8.15245648      12.52613805      12.21923245      -0.14631635       0.13740087      -0.03928203      -0.37728775      -0.42794812      -0.43212128       0.01269245      -0.01269360
O       14.01798141       9.09149323       1.67779963       1.38585460      -0.29305397      -0.86424322      -0.07067315      -0.03707976      -0.58188391      -0.03376237      -0.12685183
C       12.95455795       9.40509889       2.51864360      -0.14388765      -0.22053876      -0.91736782       0.93047619       0.31593171      -0.46407345       0.01284982      -0.23873699
C       13.39556141      10.67408800       3.30016415       0.74607906      -0.34342050      -0.03629720       1.11694860      -2.23597813       1.74074256       0.02462949      -0.04608776
F       13.79685677      11.60485042       2.51263077      -0.47921240      -0.20838202      -0.39041311       0.47944039       0.98040432      -1.32917666      -0.00726573      -0.20702831
F       14.51707636      10.29599156       4.09241792       0.89592762       0.76311400      -1.94100916      -1.46309268       0.61234826      -0.74532157      -0.01793746      -0.25964749
F       12.49050882      11.19538714       4.09678559       1.22813903       0.18390261      -0.45402378      -0.64176154      -0.21760473       0.75121742      -0.00806687      -0.24576430
C       12.59224324       8.12797322       3.27092883       0.22351721       1.10335495      -0.41014442      -1.28148139      -1.17693412       0.28894377       0.02539858      -0.09172973
F       13.46589311       7.72488371       4.19882211       0.04501395       0.11287002      -1.20798865      -0.57260382       0.69933903       0.02061424      -0.00957884      -0.25317639
F       12.52339592       7.04134981       2.41319964       0.18435587       0.57620331      -0.31715666      -0.33173585       1.48579431       0.53614777      -0.01471020      -0.24862504
F       11.32646485       8.29353298       3.81424411       0.74364770       1.48947780      -0.48097316       1.55619574      -0.40359950      -0.22340642      -0.01438413      -0.25983846
H       14.84147501       9.20501155       2.16462419      -0.33846975      -0.10820040       0.06593235       0.48270440       0.06163232       0.11081830       0.01992340      -0.06466235
H       12.10217753       9.69480448       1.91124180       0.25291273       0.17846761      -0.12466711      -0.24954128      -0.09656963      -0.12511745       0.01229754      -0.05275540
O       11.24618099       4.36108741       0.75972234       0.02943726      -0.54482325       0.37398691      -0.01544649       0.38190091      -0.05049038      -0.02723710      -0.11792713
C       10.97297173       3.21567044       1.50148480       0.42147356      -1.23634426      -0.57970896       1.16016507       0.48669112      -0.33450031       0.01257882      -0.24357279
C        9.80467353       3.41441722       2.45129126      -0.05097651      -0.98743192       0.27427102       0.40203992      -1.29054832       0.25038719       0.02499337      -0.11929693
F        8.78447547       4.00090474       1.85551890      -0.01657450      -0.76831891       0.45392204      -0.25202423      -0.29317549       0.01606187      -0.00681235      -0.25363249
F       10.16115088       4.17432223       3.49317375       0.14125169      -1.38788316       0.04485307      -0.24191962      -0.36967847       0.23334110      -0.00994890      -0.27095923
F        9.44251643       2.13618407       2.87738166       0.03775912      -0.95094466      -0.40716502      -0.11111785       1.73175359      -0.05246476      -0.01281831      -0.23923835
C       12.28392026       2.75435862       2.21757342       1.03580816      -0.49062905       0.87375407       0.23390085      -1.65856743      -0.76516962       0.02419664      -0.11777138
F       12.88841311       3.71431356       2.90192654      -1.15904572       0.31662149       0.31615710      -0.07050130       0.78728640       0.04672890      -0.00792631      -0.27734271
F       13.18372012       2.27689626       1.31591046       0.08282115      -0.07617072       0.80115343      -0.59934598       0.70902824      -0.03235972      -0.01238515      -0.26042283
F       12.09342069       1.73414730       3.05403515      -0.44704954       0.08118026       0.62590392      -0.50303590       0.05040878       0.37555167      -0.01113749      -0.23308644
H       11.81961226       4.94589498       1.26180325       0.21803175      -0.20628208       0.00120352       0.09220915       0.38696700       0.10218877       0.02281212      -0.05613200
H       10.69623433       2.50749338       0.73578662      -0.07105252      -0.17304769       0.03900152      -0.14532508      -0.81384254       0.23807235       0.01258211      -0.03213946
O        9.18316058       7.38409570      12.27792354       0.11644094       0.16447525       0.15445120       1.01047981       1.91436553       0.00503576      -0.02913001      -0.06259295
C        8.97730271       8.62686244      12.91620208       0.29592011      -0.19186761       0.45389191       0.51040751      -0.03738639       0.47568226       0.01218210      -0.22315031
C        9.62347398       8.81643708      14.35169704       0.24656335      -1.03136276       0.89336041       1.09771538      -0.94622976      -0.81265676       0.02339579      -0.08864137
F       10.82381980       8.14876849      14.35494945      -0.68453821      -0.50161195       0.63127073      -0.92960435      -0.41982293       0.20473582      -0.01605879      -0.27220497
F        8.87173238       8.42797956      15.37681883      -0.70749846       0.55438307       0.26143725       0.03735611      -0.50433218      -0.16005734      -0.00815731      -0.27243689
F        9.98704100      10.06066683      14.59821087       0.08068250      -1.19780799       0.51374679      -0.55841869       1.17490363      -0.15217282      -0.01288236      -0.21776822
C        7.48874596       8.96740019      12.91043305       0.27899699      -0.69933042       0.22942227      -0.21602358      -0.27846026      -0.38517010       0.02423124      -0.15703250
F        6.79167271       8.03465567      13.57540617       0.49416329      -0.30557192      -0.24779950      -0.02777912      -0.05609098       0.12400334      -0.01046445      -0.27900934
F        7.07586702       8.92971143      11.63581256       1.21943462      -0.14106149       1.41646672      -0.19081128       0.36454698       0.11132295      -0.01293186      -0.26171759
F        7.17800170      10.16212993      13.43574305       0.83206786      -0.65991406       1.28104905       0.35129130      -0.18750131      -0.14374723      -0.01151098      -0.28420144
H        8.72667007       6.66746940      12.67507881       0.21850576       0.01677128       0.12715648      -0.87398756      -1.00505185       0.87121093       0.02246499      -0.06160769
H        9.52408924       9.35359940      12.30500182       0.03537476      -0.10639242       0.04458501      -0.29947153      -0.02542831       0.06756334       0.01040612      -0.04488771
O        3.80951406       1.34771370      12.31404106       0.36736103       0.25977197      -0.50942555       1.48087549      -1.18447971      -0.15960044      -0.02825069      -0.09919975
C        2.67238678       1.75090793      11.64388037       0.60254311      -0.63498681      -0.12187563      -0.74848837      -0.28884506       0.48466232       0.00977725      -0.19441384
C        2.96204337       1.72559912      10.14382107       0.49476047       0.14903682      -0.02640332      -0.41279376       1.08092237       0.62227255       0.02395524      -0.12336104
F        3.43566908       0.50406681       9.94917105       0.58925910       1.08228552       0.45775019       0.84431839      -0.70120835      -0.82583535      -0.01004138      -0.19234741
F        3.85164688       2.63656343       9.72929381      -0.87477788      -0.30913899      -0.11957271       0.01845668      -0.40753359      -0.01536418      -0.00948511      -0.26087090
F        1.86493002       1.86938778       9.41517487       0.43640952       1.11171937       0.40362411      -0.43436638       0.12150746      -0.34598601      -0.01246192      -0.27018619
C        2.28746477       3.09387840      12.31819262       0.03580386      -0.30920667      -0.25811391       1.03248513       0.12531902       0.79949152       0.02488660      -0.12208182
F        2.90270512       4.14272190      11.72464176      -0.78443630      -0.94952760       1.23900499      -0.44570822      -0.30629429      -0.17758249      -0.01118992      -0.26629022
F        2.72274535       3.13225181      13.61212723       0.73991233      -1.18393170      -1.68104897      -0.48705468      -0.32569343      -0.91709530      -0.01273318      -0.23920435
F        0.98470721       3.27963391      12.33613415       0.51269481       0.03236018      -0.52224798       0.14873108       0.34972948      -0.14930680      -0.01027745      -0.19153138
H        4.24356877       0.57285953      11.86560191      -0.18873929      -0.15581613       0.05848577      -0.80297804       1.02049196       0.62041306       0.02209960      -0.04172164
H        1.82771658       1.02296156      11.74770817      -0.02792041       0.07330202      -0.05107746       0.37823167       0.64086974       0.19264427       0.01135514      -0.04485141
O        2.42968271       6.97086780      11.77273874      -0.27570058      -0.66401835       1.44991299       0.21875155       0.61141163       0.25325960      -0.03132663      -0.09853495
C        2.03046152       7.69074071      12.92352794       0.47736366       0.05158740       0.35177587      -1.29112220       1.10276318      -2.12474179       0.00869140      -0.20471600
C        2.71633170       9.08616015      13.09061663       0.68497927      -0.02214606       0.66895531       0.03871566      -0.52135444      -0.34074771       0.02374176      -0.12970191
F        2.61694872       9.92539923      12.03433496      -0.71692505      -1.17244391       0.03667391      -0.25932661      -0.88583916       0.27228686      -0.01374783      -0.25513494
F        4.02769618       8.93132504      13.31340823      -0.77115900      -0.42662797       0.47040471      -0.12813430       0.13575450       0.17217208      -0.01063744      -0.25262550
F        2.12055778       9.72055756      14.11605407      -0.64479177      -0.13131524      -0.49966677       0.31769124      -0.02387942       0.04752200      -0.01109592      -0.25007772
C        2.12175278       6.77592683      14.09977505      -0.10825627      -0.26560681       0.45151226      -0.04421166      -1.21267593      -0.24279690       0.02573565      -0.13589190
F        3.30141105       6.11126998      14.08600919       0.06479318       0.34360601       0.55517995      -0.51288265       0.27282202       0.38697654      -0.00819373      -0.25903592
F        1.12847556       5.85006408      13.95697608      -1.28368633      -0.44977948      -0.11137179       0.81821656       0.64832062       0.67731798      -0.01349904      -0.25228795
F        1.99976585       7.39261185      15.28062861      -0.15449669      -0.19916088      -0.51284832      -0.17669484      -0.39867407       0.11331081      -0.00440330      -0.25148237
H        3.28496963       6.52085135      11.89841362       0.05150519       0.07265468       0.24481280      -0.32320952       0.29254189       0.20641175       0.02153788      -0.07046695
H        0.93403744       7.93380559      12.72373086       0.12659183       0.01848812       0.05974754       1.56442702      -0.36185783       0.60311234       0.00815574      -0.01069205
O        4.24126768      15.52989784       7.22045201       0.83653599       1.72950398       0.02372413       0.40275156       0.18858093      -0.11872789      -0.02670516      -0.13693966
C        4.74099560      14.31568008       6.77401652       0.31071424       1.11990641       0.18043908       0.02074170      -0.57124192       0.02379182       0.00970879      -0.19379009
C        6.23993874      14.13952584       7.14191759      -0.54835537       0.99638750       0.06854125      -1.17693758      -0.06650576       1.01474833       0.02452171      -0.12464663
F        6.24307400      13.87059772       8.49526958      -1.26100912       0.59455640      -0.42354390       0.49405733       0.12120137      -1.11902952      -0.01599269      -0.26106355
F        7.01176970      15.20324287       6.92748356      -1.38915587       0.52032012      -0.36986441      -0.37553024      -0.22905359       0.02714603      -0.00915472      -0.27556667
F        6.74688923      13.10265325       6.47709772      -1.21041840       1.77698332       0.92501481       0.06416910       0.05260063       0.30542642      -0.01038639      -0.25566530
C        4.42890135      14.07271831       5.31226881       0.44095638       1.74736257      -0.06626313      -0.28336400      -0.33333430      -0.35851449       0.02380307      -0.13527247
F        5.15448362      14.67369187       4.40681861       0.59356940       1.15440899      -0.18449438       1.16440916       0.77478951      -0.49477863      -0.00745247      -0.25520787
F        3.17187766      14.48995239       5.09871543       1.00199090       1.99477370       0.15338122      -0.82225525       0.03490338       0.00436039      -0.00946246      -0.24930134
F        4.47473364      12.76490456       5.05327498      -0.06295073       2.07690974       1.44943931      -0.01624745      -0.49180809       0.14709273      -0.01336336      -0.23972362
H        3.41763547      15.65360673       6.73517270      -0.09170350      -0.12461841       0.10928975      -0.19983937       0.29569823       0.17026168       0.02395238      -0.01929917
H        4.15672841      13.47098070       7.18984291      -0.06245359      -0.12415837       0.16943925       0.66725290       0.18601283       0.40782595       0.00880136      -0.01192374
O       12.04162125      13.63139962       9.00142596       0.28878379       0.14256189      -0.80272868      -0.05596551      -0.98511398       0.38773537      -0.02888935      -0.04476950
C       11.28201452      12.58936035       8.47031223      -0.30471270       0.33666297      -1.02003757       0.21511614      -0.25319198      -0.45967078       0.01117051      -0.19112115
C       11.91800874      11.93194993       7.17545150       0.37545383       0.47342711      -0.13705177      -0.76516199       0.88829029       0.81747788       0.02356521      -0.10300910
F       12.97687139      11.17378822       7.50183658      -0.51783685       1.71966676      -0.20736533      -0.35410991       0.21043824      -0.33300108      -0.01313942      -0.26639244
F       12.33414404      12.96084286       6.42404549      -0.78126619       1.36326679      -1.18859336       0.43771693      -0.06682670      -0.54342985      -0.01026767      -0.28650367
F       11.06062959      11.19878059       6.44344411      -0.08355349       1.79478694      -0.39985800       0.50419641       0.13534319       0.77951539      -0.01128405      -0.24629337
C        9.81504468      13.07350320       8.24196631      -0.17913597       0.47681933      -0.20135818      -0.35785410      -0.30936429       1.07852936       0.02289180      -0.12171767
F        9.47050701      13.33121314       7.00088897      -0.79995268       0.38080178       0.09575653       0.38265538       0.21934362      -1.01147914      -0.00878091      -0.23361173
F        9.57081483      14.17805938       8.95194541      -0.37491492      -0.80825223       0.20255891       0.23172796       0.21183783      -0.05417763      -0.01303804      -0.23434959
F        8.94780703      12.15199100       8.69134855       0.07795099       0.39722361       0.69583933      -0.01809521      -0.57935482       0.13586603      -0.01445352      -0.27338117
H       12.33294264      14.21148332       8.31991583      -0.07038278       0.11663807       0.02008683       0.34248334       0.91729307      -0.97086942       0.02351441      -0.04316135
H       11.33962378      11.82533131       9.23410962       0.05823397      -0.10282062      -0.39310741      -0.64476889      -0.30537730       0.16643405       0.01033872      -0.03450902
O       14.68117640       8.78678421      11.19623468      -0.17650654      -0.75314344       0.90624953      -0.83365798      -1.77402711       0.71985757      -0.02339252      -0.01900859
C       13.35426173       8.90430504      11.60106443      -0.76440995      -0.15437031      -0.44965738      -0.83246255       0.53432870       0.21982062       0.01246702      -0.21388449
C       12.43902894       8.50560689      10.40892789      -0.19386541       0.54230827       0.59126121       0.33761820      -0.22485115       1.21924925       0.02320891      -0.15085468
F       12.54041143       7.17932160      10.23609522      -0.70246416       0.48840801      -0.88185485       0.09244382      -0.05826246      -0.21317217      -0.01175714      -0.27789664
F       12.77152651       9.09837059       9.28074281      -0.49543189       0.16902969       1.18349551       0.26058459       0.30811131      -0.53805149      -0.01079452      -0.28652507
F       11.16246031       8.78042108      10.66346995       1.27843394       1.47082312       0.52917041      -0.45450136       0.20409369       0.07902612      -0.01067378      -0.26322788
C       13.05222387      10.31236422      12.20474819      -0.40516700      -0.87867409      -0.33241231       0.91315913      -0.53381181       0.07408485       0.02353765      -0.11566052
F       13.03388257      11.23847125      11.24069186       0.00883327      -1.20742264       0.42458631      -0.39022493       0.26283222      -0.04944521      -0.01079108      -0.28992662
F       14.06350555      10.62327838      13.03538589      -1.13831173      -0.56481821      -0.17891750      -0.02037715      -0.00374696      -0.12796894      -0.01172283      -0.26857239
F       11.93901727      10.37528812      12.93884471      -0.24986062      -1.14918742      -1.01711239      -0.01998305      -0.06156532      -0.68653429      -0.01032912      -0.26632741
H       15.08239094       9.57668094      10.89506125       0.03943078      -0.09183449       0.06706051       0.42670342       1.59819841      -0.56664157       0.02115236      -0.07290209
H       13.10693379       8.21476743      12.43490123      -0.00127543      -0.10456285      -0.09172270       0.40404287       0.01588343      -0.51355952       0.01316596      -0.04835439
O        1.76456276      12.79595828       7.37975554      -0.77172558       0.33835165      -0.23139469       0.77299875       0.02618220      -0.38754657      -0.02504450      -0.11857238
C        2.07856018      12.03897753       8.50715886      -0.38764796      -0.17848019      -0.58768964      -0.26636490       1.49761963       0.02765668       0.01320625      -0.21877998
C        2.12301900      10.56479710       8.19118020       0.03404219       0.07205651       0.12020286       1.13353658      -0.62748373       0.69058317       0.02507215      -0.14721324
F        2.97518291      10.35746317       7.17660027      -1.12017531       2.03732831       0.45206400      -0.10955434       0.04809829       0.23580876      -0.01073804      -0.26540896
F        0.95124670      10.07589225       7.83408620      -0.02947941       0.96839572       1.41817490      -0.62539232      -0.24515449       0.06180735      -0.00866267      -0.27665836
F        2.59557223       9.87802877       9.27497706      -0.19428920       0.20936346      -0.37311754      -0.49523044       0.26938051      -0.84601766      -0.01200321      -0.26233155
C        1.12798779      12.52838360       9.60105610       0.07354211      -0.52276724      -0.28404313      -0.63224018      -0.70908284      -0.02119000       0.02431344      -0.11122042
F       -0.12370575      12.67087213       9.10378729       1.11152664      -0.47627698      -0.16369740       0.34278512      -0.73384142       0.47994632      -0.01178408      -0.24301666
F        1.44025560      13.72882869      10.05710875      -0.22106663      -1.11929926      -0.49872300       0.40690833       0.01739094       0.19717345      -0.00971488      -0.22939864
F        1.14624079      11.66024601      10.63646171       1.11639261      -1.34717361      -0.42865760      -0.53974676       0.35677612      -0.08441715      -0.00939406      -0.26934651
H        0.87188339      12.56838415       7.12776319      -0.02280441       0.03648322       0.07394828      -0.58824342       0.01233482      -0.37974393       0.02385394      -0.03772572
H        3.06167697      12.33847744       8.83948371      -0.04481772       0.14636993      -0.01352733       0.49694002      -0.07109822       0.04951888       0.01380925      -0.03518582
O        9.55338655      12.22427671       4.40564433       0.83012727       0.72313461      -0.01851625       0.21074088      -0.29208839      -0.20904258      -0.02907049      -0.10429846
C        9.30888556      13.21867282       3.46866631       0.70208293       0.51074260      -0.42453716      -0.09748630      -0.51391929      -0.47496140       0.01162661      -0.29179400
C        8.05361225      12.89966168       2.62050957       0.12320076       0.37025846       0.03895442       0.22433627       0.21521513       0.93874043       0.02382442      -0.15609901
F        7.01495452      12.60124887       3.40345922       1.35613675       0.39266314       0.97320598       0.18234505      -0.13839518       0.13320813      -0.01253287      -0.25732154
F        8.24864186      11.90315761       1.77363438      -0.23818761       0.09382332       0.40347872       0.01748636      -0.43101108      -0.19304049      -0.01096725      -0.26534852
F        7.71576102      13.99034269       1.93775997      -0.28755648      -0.00135019       1.07477460      -0.33987015       0.69571984      -0.59675527      -0.00906256      -0.24882898
C       10.53440468      13.42500375       2.55756353      -0.16851843       0.56797353       0.09725225       0.33989173       0.01335201       0.01058208       0.02283040      -0.15714031
F       10.90309145      12.23483273       2.01872781      -0.17553047       0.18083772      -0.17672366      -0.10089087       0.29439372      -0.03253977      -0.01084928      -0.27250236
F       11.59386196      13.87126628       3.25122615      -0.38727890      -0.62258898      -1.34835826      -0.47576153      -0.12069637      -0.13257039      -0.01193770      -0.25060341
F       10.30280367      14.28356532       1.54793639       0.17078746      -0.18310681      -0.19164164       0.12767965      -0.28027865       0.38402039      -0.01145411      -0.26362684
H        9.92777124      11.44635226       3.96071084      -0.01961595       0.01301806       0.02567907      -0.14123380       0.14323603       0.15785398       0.02335282      -0.04337731
H        9.10306192      14.12796095       4.01153654       0.06489806       0.25340405       0.13820281      -0.02349753       0.42638302       0.09311613       0.01340776      -0.04847467
O        6.81973327       3.51863433       9.47166537      -0.24353196      -0.33716882       0.67572578      -0.94559544      -0.74972898      -0.05894575      -0.02687213       0.00202768
C        6.45376050       3.78596472      10.78687850      -0.53123029      -0.46134050       0.78684539       0.56600869       1.21882927      -0.22367592       0.01236080      -0.28444770
C        5.89271366       5.23591407      10.87200957      -0.32555346      -0.51329123      -0.10844632       0.29589912      -0.17029262      -0.65892076       0.02391464      -0.13010116
F        4.90487135       5.30414456       9.94728495       0.09279683      -1.83351275       0.31694189       0.06050538       0.42749560       0.78360641      -0.01147562      -0.26347929
F        6.77485655       6.22719664      10.55014806      -0.72485519      -0.27096527       0.77302513      -0.84630692      -1.10804605       0.69966888      -0.01276165      -0.24443778
F        5.39539293       5.45329030      12.11688754       0.12773484      -1.97871501      -0.04570425       0.12005478       0.39602226      -0.91717678      -0.00955142      -0.28082624
C        7.56320704       3.60165769      11.84293189       0.13057087      -0.54151974       0.66300118      -0.02373584      -0.39816797      -0.94386458       0.02357664      -0.14625552
F        8.44875386       4.61139286      11.84349825      -1.69579123       0.87979845       0.95389689       0.01168954       0.49613106       0.12615472      -0.01076845      -0.27328154
F        8.28187221       2.51441759      11.58249883      -0.28254133      -0.08207755      -1.05085403      -0.01522141      -0.27432379      -0.00980422      -0.01261709      -0.23052660
F        7.03627315       3.49439487      13.04742228       0.34775924      -1.12239554      -0.60779211      -0.09991713       0.02892740       0.65982997      -0.00954499      -0.26405817
H        7.68391550       3.75549082       9.15210956      -0.10643798       0.02444786       0.10993556       0.71172714       0.49277756       0.47907406       0.02409575      -0.05807757
H        5.60057022       3.13925214      11.01196978      -0.18711426       0.07166248       0.01866897       0.32292950       0.01511841       0.22908464       0.01097396      -0.05241304
O       11.28112209       3.10135624      10.88912271       0.67306639      -0.77019722      -0.29938609       0.43713647       0.48237544      -1.95661974      -0.02779357      -0.11735607
C       12.09520784       2.88619917      11.96137622       0.53945592      -0.69777324       0.43554166       0.36599416       2.04576778       1.54826307       0.01211518      -0.24867038
C       12.78282036       4.25271277      12.35010464       0.85802102      -0.42542894       0.16929633       1.58538818      -0.22349519       0.53175539       0.02244378      -0.10790063
F       11.95163538       5.27200605      12.47384515       1.03818986      -2.56671408       0.75586272      -0.77431864      -0.17463037       0.04135277      -0.01280117      -0.26691377
F       13.63290484       4.59376096      11.35401494      -0.12057720      -0.45080194      -0.72395715      -0.09468511       0.03430218       0.03701517      -0.01327471      -0.25555825
F       13.51991588       4.22186824      13.51278232       1.03817867      -0.93030227      -0.10599917      -0.85733068      -0.35473138      -1.15038538      -0.01434490      -0.24434996
C       13.09237448       1.76128552      11.81939308       1.47092124       0.19148305       0.75387316       1.42835951       0.86974400      -0.02347642       0.02357306      -0.13434476
F       14.13751346       2.03656504      10.94415315       0.41419791      -0.14664100      -1.04093108      -1.64290023      -0.76628232       0.55642951      -0.01456888      -0.22913043
F       12.46663696       0.68087993      11.42790770       1.40012400       0.01838685       0.84790532       0.08128931      -0.75174999      -0.36283129      -0.01025940      -0.24517751
F       13.65039557       1.55647293      13.02571054       0.28634933      -1.03938130      -0.21644364       0.04020631      -0.39612043      -0.23872919      -0.01101232      -0.25236768
H       11.82352698       3.50898994      10.15659052       0.13626752       0.12999926       0.30835405      -0.84604740      -0.60268813       0.93566614       0.02145445      -0.04515299
H       11.49018020       2.64600454      12.83550876       0.11267870       0.03828169      -0.08675527      -0.22535226      -0.27453500      -0.08049773       0.01117286      -0.04064596
O        6.43659994       7.26394616       7.91445529       0.11792810       0.02017858       0.10706274       0.39262515      -0.31819281       1.04270411      -0.02431289      -0.02221733
C        7.03379627       7.57678160       6.71811573      -0.46084053      -0.49191973      -0.17281689      -1.40891457       0.00015056      -0.97267091       0.01568869      -0.24482009
C        6.30935133       8.86822334       6.19229845       0.04936120       0.17340296      -0.09149043       1.07915628       1.16956592      -0.35981974       0.02374594      -0.11156249
F        6.34742202       9.74982545       7.22134493       0.68054322      -0.05328586      -0.22843726      -0.12491175      -0.32994115      -0.37934130      -0.01455671      -0.25234351
F        5.04739649       8.68161981       5.85467703       1.09503322      -0.50067910       0.82215722      -0.49727118      -0.46709555       0.14050469      -0.00917682      -0.26344505
F        6.89051416       9.52360240       5.13729705      -0.05575377      -1.09185059       0.38189844      -0.00648922      -0.99669713       0.81567359      -0.01442482      -0.25219285
C        7.08876069       6.37817524       5.75062812      -1.28571493       0.55562916      -0.09172045       1.09875357      -0.28036633      -0.45582855       0.02508358      -0.12259459
F        5.92701603       5.77002408       5.49877153      -1.19115174      -0.35623218       0.03593721       0.02261229       0.58428478       0.05528570      -0.00626417      -0.27163520
F        7.91748998       5.39470881       6.21815995      -2.59467634       0.29547704      -0.60772016      -0.48478028       0.80462360       0.11616495      -0.01432015      -0.26003343
F        7.65061129       6.81174812       4.60066549      -0.27983124      -0.33466546       0.03537318      -0.51602054      -0.25648868       0.13256788      -0.01135055      -0.25210303
H        5.59391229       6.80052266       7.85562237      -0.02669674       0.07173602      -0.21166435      -0.02236526      -0.00481933      -0.42901689       0.02551003      -0.05174308
H        8.05977467       7.85680479       6.86666356       0.11954426      -0.09146491      -0.05174603       0.53298914       0.14438432       0.33604413       0.01302895      -0.04135621
192
Lattice="14.794019145474252 0.0 0.0 0.0 14.794019145474252 0.0 0.0 0.0 14.794019145474252" Properties=species:S:1:pos:R:3:momenta:R:3:forces:R:3:charge:R:1:energies:R:1 Built=T with=T Packmol=T charge=0 spin=1 external_field="_JSON [0.0, 0.0, 0.0]" energy=-19.86245346069336 stress="-0.0002918296668212861 0.0011827826965600252 0.001136687584221363 0.0011827826965600252 0.003562020370736718 0.001162034342996776 0.001136687584221363 0.001162034342996776 -0.0022160494700074196" dipole="0.04779708385467529 -0.8174998164176941 -0.30694758892059326" free_energy=-19.86245346069336 pbc="T T T"
O       13.75733230       6.04353784       7.25837961      -0.52658305      -0.34959057       0.12580286       0.09427460       0.11506680      -0.02450454      -0.02604666      -0.12952591
C       13.03593184       4.90968062       6.94892757       0.83654471       0.42548004      -0.24919914      -0.32720643      -0.43688709      -1.40802050       0.01283688      -0.19969107
C       11.53011267       5.10444341       7.24826851       0.39770183      -0.58071869       0.17386213       0.99936974      -0.20098886       0.37701312       0.02404788      -0.13239652
F       11.10076636       6.14195197       6.52317349       0.90086749      -0.58486201      -0.29515705      -0.11518784       0.10720278       0.70149565      -0.01125373      -0.26479903
F       11.36132270       5.32080302       8.59018950       0.32550138      -0.84084530      -0.84549568      -0.20621540       0.23673436      -0.84441531      -0.01059817      -0.29372066
F       10.79833424       4.05802295       6.91370530       0.45647661      -0.42405250      -0.27509181      -0.30104476      -0.40131757      -0.04437993      -0.00889194      -0.25374734
C       13.71157329       3.63090332       7.50411331       0.17606616      -0.44386913      -0.29994350       0.81998557       0.48755148       1.55449450       0.02468520      -0.09815649
F       14.29025001       3.92476425       8.70527951      -0.39694803       1.59838582      -1.41447181      -0.92591119      -0.07790557       0.08830839      -0.01275704      -0.24092442
F       14.77115223       3.27370732       6.77487141      -0.51900080      -0.15352822      -0.46308688      -0.72853434      -0.39341721      -0.75705481      -0.00961308      -0.23716798
F       12.87319609       2.58836743       7.70371928      -0.43251169       0.95216219      -0.98257532       0.60116512       0.50948811      -0.45052373      -0.00953864      -0.27557421
H       13.70664775       6.20182512       8.20452992      -0.02784795      -0.15285602      -0.00602608       0.08745091       0.10734691       0.38662261       0.02257618      -0.05411767
H       13.08558227       4.81592124       5.84720228       0.01010498       0.21304760       0.04117886      -0.06525628      -0.08092543       0.38860348       0.01323579      -0.02749518
O        2.11876632       9.63710690       2.40390464       0.97994869       0.94329090       0.65810903       0.46371654       0.40913051       0.38357228      -0.02645597      -0.19093987
C        3.15421000      10.55711750       2.62353530      -0.42553070       0.48358898      -0.30875353       0.11411351       0.78713518       0.37286031       0.01156635      -0.22632170
C        2.88936759      11.94289870       1.95347682       0.13604393      -0.08743072       0.09599868       0.10465050      -0.87995732       1.89184582       0.02386296      -0.10543539
F        1.63894060      12.28299236       2.23211220       0.70644996       0.20670648      -0.64009907      -0.77517319       0.04997067      -0.73408473      -0.01155698      -0.23816346
F        3.12708803      11.97772402       0.65121817       0.29828362      -1.02067258       0.32870753      -0.05260774       0.37140474       0.02110681      -0.00754562      -0.27843797
F        3.62679305      12.84102486       2.62868142       0.17354610       0.00968358       0.63464188       0.60455728       0.30306351      -0.85801530      -0.01079252      -0.21564431
C        4.51811722       9.99945287       2.20158283      -0.02348609       0.08182671       0.63213868       0.21805118      -0.11879934       0.20545909       0.02468055      -0.12377296
F        4.35193768       9.32372940       1.07219369      -0.72343609       0.08001832      -0.37851107       0.14068459      -0.27987257      -0.91607249      -0.00800147      -0.22571659
F        4.97420576       9.09291615       3.08628929      -0.47329257       1.75776096      -0.45959900       0.09653322       0.71516949       0.01537010      -0.01105358      -0.25082767
F        5.44942163      10.95825591       1.97704014      -0.14980404       0.22279525      -0.61643976      -0.65328085      -0.84003389       0.48929578      -0.01112967      -0.25530639
H        2.33207755       9.16249378       1.60406701      -0.10764434       0.17832556      -0.08373564      -0.04759727      -0.38215438      -0.64785641       0.02115668      -0.04559860
H        3.20679889      10.78466739       3.69766921      -0.01325436       0.09028307       0.04174456      -0.09468383      -0.10959345      -0.24673355       0.01134099      -0.04569737
O        7.71677223      13.23500637      14.04865576      -0.13803866       0.43410316      -0.94534624      -0.28668839      -0.35416156       0.20786205      -0.02744432      -0.09407090
C        8.07327974      13.53088535      12.75598836      -0.49544036      -0.08844160      -0.47212798       0.42987153      -0.45274818      -0.47400138       0.01299272      -0.22705325
C        9.54772529      14.05428844      12.65952723      -0.81119515       0.38726462       0.39558662      -0.25672382      -0.29010713      -0.16676041       0.02324720      -0.13209397
F       10.24678188      13.51797743      13.65735158      -0.64785048       0.28997395      -0.34621033       0.14374365      -0.16915730       0.10003248      -0.01338162      -0.25660977
F        9.73075177      15.37577388      12.72590569      -0.79668236      -0.22010477      -0.34970724      -0.41720772       0.28679571       0.22181809      -0.01171565      -0.26776427
F       10.08636752      13.65172835      11.50899680      -1.23656369       0.24476643      -0.05752048       0.10584457      -0.18623009      -0.19137415      -0.01313321      -0.23941822
C        7.02180235      14.38679522      12.05749739      -0.33440897       0.43098064       0.12816068      -0.37632763       0.88221323      -0.29621419       0.02435803      -0.14857478
F        6.56133896      15.37157004      12.85555606       0.20892568      -0.59641146      -0.51434307      -0.01087111      -0.32845670       0.41271913      -0.01021018      -0.27094981
F        5.94805797      13.66401240      11.66474941       0.18986468       0.30944941      -0.25671810       0.20160843      -0.09122033       0.41713163      -0.01242885      -0.29210094
F        7.47558744      15.00068942      10.97683898       0.27140088       1.59549768       1.00698505       0.47601664      -0.30833513      -0.58762616      -0.01117588      -0.22115190
H        7.65398856      14.02283763      14.59276595       0.20430420      -0.00359714       0.00576301      -0.04523489       0.29772666       0.13270849       0.02362356      -0.04547419
H        8.08747820      12.57625163      12.19888301      -0.22585857      -0.07024318      -0.19169235       0.05614954       0.32508430       0.23422483       0.01278751      -0.02854056
O       14.11168194       9.12050736       1.65353147       1.00479727      -0.28571488      -0.96960887       0.91140693       0.24414672       1.41670883      -0.03481323      -0.10192785
C       13.01783679       9.44152666       2.48854291       0.58484308       0.10795750      -1.07609103       1.34428978       0.89291942      -0.46094358       0.01309725      -0.23986609
C       13.49082171      10.68701126       3.32543517       1.04407606      -1.07125693       0.43221277      -0.03543230      -0.41524807      -0.10598341       0.02424746      -0.09517458
F       13.84590771      11.65375160       2.50525798      -0.24599752       0.12950712      -0.95180887       0.37409920       0.21042554      -0.81462836      -0.01098956      -0.22246052
F       14.59319533      10.36203531       4.05638709       0.30925896       0.93330336      -2.11158467      -0.68806875       0.09992123       0.02179651      -0.01151218      -0.27482304
F       12.57119548      11.24507768       4.10730591       0.95498904      -0.04443399      -0.07405936      -0.30131364      -0.75081754       0.71926993      -0.00981706      -0.24623698
C       12.64116978       8.19152242       3.26922038      -0.40709917       0.28329499      -0.40483477      -0.97441876      -1.66687667      -0.39002830       0.02544718      -0.09128898
F       13.52055265       7.76579752       4.18584443      -0.20559101       0.54901955      -1.14995445      -0.42375392       1.00257516       0.18329605      -0.00976565      -0.25057691
F       12.57862090       7.09553562       2.41859271      -0.02332054       1.29591905      -0.06707517      -0.53540754       1.34737563       0.38265890      -0.01597531      -0.24088719
F       11.40291870       8.36447378       3.81671885       1.42420616       1.28809741      -0.55882605       1.10744536      -0.32115465      -0.06455451      -0.01225686      -0.26732123
H       14.90701986       9.20184092       2.26127095       0.18476376      -0.09848160       0.13894529      -0.69361812      -0.22906786      -1.26966107       0.02080022      -0.04227589
H       12.21096853       9.80451602       1.83875222      -0.00083139       0.07441496      -0.16004970      -0.14618759      -0.42440173       0.35297576       0.01244394      -0.05899270
O       11.29576401       4.36495401       0.77518346       0.13257823      -0.44690299       0.44509826       0.21907985      -0.23620389       0.15053964      -0.02791853      -0.13210079
C       11.04512866       3.18377944       1.48449865       0.75460012      -1.01202743      -0.47686375       0.22366127       0.24241963       0.72790790       0.01135802      -0.21741952
C        9.85009608       3.37878471       2.47183531       0.28269380      -1.35740564       0.14487588       0.85609257      -0.12332936      -0.68032235       0.02404098      -0.12688154
F        8.82048785       3.99555563       1.87552139      -0.02764521      -0.97935531       0.49968949       0.24921450      -0.65106910       0.19213420      -0.00907276      -0.26271147
F       10.20616726       4.15358668       3.51039214       0.01958677      -1.59258266       0.13553662      -0.23239803      -0.59170544       0.12226767      -0.01109715      -0.27434087
F        9.48232519       2.13078650       2.87930978      -0.05981341      -0.21887023      -0.35933874      -0.28661937       1.07694030       0.22863118      -0.01046984      -0.25365412
C       12.37237261       2.73284562       2.25062251       0.58065525      -1.00491304       0.22324266      -1.77800930      -0.21625878      -1.47974002       0.02425734      -0.09335949
F       12.91376302       3.74282884       2.92308649      -1.06185802       0.63750352       0.37315592       0.25613368       0.37015504       0.07686521      -0.00790696      -0.28659680
F       13.23974137       2.28817258       1.34192784       0.02199050       0.16100308       0.77390000       0.37065297       0.20583582      -0.07803787      -0.01004624      -0.27115124
F       12.13089656       1.74298632       3.08618241      -0.56749719       0.00111233       0.88274015      -0.04871355      -0.35302058       0.65518481      -0.00949831      -0.24601275
H       11.95901450       4.88821127       1.25799115       0.10437263      -0.15668470      -0.06981764      -0.32112941      -0.01151730      -0.19279680       0.02280016      -0.05290724
H       10.71514132       2.38103876       0.79425659       0.01694942      -0.28011421       0.19787853       0.45849290       0.38123155       0.28679302       0.01191599      -0.05389965
O        9.22959743       7.42798134      12.33763479       0.23579654       0.36719290       0.50308887      -0.33804500      -0.90680778       1.42183566      -0.02948020      -0.07380480
C        9.03081399       8.65318286      12.99567796       0.42573365      -0.32126729       0.77528042       0.10359460      -0.21460257       0.60502303       0.01102773      -0.22002938
C        9.68191194       8.80794677      14.43723098       0.52099721      -1.05258659       0.27438828      -0.08911082       0.82412547      -1.37968326       0.02345860      -0.08390012
F       10.84781838       8.16627566      14.43376060      -0.91535660      -0.86154948       0.79189584       0.00635104      -1.10176492       0.48096544      -0.01249923      -0.26992524
F        8.89125235       8.47363191      15.44838444      -0.67316903       0.18782466       0.26510030       0.12582049      -0.90162694       0.05920806      -0.00810528      -0.26979214
F       10.02812250      10.07937359      14.67216489      -0.15421008      -0.67663857       0.42971300      -0.40201908       0.76446879      -0.18806943      -0.01507542      -0.22606064
C        7.53203912       8.97764825      12.97350470       0.35034328      -0.57353098       0.26784671       0.49683177       0.63829660       0.58905286       0.02399924      -0.15745077
F        6.83225785       8.05947783      13.62783838       0.39955693      -0.43361978      -0.11265205      -0.30448180      -0.46241075       0.37856981      -0.00991120      -0.27979451
F        7.13514048       8.96610212      11.72007711       1.02357524       0.03434995       1.21775851      -0.47930834       0.34057480      -0.77645832      -0.01141179      -0.25398383
F        7.23191547      10.18611283      13.52400768       0.98624611      -0.83163742       1.13293255       0.33949283      -0.52462971      -0.34229785      -0.01379543      -0.28918958
H        8.82179970       6.66733628      12.83988058       0.16795261       0.10317796       0.16515981       0.52463388       1.16251373      -0.69052941       0.02381951      -0.05374946
H        9.56030900       9.36731784      12.37661469      -0.02803854       0.03930685       0.02790336      -0.05671249       0.38406184       0.01720716       0.01008420      -0.04232554
O        3.84499061       1.35605641      12.35182856       0.76151866       0.10569858      -0.32015637       0.25260806       0.43842494       0.67896891      -0.02648189      -0.13545763
C        2.70007318       1.73714727      11.69242051       0.23443227      -0.20728011       0.07942231      -0.45388901       1.83864117       0.38088864       0.00996841      -0.17303360
C        2.98756900       1.74858943      10.19276352       0.08498533       0.55459418       0.32561548      -1.08555984       0.35679230       0.67006558       0.02383705      -0.10524511
F        3.47062455       0.52829208       9.99706329       0.97194625       0.60699682      -0.01854605       0.65703070      -0.91690314      -0.99070680      -0.01066681      -0.20266928
F        3.84751243       2.63902701       9.76687505      -0.63193034      -0.28859158      -0.16272731       0.85244083       0.45553952      -0.12483199      -0.00782824      -0.24641865
F        1.88130103       1.90594181       9.46345443       0.22238778       1.07730042       0.26850649      -0.40033701      -0.15757310      -0.14965306      -0.01340505      -0.27657825
C        2.30868243       3.09295854      12.36616049       0.49583543      -0.43004570       0.00535537       0.65608609      -0.53979659       0.17682096       0.02375080      -0.12649426
F        2.89344369       4.13597039      11.80302389      -0.81797078      -0.84130889       0.91681062       0.26874799       0.67840862      -1.02723408      -0.01039297      -0.25633633
F        2.75026768       3.11296344      13.62342205       0.50884394      -1.33016162      -1.76872871      -0.34585640      -0.36883077       0.51720619      -0.01160920      -0.23026943
F        1.00220927       3.29595777      12.37416700       0.49679312       0.13204546      -0.55631210      -0.09371953       0.04067983      -0.02786976      -0.01123757      -0.21049312
H        4.13360977       0.53959165      11.98005375      -0.19407881      -0.23046263       0.09977646       0.55809474      -1.14563954      -0.29332486       0.02180691      -0.02913593
H        1.84446967       1.09310601      11.80092543      -0.01040535       0.08092333       0.07467379      -0.37418121      -0.60454702       0.28247049       0.01141842      -0.04567798
O        2.43442439       6.98455846      11.86792654      -0.09569058      -0.34491383       1.45999364       0.23591255       0.73829031      -0.24323988      -0.03105362      -0.13633546
C        2.05295125       7.73270661      12.97738279       0.46887878       0.28432421      -0.19239654       1.22923958      -0.23664063       0.07546680       0.00768726      -0.16973303
C        2.75026226       9.11698994      13.16672350       0.28466384      -0.36584441       0.28849705      -1.47166860      -0.75557375      -1.02871048       0.02371441      -0.10908431
F        2.60879548       9.93196046      12.08806247      -0.73605021      -1.54309795       0.18518051       0.10177527      -0.70784187       0.28564486      -0.01449842      -0.26202351
F        4.02688808       8.95945841      13.38343051      -0.50632312      -0.30166338       0.61070612       1.05268633       0.31125754       0.40469941      -0.00762259      -0.24625650
F        2.11535611       9.75839981      14.16395691      -0.43562204      -0.11523965      -0.38554404       0.48230159       0.01875967       0.31791526      -0.01127435      -0.25413319
C        2.12504791       6.78399110      14.17208560      -0.18105210      -0.65009076       0.10355260      -0.20751329      -0.18205982      -1.02545583       0.02538477      -0.10924745
F        3.31349415       6.14683645      14.16228796      -0.21197658       0.37175716       0.73611708      -0.55781424      -0.16682521       0.37679905      -0.00718328      -0.26157641
F        1.10694850       5.86812460      14.01758871      -0.70444577      -0.04869346       0.23882767       1.35199428       0.85964596       0.71292043      -0.01434932      -0.26107696
F        2.00286565       7.41634139      15.33393884      -0.26844649      -0.37799628      -0.32095040      -0.29932785      -0.37177113       0.55121773      -0.00556362      -0.25540480
H        3.29349233       6.60469757      12.07135337      -0.00441247       0.10391946       0.22452042       0.33966392      -0.26888758      -0.21170832       0.02192166      -0.04312128
H        1.05471780       7.96357831      12.84994449      -0.00931826       0.05076333       0.15711617      -2.06321192       0.49168241      -0.22237307       0.00813825      -0.01065049
O        4.28514201      15.64850850       7.24930202       0.81148684       1.67804473      -0.14643430       0.00676722      -0.24133530      -0.27936032      -0.02666510      -0.14474469
C        4.76970380      14.41301918       6.81262892       0.09098790       0.73084549       0.30219256      -0.26496911       0.04867655      -0.04958573       0.01018353      -0.22137804
C        6.23292428      14.23765411       7.18474546      -1.03225633       0.85664897       0.51253155      -0.60219359      -0.29827240       0.59247184       0.02416186      -0.15459661
F        6.24036464      13.94566634       8.51437946      -0.98462349       0.68750993      -0.81171695       0.50801581       0.27429914      -0.39101505      -0.01501031      -0.26627576
F        7.00447277      15.28095487       6.94767668      -1.42782790       0.57197991      -0.32003505       0.03167522       0.41252136       0.16812859      -0.00882136      -0.27685288
F        6.74512173      13.20287232       6.52925620      -1.11958192       1.64570033       0.95795266       0.16015568      -0.42157286      -0.05944326      -0.01140543      -0.25172520
C        4.46194554      14.19603747       5.33147177       0.24909848       1.30250060      -0.03275181      -0.39782318      -1.13405573       0.35288623       0.02429981      -0.11793594
F        5.19882502      14.77030644       4.41763061       1.12748642       1.50466885      -0.39732538       0.93487495       0.64165509      -0.23973165      -0.00682184      -0.25991321
F        3.20564721      14.60310178       5.12395920       0.57736485       2.02669110       0.12150256      -0.74533570       0.20770553      -0.11907959      -0.00948874      -0.25372532
F        4.49207336      12.86963161       5.11218445      -0.05447095       1.86357245       1.42606063       0.03210563      -0.25250357      -0.13570629      -0.01458940      -0.23885597
H        3.39803095      15.69771798       6.85860036      -0.01801592       0.03797302       0.29315613       0.08646138       0.34121230       0.32020050       0.02368496      -0.01955044
H        4.25230286      13.56029686       7.29608666       0.33999812       0.27145118       0.09313503       0.19022396       0.37160775      -0.15342271       0.00897461      -0.03113034
O       12.10199975      13.68888018       9.01366133       0.36754339      -0.03447767      -1.02891894       0.23628134      -0.00754619      -1.04336071      -0.02867464      -0.03462613
C       11.32102508      12.65570828       8.45923483      -0.10805361       0.28614655      -1.19789818       0.33611977      -0.38454336       0.28917617       0.01160607      -0.18337600
C       11.97285112      12.01438061       7.20393435      -0.20356331       1.14799646      -0.06426816      -1.32224214       1.60964549      -0.50729966       0.02359393      -0.12301052
F       13.01738613      11.26574444       7.52634991      -0.55166535       1.71618551      -0.33805874       0.07361846       0.01166633      -0.22483431      -0.01154670      -0.26641896
F       12.36933808      13.04932774       6.41807446      -0.51764706       1.21300791      -1.33490785       0.54362720      -0.38084808      -0.14489275      -0.01238800      -0.29030934
F       11.10857944      11.29233213       6.46536677       0.17477373       1.75095524      -0.01121501       0.48810658      -0.13670769       0.77236342      -0.01216190      -0.24474731
C        9.84577610      13.14240260       8.27817755      -0.33698905       0.14422684       0.20657757      -0.26148510      -0.85395968       0.36321416       0.02346790      -0.12396105
F        9.49217726      13.39868658       7.02712421      -0.62605727       0.47234005      -0.31168683       0.27817625       0.14796203      -0.51402885      -0.00975345      -0.24614409
F        9.60319549      14.21995244       8.99502706      -0.24674225      -0.53688967       0.21865802       0.25306118       0.77516842       0.13507307      -0.01134043      -0.22594839
F        8.98792203      12.21009647       8.74617062       0.11228495       0.13239785       0.67839635       0.13930844      -0.48200119      -0.13396341      -0.01504628      -0.27331522
H       12.35236084      14.35770132       8.32675821      -0.14469261       0.05218781       0.03892930      -0.45004725      -0.86434066       0.69083792       0.02450433      -0.04764369
H       11.34272268      11.79429238       9.14573706      -0.21919400      -0.14326624      -0.12302565      -0.37334910       0.62377584       0.33402479       0.01074737      -0.02889881
O       14.73440029       8.79565010      11.27332718      -0.28482326      -0.78406538       0.90958162       0.13946679       1.18204415      -0.47242576      -0.02636354      -0.02869691
C       13.37757681       8.93932000      11.63551805      -0.68768935      -0.01041329      -0.24963626       1.10636282       0.02259398       0.45765901       0.01243689      -0.24949786
C       12.48824836       8.55844580      10.48384065       0.03818029       0.23183375       0.76304999       0.43071300      -0.83935231      -0.61460555       0.02353985      -0.15892379
F       12.57577965       7.22267281      10.25633810      -0.66506290       0.54628912      -0.85574750       0.01521479       0.30739039       0.25758800      -0.01320691      -0.28123587
F       12.81499673       9.14385414       9.34622382      -0.29803733       0.39236659       0.83490989       0.48146236       0.54384708      -0.66258669      -0.01163074      -0.27669045
F       11.23714891       8.85659828      10.72342104       0.76693034       1.54252101       0.64871480      -1.39726913       0.17161274       0.42849597      -0.00878641      -0.24206145
C       13.10011740      10.31729574      12.24504634       0.02847365      -0.93917955      -0.18520954       0.67091572       0.29058617       0.47051162       0.02426342      -0.13371137
F       13.08668176      11.25685642      11.29791071      -0.18220483      -1.03944825       0.29656340      -0.36088684       0.27435842      -0.39730632      -0.01072485      -0.28238270
F       14.09378947      10.65299811      13.08508615      -1.09937309      -0.63065528      -0.23275609       0.13514201      -0.29308403      -0.07288277      -0.01219081      -0.26318926
F       11.98217881      10.38905238      12.96361992      -0.33607365      -1.18296638      -1.27134918      -0.29583019      -0.18111095      -0.44938350      -0.01016191      -0.26284122
H       15.15434161       9.64222409      10.95065643      -0.13984947      -0.08616143       0.07228126      -0.83522755      -1.10922527       0.38359845       0.02155232      -0.07770233
H       13.19168943       8.20055674      12.40530312       0.07171001      -0.11728063      -0.16485269      -0.15837634      -0.17110622       0.35160536       0.01327669      -0.03817568
O        1.75205883      12.85935449       7.40066513      -0.66152618       0.22483643      -0.46786369      -0.48380521      -0.40427360      -0.65617740      -0.02572375      -0.12243444
C        2.07333958      12.09946117       8.52273174      -0.20960624       0.64076841      -0.35014663       0.67838633       1.42266834       0.68637383       0.01181423      -0.20812789
C        2.14245357      10.60995753       8.23818598       0.38709138       0.06294533       0.48009717       0.07973650       0.67768186       0.64084178       0.02459982      -0.14531922
F        2.95978394      10.45247315       7.21831978      -0.98164276       1.86726350       0.36223451       0.57843566      -0.56255579      -0.53835469      -0.00959268      -0.25405848
F        0.94996876      10.14106285       7.90343475      -0.38284450       0.75640515       1.36487207      -0.67711306      -0.47498730      -0.11511406      -0.00971979      -0.28478169
F        2.59918293       9.92640168       9.29993982      -0.33617925       0.27647507      -0.68585864      -0.04722843      -0.03173684      -0.37607980      -0.01031796      -0.26826406
C        1.13139944      12.55327860       9.63030909      -0.07834480      -0.81477834      -0.25642319       0.08910584      -0.35008216       0.13845706       0.02389683      -0.11433498
F       -0.09552707      12.70729325       9.14088044       1.02288227      -0.85534904       0.04563264      -0.63287568      -0.85760278       0.34908783      -0.01016217      -0.22563294
F        1.44365850      13.75855391      10.08853785       0.02352112      -1.06002494      -0.33920616       0.53434360       0.08644443       0.40781945      -0.01109907      -0.23244417
F        1.17610072      11.67773156      10.66927652       0.80803890      -1.09582961      -0.52646668      -0.62909204       0.50847876      -0.31638643      -0.00955569      -0.27318802
H        0.82495892      12.64904193       7.15532965      -0.04873972       0.10294454      -0.04237714       0.66716790       0.24645621       0.01488839       0.02413202      -0.03862257
H        3.07221351      12.43133449       8.86079320      -0.03384139      -0.00556017      -0.07547106      -0.22463243      -0.35132167      -0.19937578       0.01313099      -0.03272382
O        9.61976078      12.29816977       4.42190559       0.83235096       0.79517251      -0.13400262      -0.07220452       0.47509566      -0.25338620      -0.02915838      -0.09291163
C        9.37198535      13.29725939       3.46920981       0.40955369       0.64511589      -0.16237167      -0.67640156       0.01493466       0.71411389       0.01235134      -0.27608269
C        8.09627566      12.96986647       2.64319575       0.31885201       0.35918942       0.51183764       0.48065704      -0.21200971       0.77099800       0.02433179      -0.15287960
F        7.08029691      12.66362962       3.44381873       1.38960426       0.31006090       1.04010780       0.06631984      -0.16027932       0.23182966      -0.01228594      -0.25545919
F        8.27746025      11.95418112       1.79077148      -0.22948536       0.01023967       0.36991105       0.00604352       0.14903201       0.15283251      -0.01178736      -0.26950890
F        7.73869382      14.05428157       1.96899058      -0.45850019       0.37452976       0.68922527      -0.33192134       0.72717237      -0.78430915      -0.00859863      -0.25568372
C       10.57624772      13.50091454       2.56929825       0.03974812       0.27202301      -0.12128523       0.36966103      -1.13995886      -0.81888980       0.02286431      -0.15431851
F       10.94346016      12.29351040       2.02277777      -0.28412276       0.36825453      -0.16275333      -0.33001846       0.43144464       0.04400163      -0.01344289      -0.26924458
F       11.63162311      13.91439710       3.23096000      -0.40839187      -0.52490834      -1.21954682       0.38377011       0.46372718       0.55647230      -0.01052414      -0.23789074
F       10.35109877      14.33818949       1.55152533       0.17973751      -0.22873764      -0.05977425      -0.06801656       0.09445363       0.10567054      -0.01098734      -0.27098221
H        9.95353096      11.50258420       3.99414677      -0.02743365      -0.01057470       0.01216881       0.04260371      -0.10599971      -0.15123421       0.02312084      -0.04851494
H        9.18800224      14.24601314       4.03621697       0.13143007      -0.11424755      -0.16248644       0.04817333      -0.73778063      -0.55843359       0.01352102      -0.04897553
O        6.83490474       3.51785592       9.53295785      -0.46304302      -0.61900973       0.70040489       0.76571226      -0.13787982       0.05534244      -0.02781652      -0.05715988
C        6.46534035       3.79517333      10.86009230      -0.21547939       0.11569791       0.51786049       0.79751247       1.04510546      -0.76008517       0.01161291      -0.26193351
C        5.90924496       5.23480832      10.90899707      -0.05319842      -0.62989611      -0.26816444       0.65700769      -0.28469005       0.06051696       0.02341776      -0.13711700
F        4.92776900       5.28263498      10.00175008       0.04952888      -1.54571800       0.60992037      -0.23801458       0.57790339       0.40852261      -0.01080823      -0.26040268
F        6.77938995       6.23952962      10.61852611      -1.12869893      -0.79874936       1.03907369      -0.77727211      -1.00656998       0.41486773      -0.01271696      -0.25190663
F        5.42158698       5.42861380      12.16172755       0.11060215      -1.68893263      -0.41944535      -0.16375241       0.60268933      -0.60799909      -0.01070168      -0.28235072
C        7.59764919       3.59358023      11.90609399      -0.05873291      -0.52269169      -0.08654264      -0.61621988       0.47464681      -1.71093321       0.02413104      -0.12240219
F        8.44132280       4.65532097      11.91870712      -1.62593804       0.95263059       0.98067626       0.11243640      -0.15474647       0.03799819      -0.01141451      -0.28138244
F        8.31037012       2.52159796      11.60487231      -0.19295945      -0.16498828      -0.98716426       0.30396193      -0.04308329       0.15716703      -0.01111291      -0.23371884
F        7.07389367       3.47986648      13.09355282       0.25236138      -1.16426294      -0.02647643      -0.20033924      -0.27238294       1.39997995      -0.00878577      -0.25119397
H        7.73577407       3.83482796       9.29655952       0.01994604       0.17265487       0.33967824      -0.82266444      -0.13733879       0.50778067       0.02427133      -0.05343249
H        5.59171836       3.18562999      11.09266867       0.05391180       0.04064017       0.11957882       0.34390107      -0.25132382       0.20922834       0.01057747      -0.05148952
O       11.35092679       3.09057717      10.92131355       0.74157670      -0.88812556      -0.32827571       0.61956817      -0.35511780       0.75324255      -0.02924150      -0.15507229
C       12.17398253       2.89149883      12.03920275       0.79612759       0.31200043       0.81373471       0.21903178       1.50131524       0.55790985       0.01162613      -0.24421264
C       12.88459448       4.24859892      12.41284156       1.36248862      -0.68900295       0.30194354       0.28853807      -0.67110175       0.01676191       0.02278828      -0.11763810
F       12.02304642       5.22922242      12.54642653       0.55924065      -2.39536200       0.78396874      -0.97991765       0.56161702       0.11883800      -0.01266633      -0.26144719
F       13.68727545       4.60175792      11.38412071      -0.10850333      -0.43339797      -0.64050923       0.16180113       0.00141956       0.23277727      -0.01218115      -0.26137275
F       13.59934142       4.21364899      13.56033515       0.73717896      -1.07924819      -0.59944585      -0.20376264      -0.32970440      -0.77706742      -0.01237695      -0.25442490
C       13.21401266       1.78196257      11.89396964       1.55683942       0.37346228       0.32615452      -1.03755844      -0.09042764      -1.46622324       0.02328246      -0.12663694
F       14.19829222       2.03692117      10.96836381      -0.28682776      -0.47075335      -0.63005744      -1.09216654      -0.54155302       0.93733239      -0.01303931      -0.24490803
F       12.55646291       0.68065964      11.49592661       1.49309727      -0.20203292       0.68607830       0.38990137      -0.10918066      -0.23554204      -0.01405329      -0.25079748
F       13.71796613       1.53418814      13.07580894       0.56457207      -1.17701550      -0.08453195       1.09803820      -0.25394034       0.71664613      -0.00845731      -0.24170679
H       11.90893728       3.58296411      10.32542855       0.12344255       0.23044237       0.00159804       0.04160070       0.37410024      -0.98856664       0.02032215      -0.03508034
H       11.54038931       2.62871962      12.88604437      -0.08468858      -0.14480642       0.07597356       0.01829559      -0.15934527      -0.01133196       0.01102100      -0.05263560
O        6.46810600       7.29168027       7.95624386       0.09553143      -0.24160163       0.32456416      -0.34803021      -0.64154172      -0.24643601      -0.02464993      -0.09525128
C        7.04058210       7.59465546       6.73248954      -0.47072335      -0.09019717      -0.43664431       0.69775724       1.26503944      -0.12028444       0.01499329      -0.21015154
C        6.35064871       8.92055645       6.21422778       0.66469958       0.43500580      -0.03872691       1.08380699      -0.21600014       0.55881113       0.02374488      -0.12053536
F        6.39091533       9.78800304       7.24384241       0.60924285      -0.15665090      -0.37646872      -0.08803111      -0.04775602      -0.21013004      -0.01394664      -0.26127279
F        5.09178666       8.70278784       5.90080135       0.63663237      -0.68148467       0.80979255      -1.08164740      -0.27830654      -0.07893915      -0.00937147      -0.27159086
F        6.91878402       9.53069510       5.17253778       0.02210079      -1.41225254       0.59323982       0.38378689      -0.34019819      -0.01092212      -0.01152341      -0.26108152
C        7.07870615       6.42136138       5.76568933      -0.66740795       0.17207405      -0.36790667       1.10741472      -1.05418253      -0.56282508       0.02523288      -0.11810634
F        5.92124661       5.78981732       5.52285163      -1.20066122       0.03097839       0.01164382      -0.12997657       0.95148587      -0.15493944      -0.00682440      -0.26106161
F        7.88207248       5.42981631       6.23019345      -2.68333897       0.62935570      -0.46696946      -0.01153414       0.50632310       0.42513067      -0.01432540      -0.24496995
F        7.67161771       6.83074669       4.62207489      -0.61808397      -0.40393562       0.11152790      -0.80939263      -0.05346942       0.07609454      -0.01134469      -0.24878789
H        5.61400313       6.87013701       7.76608427       0.02300506       0.10201688      -0.22098688       0.06517283       0.05061364       0.38828233       0.02533134      -0.03369343
H        8.11953735       7.84172207       6.89180671      -0.13716675      -0.12880609       0.00253409      -0.80896348      -0.09770572      -0.03561237       0.01257010      -0.03672709
192
Lattice="14.861089555580675 0.0 0.0 0.0 14.861089555580675 0.0 0.0 0.0 14.861089555580675" Properties=species:S:1:pos:R:3:momenta:R:3:forces:R:3:charge:R:1:energies:R:1 Built=T with=T Packmol=T charge=0 spin=1 external_field="_JSON [0.0, 0.0, 0.0]" energy=-19.578277587890625 stress="-0.003391915000975132 -0.00016898191825021058 -0.00028095534071326256 -0.00016898191825021058 0.0017791156424209476 0.00033728027483448386 -0.00028095534071326256 0.00033728027483448386 -0.004657414276152849" dipole="0.2976391315460205 -1.0890755653381348 0.07709819078445435" free_energy=-19.578277587890625 pbc="T T T"
O       13.80591020       6.06353755       7.29770415      -0.33189560      -0.06400883       0.40537515       0.55179095       0.87155062       1.10852325      -0.02616227      -0.12467758
C       13.12150717       4.94129052       6.96022350       0.38505135      -0.03456108      -0.62898565      -1.17274952      -1.21866059      -0.30222306       0.01144521      -0.19123845
C       11.60813447       5.10319776       7.28821072       0.82247813      -0.58591370       0.07648876       0.57808471       0.08590618      -0.75888437       0.02349240      -0.13527510
F       11.17356494       6.15478995       6.55012450       0.84105801      -0.60042223       0.10909528      -0.03028250      -0.21540344       0.90837461      -0.01328398      -0.26442605
F       11.41988543       5.32496225       8.60343516       0.22474375      -0.69819202      -1.08428350      -0.13959086       0.26251447      -0.21139404      -0.00886140      -0.29677436
F       10.85762014       4.06334037       6.93785651       0.36812517      -0.56602615      -0.27266142       0.02237987      -0.17345226       0.04252066      -0.00958871      -0.25548500
C       13.78661449       3.63923900       7.53725553       0.38235934       0.14613716       0.12964840      -0.00642575       1.67862058       0.05080926       0.02418453      -0.09378125
F       14.33982828       3.98222975       8.71043418      -0.73643956       1.43654646      -1.17375226      -0.45124981      -0.41379139       0.81397831      -0.01064046      -0.24463776
F       14.82139617       3.28132057       6.78893224      -0.72699512      -0.42734088      -0.81178694      -0.20291589      -0.67286074      -0.63786876      -0.00930535      -0.24846372
F       12.92421228       2.62680362       7.71132441      -0.13730129       1.07539903      -1.09441051       0.58065474       0.11684588      -0.07367732      -0.00865168      -0.27868360
H       13.77153276       6.17397357       8.26667491       0.04642163      -0.07906868       0.02415724       0.16802582       0.11391817      -0.38780081       0.02283917      -0.04460022
H       13.14715908       4.91020572       5.88469742       0.00922027       0.05182116      -0.09099196       0.05114616      -0.45792890      -0.56950623       0.01278193      -0.02381624
O        2.15968845       9.70857848       2.43339691       0.98635130       0.74324135       0.41075185      -0.39902002      -0.86439425      -1.00154746      -0.02691392      -0.17665312
C        3.15704294      10.63192845       2.62996628      -0.03849990       0.77754581       0.04915424       1.26053059       0.16920908       0.53537285       0.01139176      -0.23859935
C        2.90944673      11.98720847       1.98278639       0.20659767      -0.30849429       0.80384735       0.12687239       0.12095939       0.75164711       0.02376268      -0.13899498
F        1.65924263      12.34443236       2.22151932       0.28664817       0.23840710      -0.93934749      -0.79265821       0.06203277      -0.51129347      -0.01131010      -0.23797011
F        3.14876957      12.00841021       0.66327791       0.28624517      -0.80084914       0.41383070       0.01342540       0.39881971       0.48583919      -0.00919433      -0.27823144
F        3.65106950      12.90067127       2.65099445       0.41171352       0.07225098       0.15884224       0.37685174      -0.03862001      -0.98458052      -0.01103126      -0.22054201
C        4.53729984      10.05005734       2.23201826      -0.10352547       0.25155986       0.20010331      -0.52379042       0.77272040      -1.77852154       0.02517536      -0.10497590
F        4.35425241       9.36731491       1.06405719      -0.61264891       0.06050371      -0.52936949       0.23967040       0.19116411       0.22612703      -0.01152311      -0.24211070
F        4.98620523       9.18158982       3.09053476      -0.30491469       1.81793243      -0.21797032       0.52604938      -0.31016770       0.90358233      -0.00771700      -0.24055868
F        5.46604950      11.00816060       1.97354082      -0.46761549      -0.20215551      -0.34150310      -0.59601808      -0.81175393       0.54420793      -0.01172005      -0.25739431
H        2.27844158       9.28324465       1.55440567      -0.15825090       0.22332880      -0.02068662      -0.04225412       0.37711921       0.58525467       0.02178447      -0.05177082
H        3.20324300      10.85963617       3.69177963      -0.05456559       0.02280677      -0.08918543      -0.02140587      -0.04978571       0.23319477       0.01141830      -0.03299107
O        7.74484202      13.30631490      14.08702593      -0.32275589       0.33193844      -0.64923655      -0.42927581      -0.12553930       0.72117764      -0.02762675      -0.07899272
C        8.09290863      13.58440563      12.78905029      -0.36361648      -0.19465748      -0.69280007       0.08863775       0.67609006       0.03161636       0.01276343      -0.23148049
C        9.55751791      14.12761040      12.72725915      -0.77348045       0.02531197       0.03003297       0.33809450      -0.97059387      -1.12295008       0.02356076      -0.10823528
F       10.27707409      13.58592891      13.71112254      -0.61957929       0.23661051      -0.28475288      -0.09471314      -0.02727262       0.07487964      -0.01316778      -0.25842780
F        9.75152051      15.44218486      12.77644164      -1.01579729      -0.02700083      -0.19029040      -0.54874486       0.37677610       0.37715644      -0.01114305      -0.26226988
F       10.10070821      13.71907610      11.55942827      -1.19606238       0.18763716      -0.04749303      -0.00953716      -0.05324405       0.16471753      -0.01490697      -0.23886755
C        7.03922263      14.47595509      12.11307445      -0.29270858       0.66234227      -0.10987686       0.52053648       0.00095437      -0.62107229       0.02391876      -0.14752559
F        6.59518201      15.42563592      12.90492645       0.06294272      -0.54014906      -0.11330563      -0.54382360       0.49933547       1.14474356      -0.00843485      -0.25537539
F        5.98084796      13.73358523      11.71324313       0.24804242       0.29212024      -0.10096188       0.07232305       0.06743038       0.19682929      -0.01270479      -0.30025709
F        7.51901450      15.10723150      11.04828146       0.44483143       1.36698629       0.65084965       0.24342394      -0.46338546      -0.78232539      -0.01173053      -0.22173773
H        7.78308756      14.09326892      14.65688443       0.18119233      -0.02487113      -0.05588586      -0.05813623      -0.23534119      -0.26040682       0.02367033      -0.04703602
H        8.04097751      12.66190053      12.21321913      -0.08377002       0.14064035       0.01213321       0.41970992      -0.18392485       0.11870603       0.01273826      -0.03384616
O       14.21243738       9.15489138       1.64224544       1.12798754      -0.18324243      -0.44984897      -1.89589024       0.10413851      -0.70217210      -0.03285596      -0.11449927
C       13.11137665       9.49535892       2.45378488       1.07047707       0.32871732      -1.05590929       1.01509225      -0.28055060       0.88302743       0.01306061      -0.24850982
C       13.58824907      10.69636507       3.34927600       0.59507379      -0.64864267      -0.16842485      -1.58890700       1.83783436      -2.07576323       0.02414871      -0.05126622
F       13.90421610      11.70917719       2.48886634      -0.11890394       0.00513963      -1.12825062       0.13160986      -0.57915789      -0.07618329      -0.01572319      -0.22814073
F       14.66597224      10.43216844       4.02320155       0.32075822       0.80139752      -1.77951915       0.71888316      -0.52727759       1.09682262      -0.00686030      -0.25095639
F       12.65185907      11.28889183       4.12795761       0.91084323      -0.55304367       0.19990936       0.16001235      -1.29462624       0.35731673      -0.01176977      -0.24943665
C       12.67795518       8.22776179       3.26130817      -0.42923927      -0.18913635      -0.74391089       0.98381281      -0.03808573      -0.85175055       0.02470760      -0.10996792
F       13.57435778       7.82121987       4.17711014      -0.35444693       0.99491865      -0.96807065      -0.20484208       0.82034671       0.44003105      -0.01106367      -0.26409063
F       12.63105028       7.16759843       2.42906793      -0.35463985       1.69205919      -0.02939039      -0.82183194       0.25627291      -0.32613534      -0.01383968      -0.25379366
F       11.49552853       8.43355224       3.82010165       1.61982655       1.12512623      -0.48303042      -0.24436164      -0.22623511       0.32447609      -0.00975177      -0.27743179
H       14.97377515       9.17284939       2.18964094       0.02755209      -0.16686953      -0.27836404       1.60180950       0.00799879       0.82412028       0.02021907      -0.04804911
H       12.28161307       9.83287271       1.82905951       0.07882755      -0.11008511       0.06282994       0.04646660      -0.08279623       0.09928901       0.01204201      -0.06520900
O       11.35041419       4.36596323       0.79159285       0.05503212      -0.84437933       0.36123225      -0.11631894      -1.03675580      -0.17606190      -0.02784327      -0.12344837
C       11.12634660       3.16079968       1.48384631       0.73778320      -0.75968435       0.21521310      -0.15168978       0.82601392       1.85399294       0.01193841      -0.18730937
C        9.91432480       3.34317886       2.48100245       0.64182145      -1.00844119      -0.24847018       0.49556804       1.29476535      -0.74400139       0.02383650      -0.12088300
F        8.86261480       3.98379032       1.89808594       0.24022482      -1.34494722       0.57964376       0.82999295      -0.87458777       0.12008972      -0.01157743      -0.26196834
F       10.25171096       4.12742826       3.53009357      -0.06205043      -1.89049071       0.13692449      -0.06844376      -0.72152317      -0.11415975      -0.01251861      -0.27333754
F        9.52172383       2.13937923       2.88512458      -0.22181604       0.04755685      -0.18400217      -0.34073180       0.02772425       0.41571331      -0.00821370      -0.25774723
C       12.43208655       2.70896256       2.25807390      -0.40979163      -0.62483542      -0.25191413      -1.87396407       1.45414925      -0.24897340       0.02471790      -0.08319907
F       12.94633670       3.77629008       2.94536035      -0.96445121       0.54906806       0.27808898       0.00875786      -0.65957999      -0.45821369      -0.01092343      -0.28625232
F       13.30422263       2.30277847       1.36696559       0.36103598       0.12667764       0.67936381       0.83661771      -0.25631103      -0.18264249      -0.00755553      -0.26097989
F       12.17174297       1.74850519       3.12647449      -0.50070370      -0.17532164       1.11035534       0.24522637      -0.23844531       0.21676546      -0.00839419      -0.25069207
H       12.05716190       4.85328316       1.23161907       0.10815271      -0.06226609      -0.03461889      -0.02726107       0.11175925       0.07603878       0.02259888      -0.05283468
H       10.82297412       2.30699954       0.88750323       0.19656401      -0.09403617       0.07668093       0.14938924       0.15158457      -0.74885607       0.01214032      -0.04829489
O        9.27962497       7.47188838      12.41556190       0.41154704       0.50237301       0.77785193       0.72307152       0.82993466       0.14957386      -0.02861916      -0.10870543
C        9.08982429       8.68066085      13.08851397       0.43588918      -0.17636885       0.79897397      -0.17318837       0.63734037      -0.30635583       0.01158003      -0.21576974
C        9.74132096       8.81812793      14.50250205       0.14086090      -0.31816499      -0.19392634      -1.21527016       1.80954981      -0.33729300       0.02410002      -0.08349738
F       10.87558022       8.17327105      14.52278945      -0.67994986      -1.47436170       1.03271113       0.68592376      -1.32473397       0.53211868      -0.01007452      -0.26278526
F        8.91594785       8.51097840      15.52477987      -0.49627441      -0.26836267       0.18429361       0.55324346      -0.89504957      -0.42890921      -0.00956002      -0.26687089
F       10.06743376      10.11111839      14.74816212      -0.30633203      -0.45375119       0.28783500      -0.23224780       0.13332902      -0.35866663      -0.01613971      -0.23251982
C        7.58592363       9.00235344      13.05135763       0.60226592      -0.20824641       0.69112226       0.38315946       0.63863021       0.95372903       0.02422236      -0.16142721
F        6.87143905       8.08172542      13.68922295       0.23955304      -0.66685796       0.07884315      -0.24201277      -0.43890852       0.35097468      -0.01016916      -0.28088903
F        7.19072654       9.00971494      11.79873980       0.78229513       0.19140329       0.74857422      -0.34275091       0.30860943      -0.83914417      -0.01149732      -0.25575584
F        7.29208877      10.20745943      13.61207417       1.12445399      -1.08326977       0.93296866       0.30047128      -0.50588310      -0.33646607      -0.01394327      -0.28836325
H        8.95213712       6.76951563      12.95633265       0.09432211      -0.05423752       0.21483609      -0.43530899      -1.07064128       0.49093854       0.02336054      -0.04549165
H        9.57571234       9.44807443      12.46915152      -0.08942267       0.06948562       0.14623122      -0.06383672      -0.13401034       0.27548492       0.01015369      -0.04196661
O        3.88900715       1.35991744      12.39884030       0.96775012      -0.43820065      -0.35988739       0.19868675      -1.37005973      -0.36465389      -0.02593440      -0.11263342
C        2.71631972       1.75247761      11.75319108      -0.06958951       0.43143233       0.31905169      -0.67403781       0.33162236       0.58265907       0.01111587      -0.20167623
C        2.99416055       1.77820386      10.25680238      -0.38371981       0.40641874       0.47675350      -0.60834515      -0.79569489      -0.13297579       0.02417661      -0.11057191
F        3.51400437       0.54200532      10.03616693       1.09737287       0.34103167      -0.43084626      -0.11339092      -0.04477803      -0.63708699      -0.01320392      -0.22189547
F        3.85488604       2.64763149       9.80651986      -0.13927214       0.05483415      -0.17272281       0.93805766       0.77115095       0.14540261      -0.00764538      -0.23139015
F        1.89314845       1.94076486       9.51286900       0.04028716       0.92768459       0.25715990      -0.32738540      -0.35844040       0.12855706      -0.01307486      -0.27404696
C        2.34199825       3.08445399      12.42165747       0.51985404      -0.63103793      -0.08585739      -0.51578891      -0.07904114      -0.44555357       0.02335079      -0.12519792
F        2.88870022       4.13897865      11.87225701      -0.51470516      -0.33489237       0.26103099       0.82919210       1.15388584      -1.47502327      -0.01020994      -0.23446387
F        2.77427819       3.09060497      13.64644446       0.40822965      -1.48394897      -1.10532046      -0.04200298      -0.35818118       1.92159128      -0.00941692      -0.19803423
F        1.01914674       3.31371865      12.41607658       0.47635546       0.05248122      -0.53037820       0.09713404      -0.36017737       0.07690445      -0.01301087      -0.22118539
H        4.08312111       0.43713737      12.10553128      -0.14338314       0.01199232       0.25790953      -0.00838436       0.96549815       0.39617664       0.02276597      -0.03480724
H        1.83682618       1.08317764      11.91065198       0.04506496      -0.06436497       0.11948462       0.65802246       0.18571338      -0.11778685       0.01176310      -0.04838464
O        2.44650475       7.01024779      11.96282187       0.24724593      -0.08655541       1.16327344       1.06300139       0.30640572      -0.86575776      -0.03011625      -0.13390407
C        2.07753566       7.77718131      13.03373190      -0.11304266       0.18201407       0.16053981      -2.89729500      -0.28825793       1.18090928       0.00704143      -0.12215094
C        2.75856984       9.13712518      13.22828097      -0.46112291      -0.62593217      -0.15758860      -1.17480183      -0.25802404      -0.56140316       0.02390370      -0.13792725
F        2.60283396       9.93342431      12.14895395      -0.62532710      -1.79968029       0.26051603       0.24850908      -0.47428602      -0.00529694      -0.01409700      -0.26132059
F        4.03933947       8.99445299      13.46225335       0.03550521      -0.13042468       0.77613885       0.79628706       0.33871701       0.24071981      -0.00778969      -0.24663325
F        2.11706550       9.79937803      14.22021508      -0.16683317      -0.15650898      -0.23870375       0.55847412      -0.21737626       0.20569135      -0.01178622      -0.25490183
C        2.12524317       6.79162169      14.23056991      -0.27439115      -0.36197352      -0.34481081      -0.13446097       1.20713460      -0.55287850       0.02517454      -0.09991330
F        3.31987143       6.18211097      14.24748803      -0.44463714       0.16573096       0.86846723      -0.44885218      -0.57448858       0.18453650      -0.00646041      -0.26064724
F        1.10269127       5.89851314      14.09145460      -0.01412905       0.31738440       0.53886936       1.34171796       0.59378219       0.49720538      -0.01365235      -0.27045774
F        2.00298184       7.43780249      15.39869573      -0.42888961      -0.56472293      -0.05908086      -0.37006015      -0.41854423       0.41662872      -0.00756306      -0.26273775
H        3.32744216       6.65455071      12.19164964       0.01341179      -0.00019618       0.01481774      -0.30402511      -0.07762486      -0.51851106       0.02302016      -0.02661195
H        0.97003158       8.04491712      12.96253732      -0.00538891       0.04751387       0.07427337       1.58366036      -0.41988447      -0.16799279       0.00717760      -0.00988706
O        4.33126245      15.76845401       7.27687598       0.92852217       1.51485900      -0.17926846       0.05648391      -0.15686159      -0.04090900      -0.02601989      -0.12234806
C        4.79560788      14.51865815       6.84987978       0.09609191       1.33209594      -0.03591737      -0.60375810       1.02950466      -0.44556117       0.01071519      -0.20509052
C        6.21829040      14.33490890       7.23992509      -0.93593415       0.76228373       0.48628748       0.86225730      -0.05302310      -0.63841581       0.02397871      -0.15843490
F        6.24641538      14.02829191       8.53213367      -0.74006162       0.81024632      -0.69985903       0.42375726       0.28576568       0.77772242      -0.01300250      -0.25630039
F        7.00006818      15.36812265       6.97248737      -1.35622829       0.82538891      -0.17858635       0.12770043       0.62758040       0.38138002      -0.00988721      -0.27614549
F        6.74777450      13.30164531       6.58260677      -1.04777338       1.34130891       0.86070087       0.02749074      -0.63681495      -0.24357975      -0.01301424      -0.24549070
C        4.48881981      14.30248636       5.35807439       0.09122081       0.78805140       0.14204195      -0.21387798      -0.71272534       0.25071886       0.02465534      -0.11131924
F        5.25553468      14.87864094       4.42778076       1.35642037       1.63156028      -0.28745930       0.05602761      -0.03837357       0.68780708      -0.00806992      -0.27251607
F        3.23128909      14.72248332       5.14938495       0.32687198       2.06766348       0.04286882      -0.19421977       0.08553155      -0.18470787      -0.01023706      -0.26265022
F        4.51124646      12.97434942       5.17041161      -0.03801096       1.72055645       1.25337665       0.02768204      -0.19666177      -0.45525956      -0.01390227      -0.23660332
H        3.38900591      15.81962939       7.05171244      -0.06958985       0.14158986       0.35497536       0.23889019       0.01398498       0.11282898       0.02356696      -0.03668996
H        4.36482178      13.69313867       7.39893855      -0.05397828      -0.05095514       0.19951244      -0.86503947      -0.30136973      -0.21278949       0.00922975      -0.00630635
O       12.16712192      13.74349995       9.02090926       0.23531677      -0.61249087      -1.00832779      -0.40649617      -1.46028733       0.27146593      -0.02840036      -0.05428397
C       11.36832106      12.72113090       8.45705582      -0.17293141       0.18673382      -0.70611328      -0.63963807       0.53995454       1.18023467       0.01259686      -0.18669920
C       12.00818491      12.12881074       7.22582204      -0.63221471       1.67661451      -0.51352640      -0.30057067       0.42709631      -1.13387764       0.02380821      -0.16166070
F       13.06243296      11.36153588       7.55044686      -0.54958667       1.77022044      -0.43613952      -0.18606059       0.42144138      -0.23189944      -0.01330649      -0.26889062
F       12.41535884      13.13715418       6.41287393      -0.27237370       1.00667260      -1.28258201       0.39034182      -0.30417052       0.21294607      -0.01231222      -0.29241946
F       11.16581578      11.38726395       6.49891876       0.32075254       1.61457684       0.31549871       0.07128200      -0.27238744       0.49953580      -0.01200024      -0.23818046
C        9.87498184      13.20029753       8.32359956      -0.39376855      -0.17890922       0.08516379      -0.00039493      -0.29923040      -0.74625182       0.02434025      -0.11745098
F        9.52076118      13.47201321       7.04966362      -0.49584877       0.47896947      -0.33307496       0.20119564      -0.08903965       0.37560469      -0.01124210      -0.25421435
F        9.64199704      14.27583385       9.04240025      -0.11941314      -0.13115506       0.28712084       0.24891967       0.72651112       0.09628770      -0.01072925      -0.22567651
F        9.03252964      12.26595565       8.80196186       0.18703316      -0.08719675       0.55276575       0.16111074      -0.40835407      -0.31890398      -0.01391255      -0.27083033
H       12.31657775      14.43106001       8.37984506      -0.18126990       0.13784274      -0.11874823       0.02223708       0.49390507      -0.55108869       0.02398998      -0.04860651
H       11.27469723      11.87902903       9.14805206      -0.20422956       0.23932206      -0.03457655       0.39299354       0.27567035       0.36018249       0.01118580      -0.02648652
O       14.78884173       8.81400308      11.35089730      -0.64067423      -0.80786426       0.87871915      -0.94846392      -0.34867138       0.04173362      -0.02518065      -0.06909068
C       13.42510637       8.97483835      11.68529643       0.08487141      -0.36570072       0.17854621       1.57731318      -1.45332944       1.26258612       0.01321820      -0.20634535
C       12.54860294       8.59890236      10.55051111       0.08491978      -0.11205506       0.07534398      -0.25432545      -0.38191825      -1.75935173       0.02395600      -0.15321243
F       12.61572934       7.27167937      10.28331350      -0.65699994       0.71122212      -0.62894514      -0.04703382       0.33870569       0.52978867      -0.01261696      -0.28006509
F       12.86870260       9.19867820       9.40640082      -0.03664372       0.62966654       0.56270970       0.54248345       0.43642002      -0.39967394      -0.01237324      -0.26977643
F       11.29888465       8.93687871      10.79167021       0.09178961       1.52876617       0.86794175      -1.12292182      -0.14316234       0.44700038      -0.00914172      -0.23769347
C       13.16470361      10.33188159      12.29797987       0.15414787      -0.57656226       0.04804865      -0.16973262       0.93868995       0.33740744       0.02487773      -0.13656448
F       13.13936943      11.28260633      11.35395717      -0.31605056      -0.92613664       0.07108606      -0.19068533       0.11592031      -0.46669102      -0.01130108      -0.27666569
F       14.13106071      10.68297331      13.13849119      -0.92496781      -0.78677806      -0.19816147       0.50905716      -0.33309704       0.24005714      -0.01067767      -0.25781712
F       12.02595374      10.40438211      12.98739196      -0.47618118      -1.27746372      -1.41139184      -0.28322810      -0.27696472      -0.22112039      -0.01057997      -0.25984609
H       15.13311124       9.63561820      11.02628656      -0.08541091       0.10859229      -0.06919335       0.51223856       0.82972491      -0.54245895       0.02108821      -0.06280345
H       13.25504348       8.17907459      12.42912792      -0.06629059      -0.06066711       0.00840121      -0.28588304       0.48867998       0.15709755       0.01310370      -0.02465338
O        1.74010435      12.92249983       7.41638046      -0.47266533       0.12887683      -0.63287361       1.05516946      -0.01627260      -0.06197795      -0.02548796      -0.11687191
C        2.07837989      12.18875884       8.55256588      -0.07360844       0.89326560      -0.12925034      -0.02385056      -0.26935440       0.14525785       0.01151680      -0.22225985
C        2.16334176      10.67115106       8.29855400       0.04355829       0.63904760       0.55333969      -1.28202140       1.43879294      -0.42203921       0.02432939      -0.11796807
F        2.95248958      10.54336647       7.25615989      -0.60466764       1.46943911       0.02418723       0.73771930      -0.83573562      -0.64962709      -0.00958989      -0.24779296
F        0.94128493      10.20369458       7.97359275      -0.56951733       0.54818128       1.28980765      -0.08662082      -0.25643489      -0.06176005      -0.01197035      -0.29355416
F        2.60328484       9.97745833       9.32371662      -0.21249729       0.16480695      -0.67415738       0.48089600      -0.33560318       0.32090354      -0.00843734      -0.25881541
C        1.13671041      12.57678208       9.66589289       0.13394106      -0.73145801      -0.11882124       0.64774376       0.66081107       0.35786167       0.02348315      -0.11348112
F       -0.07541257      12.73737531       9.18533852       0.51464342      -1.27345815       0.17599798      -1.22706795      -0.91748571       0.22392724      -0.00945996      -0.21339357
F        1.45408150      13.79414794      10.12848322       0.26765130      -1.01359669      -0.09658454       0.44406804       0.01383295       0.55352712      -0.01316834      -0.23681217
F        1.19813161      11.70566915      10.70187448       0.48269181      -0.84340500      -0.69656509      -0.61696053       0.40762925      -0.38493651      -0.00960124      -0.27766246
H        0.83324763      12.76609710       7.16420450      -0.06881956       0.09685035      -0.07078152      -0.59266686      -0.21883591      -0.08285611       0.02382399      -0.04898135
H        3.07492181      12.46901279       8.85478080       0.05284123      -0.01449421      -0.08304633       0.41701376       0.27169713       0.12504387       0.01284365      -0.03585942
O        9.68851728      12.38062266       4.43553026       0.80547931       0.91713004      -0.28501528      -0.05464183       0.26801276      -0.25498846      -0.02886531      -0.08360584
C        9.42693684      13.37303444       3.47920768       0.25433203      -0.05088349      -0.22746227      -0.09887677      -1.48776984      -0.33862203       0.01283248      -0.29019725
C        8.14964246      13.04052774       2.68039432       0.45041927       0.21753178       0.63111112      -0.03705011      -0.24206585      -0.26522514       0.02487410      -0.15509105
F        7.14828878      12.72802233       3.48778181       1.37674236       0.23152933       1.15390479       0.01473516      -0.12990655       0.30232993      -0.01147430      -0.25101081
F        8.30922825      12.01094358       1.81036550      -0.21047444       0.23385844       0.55107192       0.05925143       0.70592022       0.57663566      -0.01285783      -0.26742816
F        7.76049031      14.13111658       1.99133264      -0.53814304       0.58313397       0.38481974       0.01341037       0.07599184      -0.33633876      -0.00968829      -0.26612529
C       10.62807521      13.55983099       2.56715207       0.11319397      -0.39540218      -0.54259432      -0.05181519      -1.28188062      -0.71789581       0.02271665      -0.15440482
F       10.98360736      12.36097553       2.02780841      -0.44221135       0.50682138      -0.17354129      -0.28014359       0.06433904      -0.16037028      -0.01317451      -0.27113241
F       11.67780608      13.96777993       3.21892769      -0.05666801      -0.20414712      -0.81202027       0.87447339       0.70635641       0.89961880      -0.01034699      -0.22888932
F       10.40192077      14.39861183       1.55692602       0.11188418      -0.10579165      -0.09314183      -0.17883222       0.32356483      -0.21357754      -0.01109421      -0.27771917
H        9.98193473      11.56280416       4.00791721      -0.04909463       0.07184817      -0.02016035      -0.03148733       0.16492067      -0.06437851       0.02336948      -0.04827005
H        9.27054263      14.29140458       3.99090045       0.00009933       0.20333115       0.01503465      -0.30830559       0.82534868       0.53944844       0.01386365      -0.04620507
O        6.85703991       3.51454750       9.60009402      -0.21033145      -0.64503523       0.92742585      -0.02611360      -0.15298800       0.83709860      -0.02758113      -0.10899950
C        6.49370729       3.82400821      10.92246071       0.12287315       0.32382421       0.14242305       0.27637988      -0.46064591      -0.53700489       0.01176641      -0.24338114
C        5.93912481       5.23071287      10.95081420       0.14908991      -0.70828875      -0.04796754       0.00895807      -0.05399412       0.74731535       0.02371804      -0.14240476
F        4.94940407       5.27061687      10.06441352      -0.11615527      -1.23377571       0.69479580      -0.38965368       0.55097938       0.02460350      -0.01076688      -0.26036239
F        6.77726781       6.24187040      10.69502619      -1.35902328      -1.16092870       1.11244627      -0.20106716      -0.49803126      -0.03561892      -0.01135764      -0.25572127
F        5.44755126       5.41380670      12.20305906      -0.01746622      -1.35526611      -0.61229036      -0.33717394       0.59693408      -0.20081714      -0.01163702      -0.27901942
C        7.62381580       3.59599982      11.94291191      -0.31942715      -0.10966064      -0.62583949      -0.32060224       1.01216531      -0.25279719       0.02490380      -0.12197187
F        8.43859659       4.69845318      11.99773794      -1.53905626       0.69764234       0.93200556       0.11318365      -0.76278722      -0.16402179      -0.01273020      -0.27279896
F        8.34499941       2.52943913      11.63324499      -0.05338079      -0.06848169      -0.88270477       0.17683063       0.49127901       0.17821649      -0.01010717      -0.22865064
F        7.11158262       3.46375482      13.15967173       0.20275608      -1.30220618       0.46108247       0.04937682      -0.33776242       0.39431721      -0.01022335      -0.25579864
H        7.71688499       3.91828851       9.51527611      -0.08082869       0.13319393       0.26771981       0.70465124       0.14035314      -0.78582227       0.02371619      -0.02361632
H        5.66216907       3.18333707      11.22150368       0.11062577      -0.09212233       0.18089405       0.09602090      -0.06006397      -0.04604855       0.01039662      -0.05195910
O       11.43654796       3.08074587      10.96269283       1.55640470      -0.58160739      -0.20381502       1.51934934       0.46891272       0.81844145      -0.03065409      -0.12199578
C       12.26109228       2.92547787      12.13001281       0.75695440       0.54914346       0.82295896       0.17478430      -0.34942263      -1.02228868       0.01120473      -0.24567123
C       12.99463775       4.23505152      12.47956859       1.01004176      -0.84381632       0.15644174      -1.46600294       0.13127494      -0.60345775       0.02293786      -0.11989785
F       12.08638442       5.19556137      12.62415535       0.15717819      -2.02357853       0.82330370      -0.58287740       0.69465363       0.09727906      -0.01451634      -0.26076958
F       13.74809396       4.61140399      11.42119318       0.02676392      -0.43889514      -0.46194174       0.32534513      -0.07743751       0.47944686      -0.01150682      -0.26485384
F       13.68057007       4.20308366      13.60316272       0.84733716      -1.20676493      -0.77318784       0.67516333      -0.28428024       0.00978266      -0.00949210      -0.24660137
C       13.32020722       1.80167515      11.94671672       0.58952008       0.13531813      -0.32399495      -2.41526294      -0.81463480      -0.78973967       0.02291877      -0.10062136
F       14.25027628       2.03141304      11.00757765      -0.59510789      -0.63559004      -0.20451367      -0.21394208      -0.16550322       0.67973936      -0.01059498      -0.24931324
F       12.65420147       0.67904781      11.56422169       1.64670086      -0.12534525       0.56143605       0.26705387       0.31681129      -0.25216734      -0.01647007      -0.24642429
F       13.80277791       1.50988977      13.13788322       1.20189193      -1.20649374       0.28038128       1.36671805       0.09724048       0.49677616      -0.00926599      -0.24365804
H       11.94123743       3.66603258      10.36273669      -0.25838634      -0.03051947       0.05770042      -0.45966089      -0.37145868       0.08644953       0.02014216      -0.05709481
H       11.59872453       2.58348405      12.93901785       0.13879399      -0.04688874      -0.10908372       0.35591465       0.32664052      -0.13266554       0.01117806      -0.05863557
O        6.49792824       7.31325395       7.99749975      -0.05441199      -0.47841802      -0.06049942      -0.29084846      -0.35217762      -1.14817739      -0.02626142      -0.10768296
C        7.05587615       7.63602958       6.74566241      -0.45186155       0.34679710      -0.37643920      -0.29357532       0.36380672       0.35151869       0.01427942      -0.18886267
C        6.41221787       8.97132511       6.24850352       0.79396733      -0.03609907       0.36715766      -0.56987143      -1.46778679       0.92480391       0.02407570      -0.12071075
F        6.43523979       9.82894108       7.26633636       0.58736562      -0.07665463      -0.39699709       0.04946753       0.33309293       0.08820516      -0.01259170      -0.26239792
F        5.12524505       8.72366553       5.94785034       0.21685403      -0.72632085       0.76274184      -0.48229557       0.03381631      -0.01535762      -0.01171098      -0.28455961
F        6.95430702       9.53718469       5.20896139       0.33843890      -1.36622068       0.33461369       0.85825264       0.31908303      -0.88133645      -0.00879762      -0.25264025
C        7.09149837       6.44807679       5.77284272      -0.37184410      -0.22568194      -0.50796693      -0.03528103      -0.31371310       0.03244226       0.02533401      -0.11281486
F        5.91643694       5.82332579       5.54676038      -1.24131745       0.54042359      -0.11554521      -0.11637567       1.10152340      -0.36012813      -0.00811923      -0.25881207
F        7.85059014       5.47230392       6.24989941      -2.43547480       0.68341351      -0.16312683       0.82973945      -0.29248467       0.78423691      -0.01243836      -0.22932467
F        7.68563648       6.85135802       4.64533567      -0.96803882      -0.38561786       0.01969116      -0.63029951       0.06460462      -0.48147869      -0.01031028      -0.25104102
H        5.63564767       6.94576386       7.75888739      -0.06924256       0.06566426       0.06609637      -0.25342017      -0.10250793       0.63325655       0.02447705      -0.02721798
H        8.08694198       7.82767809       6.92660876       0.03178905      -0.03134324       0.02740586       0.98608255       0.35027295       0.08916895       0.01247520      -0.02524222
192
Lattice="14.939331213622557 0.0 0.0 0.0 14.939331213622557 0.0 0.0 0.0 14.939331213622557" Properties=species:S:1:pos:R:3:momenta:R:3:forces:R:3:charge:R:1:energies:R:1 Built=T with=T Packmol=T charge=0 spin=1 external_field="_JSON [0.0, 0.0, 0.0]" energy=-19.73647689819336 stress="-0.0005664351629093289 0.00024666308308951557 -0.001012762077152729 0.00024666308308951557 0.0026110191829502583 -0.0013908807886764407 -0.001012762077152729 -0.0013908807886764407 -0.0014081628760322928" dipole="0.1845797300338745 -1.1187689304351807 0.010958671569824219" free_energy=-19.73647689819336 pbc="T T T"
O       13.87220439       6.09891238       7.35319396      -0.11441041       0.22846299       0.55000327       0.20244512       0.21157262      -0.48895109      -0.02655181      -0.10490177
C       13.19628551       4.95501088       6.96710353      -0.03473099      -0.50138583      -0.82933812      -0.34215674      -0.48122436      -0.24266994       0.01246070      -0.22343320
C       11.70459976       5.10754914       7.31947115       0.80018748      -0.50566686      -0.46489062      -0.63862234       0.17435913      -1.26106882       0.02358585      -0.14506344
F       11.25412516       6.16991061       6.59318068       0.84829305      -0.74748681       0.54444009       0.11084065      -0.38425273       0.81944597      -0.01407466      -0.25923228
F       11.48543551       5.33657701       8.62049472       0.21937757      -0.57825394      -1.06837986       0.16507845       0.15500954       0.10906240      -0.00828156      -0.29497856
F       10.92531776       4.06980852       6.96781058       0.47950299      -0.55990084      -0.23144008       0.43783629       0.13536294       0.07853703      -0.01065321      -0.25234690
C       13.87200818       3.68069778       7.57723587       0.18887418       0.88891948      -0.23048714      -0.65163982       1.07236624      -1.32528567       0.02413691      -0.10534735
F       14.39477442       4.03717126       8.73262738      -0.80708306       1.17930418      -0.61652059       0.05330075      -0.50325990       1.25027871      -0.00833264      -0.24002632
F       14.87999338       3.28365987       6.80076111      -0.76278196      -0.70053556      -0.98979071      -0.07439564      -0.38215324      -0.11692009      -0.00965065      -0.26137429
F       12.99247600       2.66880848       7.72412747       0.15806088       1.10307488      -1.02434297       0.63029933       0.15956683       0.24765630      -0.00949684      -0.27440712
H       13.88049742       6.18067944       8.30875237       0.08849124      -0.03372313       0.05223484      -0.00082678       0.00754000       0.36682463       0.02254837      -0.05127206
H       13.22837504       4.91245272       5.86092170       0.04148918      -0.12574764      -0.02576923       0.07429380      -0.19855706       0.56770045       0.01326028      -0.04369032
O        2.19642264       9.77760984       2.45534636       0.63727995       0.47245553       0.28477577      -0.71120375      -0.38054127      -0.11901540      -0.02486049      -0.15565127
C        3.18499292      10.71719610       2.65034411       0.56367143       0.57220660       0.31603589       0.94528723      -0.78912288       1.02940845       0.01286583      -0.23653620
C        2.93340546      12.04355455       2.02750693       0.18514077       0.07501480       0.73777662      -0.22051544       1.25555456      -0.80549592       0.02402924      -0.15185136
F        1.67117680      12.41566034       2.20660812       0.00055852       0.23116690      -1.08354518      -0.32344556      -0.07214624      -0.14653659      -0.01122412      -0.24583524
F        3.17287515      12.05332978       0.68194061       0.29920913      -0.62254604       0.80396889       0.06846689       0.27835461       1.05015206      -0.01161039      -0.26976848
F        3.68269157      12.96967064       2.66301268       0.52432220      -0.00180154      -0.29557653       0.12884448      -0.18590690      -0.84168255      -0.01002529      -0.22618929
C        4.55107753      10.12116251       2.23202915      -0.38144972       0.60262936      -0.76269578      -0.44294029       0.38634446      -1.68221796       0.02550548      -0.11735621
F        4.36296462       9.42018395       1.05921799      -0.48633796       0.23941307      -0.22539893       0.22100845       0.50650465       0.84926939      -0.01300077      -0.24618889
F        5.00804901       9.27352584       3.10750454      -0.04910513       1.53018186       0.26236553       0.37187725      -0.52682036       0.80509365      -0.00797082      -0.24330325
F        5.47965803      11.05661341       1.97819824      -0.67403587      -0.48890597      -0.12540959      -0.24395087      -0.30550504       0.25277022      -0.01075249      -0.25776869
H        2.22624695       9.45274998       1.55076168      -0.08060997       0.22282455      -0.14042050       0.23729905      -0.07001477      -0.42263830       0.02183125      -0.05119251
H        3.20043052      10.92642987       3.72402895      -0.00645326       0.01014775       0.11679351       0.21632826      -0.11322321      -0.00661062       0.01217827      -0.02888524
O        7.77253537      13.38372654      14.14451780      -0.52375630       0.11918932      -0.50151217      -0.36786768      -0.33813375       0.02098520      -0.02796131      -0.09036452
C        8.12142432      13.65958865      12.83284170      -0.32181501       0.35592933      -0.41975604       0.12194498       0.51562238       0.48723781       0.01284681      -0.23430032
C        9.58122258      14.19430573      12.78417954      -0.50111665      -0.34986509      -0.49622776       0.62801355      -0.38489372      -0.82792222       0.02376750      -0.10757343
F       10.31411845      13.66356098      13.77598189      -0.71724278       0.23935963      -0.30361767      -0.33547658       0.03128797      -0.19804946      -0.01340976      -0.26095027
F        9.77311535      15.52430294      12.84121666      -1.28399267       0.04680498      -0.00656570      -0.60320795      -0.13336390       0.32741123      -0.01238386      -0.26491243
F       10.12324148      13.79581411      11.62017084      -1.15867101       0.15831174       0.03080275       0.11926366      -0.07837963       0.07204401      -0.01412151      -0.23698105
C        7.07135947      14.57587684      12.16614895       0.07468188       0.43424845      -0.39746778       0.79617560      -0.71238834      -0.44374874       0.02385763      -0.14325289
F        6.62757133      15.49716218      12.97778921      -0.24815583      -0.18992508       0.49261773      -0.61105204       0.71535194       1.14995694      -0.00798653      -0.24975324
F        6.01920828      13.81434728      11.77311135       0.28734500       0.38162171      -0.05517750       0.13161930       0.32163849      -0.01081217      -0.01330054      -0.30001518
F        7.57097270      15.21882978      11.11807058       0.48648080       1.10353598       0.24741796      -0.03996908      -0.52037990      -0.77599001      -0.01125214      -0.22354484
H        7.90476205      14.15725692      14.70261983       0.14861731       0.02125934      -0.03153865      -0.09069310       0.10153008       0.14178088       0.02325727      -0.04734345
H        8.08915140      12.72630587      12.26645280       0.09282703      -0.12994885      -0.05561558       0.24472234       0.01660061       0.11986866       0.01272913      -0.04151463
O       14.31101891       9.19821058       1.63218144       0.77561990      -0.14889328      -0.61371426       1.31803286      -0.05394906       0.45426980      -0.03280899      -0.06484909
C       13.23379868       9.55147117       2.43804390       1.44980411      -0.08794504      -0.29172978      -0.00764039      -0.98318410       1.49114358       0.01172975      -0.24563277
C       13.66735535      10.74728964       3.33826057      -0.17909728       0.39776214      -1.19253615      -1.04645145       2.02326107      -1.66196799       0.02361015      -0.06866361
F       13.97471033      11.76693950       2.47320746      -0.10970532      -0.30299895      -1.07570486      -0.10559713      -0.56761920       0.11780747      -0.01618750      -0.23392817
F       14.75710797      10.50387135       4.00631025       0.75084966       0.49327628      -1.16762578       0.70298624      -0.54512143       1.01158166      -0.00763508      -0.25074658
F       12.74330371      11.32552987       4.15602763       1.01359255      -1.20943355       0.24513453       0.25806570      -1.35333884      -0.17756107      -0.01221436      -0.25798309
C       12.74276672       8.26992371       3.24181812       0.42770908       0.28579169      -0.96414074       2.10368896       1.78188300       0.09651047       0.02391769      -0.09894429
F       13.63600720       7.89230136       4.17724352      -0.37762621       1.27752185      -0.71581067       0.10476526       0.40488088       0.48263636      -0.01262557      -0.27625877
F       12.68289006       7.24731215       2.43694299      -0.78289964       1.43540070      -0.42732053      -0.90148681      -1.07505512      -1.25156629      -0.01105891      -0.24822594
F       11.59372090       8.50573035       3.83024532       1.22454320       1.03221511      -0.28630018      -0.99873435      -0.06191991       0.32133961      -0.00980715      -0.27933228
H       15.18238926       9.14750817       2.14711672       0.12623101      -0.11182415      -0.12078902      -1.83311689       0.26164076      -0.61181444       0.02195826      -0.06636726
H       12.36866138       9.84785567       1.84199313       0.02857628      -0.01835055      -0.07591506       0.24420322       0.18392348      -0.21692054       0.01138858      -0.05751302
O       11.41310460       4.35657423       0.80674087       0.15818994      -1.24098579       0.37069255       0.13726892      -0.82799816       0.02968387      -0.02778550      -0.11676224
C       11.21129208       3.15428148       1.51539911       0.48470317      -0.41886084       0.78731479      -0.89480609       0.34879622       0.08685544       0.01356459      -0.24375296
C        9.99426832       3.33359551       2.47878164       0.62104457      -0.34074268      -0.42731622      -0.58706903       1.05200016       0.08579960       0.02437380      -0.13026841
F        8.92154725       3.96493699       1.92303473       0.73011913      -1.70797007       0.54211602       1.11728287      -0.63026392      -0.27289486      -0.01188542      -0.25360969
F       10.30430121       4.09635774       3.55105678      -0.01743519      -2.16283043       0.03551366       0.26034978      -0.46500888      -0.24614120      -0.01272283      -0.26634264
F        9.56444707       2.15067862       2.89802814      -0.32459338      -0.08018986      -0.00832015      -0.04257056      -0.41437885       0.23350982      -0.00877845      -0.25475559
C       12.46755003       2.71294293       2.26258736      -0.88161878       0.09187481       0.01174898       0.15701827       1.12113214       1.19145000       0.02547207      -0.10731418
F       12.98908170       3.80465538       2.96418711      -1.02282278       0.06549959      -0.04874442      -0.30027080      -1.16093326      -0.78955460      -0.01277199      -0.26459554
F       13.38769001       2.31654372       1.39120426       0.60493201       0.01365186       0.67845553       0.01828593      -0.10406465       0.31952822      -0.00775559      -0.25805128
F       12.22480521       1.75305369       3.17090909      -0.34403486      -0.12526751       0.97271982       0.32152349       0.45998654      -0.68935215      -0.00889061      -0.24536604
H       12.14190476       4.84250318       1.21490774      -0.02681191      -0.08804637      -0.06331529      -0.08189218       0.09841953       0.04553855       0.02276237      -0.05053701
H       10.97973966       2.29980059       0.85038603       0.19302237       0.05918430      -0.17699576      -0.10898043       0.58789420       0.01677167       0.01275133      -0.04854073
O        9.34326789       7.52425340      12.51147096       0.50367169       0.20077943       1.29409590       0.24632281      -0.65487343       1.02159798      -0.02834139      -0.10014560
C        9.15091292       8.72481556      13.18684006       0.15828153       0.07295687       0.63956473      -0.74930906       0.37989923      -0.33272922       0.01219696      -0.23654836
C        9.78697211       8.86785907      14.57253725      -0.35919573       0.39129499       0.00099911      -0.58083373       0.78596646       1.04034090       0.02427129      -0.11810303
F       10.91870802       8.17146259      14.62881572      -0.47801350      -1.90940937       1.23127666      -0.09159857      -0.42401588       0.32469565      -0.01146046      -0.28133377
F        8.95426995       8.54376767      15.60744022      -0.15350140      -0.63296598      -0.14749745       0.74850225      -0.58843488      -0.84915197      -0.01062643      -0.26278734
F       10.11148818      10.15282445      14.83072800      -0.36925373      -0.45303268       0.08846347      -0.04934395      -0.07392035      -0.40129238      -0.01473765      -0.23925844
C        7.65157643       9.04538527      13.15543017       0.58176804      -0.07168624       0.95534747      -0.45290729      -0.15192693       0.02453208       0.02442792      -0.17230427
F        6.91299892       8.10519033      13.76514694       0.20991247      -0.76879604       0.20169669       0.16236582       0.00120607       0.15512097      -0.01094017      -0.28203118
F        7.24739979       9.06393686      11.87642409       0.70663394       0.32842123       0.52883510       0.09166934       0.26281613       0.05507385      -0.01364125      -0.26504812
F        7.36099130      10.23095079      13.70608812       1.21724796      -1.21343044       0.81830642       0.14466093      -0.05450789      -0.02130600      -0.01189012      -0.28270316
H        9.05066122       6.78305141      13.08743788       0.17333733       0.11332976      -0.06183886       0.17763552       0.47690576      -0.57963264       0.02416674      -0.04695228
H        9.59693839       9.52664605      12.61098586       0.00525497       0.06779439       0.11144206       0.31904989       0.02590478      -0.31751764       0.01061454      -0.03368017
O        3.93695756       1.35432492      12.45236952       0.75299315      -0.18802258      -0.38242405      -0.53024757       0.51068771      -0.16798078      -0.02558553      -0.06082129
C        2.72656783       1.77735183      11.83210274       0.05301245       0.24528910       0.43874087       1.37825871      -0.76742691      -0.26473010       0.01366039      -0.23394910
C        2.99253818       1.79520566      10.32566883      -0.35552991      -0.02866226       0.18607612       0.68441522      -0.76525843      -0.88017517       0.02482277      -0.10428357
F        3.55817969       0.55522451      10.07496162       0.82034326       0.51987780      -0.61785999      -0.88698000       0.69064331      -0.22415201      -0.01533892      -0.22797661
F        3.87617586       2.66707736       9.85574895       0.15315375       0.32867775       0.03042803       0.20423239       0.29358250       0.65981150      -0.00916930      -0.23065314
F        1.90226816       1.97215439       9.57088560      -0.09690798       0.69181524       0.37154873      -0.22237423      -0.54017663       0.33021179      -0.01191268      -0.26670060
C        2.36787468       3.07882374      12.47951510       0.10804931      -0.32228775      -0.24806480      -0.92413360       1.25683784      -0.05509610       0.02384722      -0.12684175
F        2.89622172       4.15865072      11.93243769      -0.07896067       0.12163647      -0.41285456       0.84277368       0.58463258      -1.16618991      -0.01070132      -0.23504984
F        2.79926639       3.06680738      13.70286221       0.38879023      -1.58999282      -0.09303710      -0.09325808      -0.13319814       1.86654782      -0.00847516      -0.19000638
F        1.03791993       3.32949768      12.46842706       0.57685303      -0.20404254      -0.47077832       0.31814075      -0.63961267       0.12359062      -0.01364999      -0.21621504
H        4.05771503       0.41525488      12.29331217      -0.04016065      -0.25293402       0.20197477       0.05125692      -0.19374225      -0.12192982       0.02237924      -0.04740383
H        1.92502257       1.07938946      12.01411006       0.17401535      -0.01942825       0.05702098      -0.45595858      -0.27203041      -0.02736660       0.01266783      -0.04953389
O        2.47197807       7.04746251      12.05287425       0.45731085       0.13450292       0.55057780      -0.10388717       0.57244188      -1.38946223      -0.03009416      -0.09486899
C        2.06416257       7.81840489      13.12091379      -0.67847928      -0.29011905       0.71492145       1.30351651      -1.62872171       0.82415795       0.00921589      -0.16146871
C        2.74825106       9.15942935      13.28997746      -0.60745344      -0.58561966      -0.12846799       0.49971265       0.30143061       0.64302403       0.02429773      -0.15317215
F        2.60199305       9.93697805      12.21868597      -0.50284698      -1.94589471       0.15180569       0.18778725      -0.27939329      -0.40129793      -0.01237760      -0.25296980
F        4.06356528       9.04033598      13.55359499       0.07125562       0.00268361       0.76340718      -0.63744134       0.17511094      -0.23225035      -0.01044361      -0.25219533
F        2.12728466       9.84511679      14.28979945       0.08431728      -0.30823953      -0.18463377       0.43685910      -0.37515527       0.02274180      -0.01210864      -0.25519958
C        2.12525828       6.82622748      14.29065923      -0.23743214       0.30237810      -0.25594839       0.24611452       1.19185293       0.91046941       0.02507173      -0.10945448
F        3.32281967       6.21541575      14.34515665      -0.69123448      -0.08877733       0.84670040      -0.61465460      -0.36929646      -0.21396033      -0.00734788      -0.26571682
F        1.11584103       5.94068345      14.18183236       0.54390585       0.51027511       0.67831532       0.91444552       0.23219860       0.11612728      -0.01279724      -0.27366787
F        2.00014783       7.46003530      15.48020784      -0.60253542      -0.72501124       0.06979719      -0.35952124      -0.22018671       0.14545324      -0.00966547      -0.26640880
H        3.34278521       6.67707998      12.22290136       0.04020150      -0.05584277      -0.09631977       0.27296621      -0.07421817       0.06912258       0.02256073      -0.04772774
H        1.06498436       8.07571042      13.03182375       0.03266654      -0.02821524      -0.10314280      -1.97568035       0.25991753      -0.52832967       0.00830396      -0.00902633
O        4.38192788      15.89760347       7.30967483       0.92006231       1.51998549      -0.16237319       0.43024653       0.29180422       0.12548029      -0.02489799      -0.10476303
C        4.81203444      14.65083750       6.88530982      -0.60306297       1.26314534       0.05605891      -1.49808586      -0.43677384       0.14378649       0.01081577      -0.20080055
C        6.22364134      14.44056482       7.28902777      -0.39040306       0.70043631       0.01680560       0.99891382      -0.16704938      -1.04701352       0.02389187      -0.15971307
F        6.26285094      14.12485075       8.56571207      -0.53660475       0.94632238      -0.13311544       0.34363669       0.34450382       1.29872680      -0.01260065      -0.25132880
F        7.00306647      15.47428113       7.00728871      -1.25057043       1.12117512       0.03724057       0.20484853       0.61040533       0.45855567      -0.01027233      -0.27462310
F        6.75637136      13.40208480       6.63749803      -1.03359887       1.00874832       0.68836585      -0.00624409      -0.61018240      -0.40152988      -0.01346560      -0.24477646
C        4.51469637      14.40613222       5.39311181       0.03474201       0.69009326       0.15574663      -0.01314408       0.42091811      -0.17089072       0.02461557      -0.11113025
F        5.31653074      14.99710357       4.44980883       1.15073355       1.41153879       0.24551152      -0.73252213      -0.69345742       1.39026260      -0.01010385      -0.26736146
F        3.25674991      14.85304868       5.17633998       0.37069434       2.00311582      -0.05892038       0.35239735      -0.20030202      -0.23918802      -0.01114832      -0.26501137
F        4.53415407      13.08557645       5.22638274      -0.02933100       1.58969345       0.94794580       0.00072134      -0.22190982      -0.67494941      -0.01234068      -0.23201540
H        3.42298905      15.95975661       7.26783327       0.10193612       0.07655939       0.35739506      -0.08646221      -0.16682217      -0.09574679       0.02308511      -0.04314665
H        4.31499792      13.80224492       7.44017830      -0.17054941       0.29548959      -0.24368336      -0.02794489       0.78399909      -0.83964020       0.00860377      -0.01246787
O       12.23653002      13.79429384       9.03390775       0.12486642      -0.62838158      -1.31250855      -0.24000891       0.29458463      -0.55136013      -0.02888745      -0.07578801
C       11.41301388      12.80563705       8.48351995      -0.58615379       0.68092964      -0.17141499      -0.88147485       0.68390518       1.24988568       0.01230511      -0.19068538
C       12.04645427      12.25955249       7.23352123      -0.51049519       1.46666016      -0.88766967       0.60058236      -1.00771356      -0.20213418       0.02382201      -0.15718314
F       13.11524106      11.47051777       7.57735659      -0.70154031       2.05831304      -0.56141819      -0.41783309       0.83564097      -0.30922788      -0.01640710      -0.26649982
F       12.47573775      13.23091414       6.41531018      -0.12988377       0.92101746      -1.13261308       0.18345258       0.04385270       0.25165826      -0.01051979      -0.29552382
F       11.23204178      11.48661394       6.54315049       0.20360751       1.41084272       0.40290589      -0.53175223      -0.46392018      -0.15462802      -0.01087478      -0.22995862
C        9.91154044      13.26272654       8.36245277      -0.34913286      -0.09503783      -0.31724281       0.12575348       0.54212296      -0.63361788       0.02485870      -0.11017045
F        9.55921109      13.55420882       7.08189958      -0.41392542       0.37438784      -0.00514847       0.09937842      -0.28755733       0.85005987      -0.01102760      -0.25404757
F        9.69120901      14.35118849       9.09729422      -0.00458041       0.10144087       0.24382786       0.19916831       0.20388322      -0.27846336      -0.01157654      -0.23422715
F        9.08590440      12.32603224       8.86003867       0.26341170      -0.24263980       0.33340983       0.18018642      -0.19735846      -0.56238693      -0.01274417      -0.26736033
H       12.28272085      14.53489636       8.39915321      -0.21885140      -0.10080152       0.10855577       0.04610360      -0.26502582       0.42474452       0.02441857      -0.04047736
H       11.29638661      12.02924745       9.23740838       0.06671299       0.06815189       0.16609525       0.60152340      -0.33287290      -0.09487532       0.01109309      -0.02035136
O       14.84585575       8.84246333      11.43380342      -0.58627865      -0.24473173       0.57092674       0.49526778       0.83762276      -0.52017868      -0.02506087      -0.09997927
C       13.51065141       8.99354062      11.76517913       0.50279342      -0.93833244       0.63518798      -0.04588205      -0.47042710       0.35132730       0.01201609      -0.24811991
C       12.61433482       8.63927114      10.59425943      -0.11474347      -0.04142051      -0.53876597      -0.43252507       0.63211352      -0.45487499       0.02398874      -0.15788566
F       12.66469655       7.32973449      10.32444650      -0.70328541       0.78428150      -0.39267564      -0.20802057      -0.01676246       0.32698894      -0.01122134      -0.28111607
F       12.93881788       9.26568236       9.46810599       0.21075371       0.79022735       0.38400989       0.44998091       0.27616918      -0.31953663      -0.01170299      -0.27499104
F       11.35544519       9.02136178      10.87288837      -0.24174247       1.32537821       0.98010994      -0.22279581      -0.56556165       0.02838913      -0.01107896      -0.24953389
C       13.23641850      10.37097769      12.36571831      -0.07254537      -0.22338976       0.03311862      -0.60129952       0.32858321      -0.42616081       0.02439401      -0.13778958
F       13.19965058      11.31880908      11.41277088      -0.35502810      -0.86854137      -0.13527256      -0.00566947       0.06375999      -0.34998780      -0.01206144      -0.28323925
F       14.18562753      10.71744739      13.20497837      -0.58702348      -0.86832496       0.02139157       0.73316944      -0.04043426       0.60424024      -0.00965825      -0.26052547
F       12.07538075      10.42475538      13.01875220      -0.59027311      -1.36805092      -1.42042434      -0.21984263      -0.16380063       0.07993443      -0.01107188      -0.26040155
H       15.17438417       9.68293410      11.04714300      -0.12546305      -0.26523056      -0.02198926      -0.05328882      -0.68445188       0.07627149       0.02209883      -0.05642466
H       13.26746462       8.24593860      12.51730175      -0.14640688       0.10984736       0.10348343      -0.01837675      -0.02642799       0.33295023       0.01228282      -0.03712909
O        1.73882511      12.99380343       7.43537572      -0.30420316       0.06774165      -0.66469673       0.13094443      -0.17704618       0.08019325      -0.02511326      -0.10591418
C        2.08885481      12.28422028       8.59284477       0.12097830       0.60742976      -0.12201936       0.68896091      -0.62585455      -0.11680032       0.01210338      -0.22459915
C        2.16325933      10.76558601       8.35693436      -0.57275073       1.13558061       0.09975412      -0.94474369       0.35747746      -1.19272888       0.02435501      -0.12312950
F        2.95615472      10.63146603       7.29201734      -0.36300552       1.05870948      -0.15337323       0.14135472      -0.69627774      -0.04434799      -0.01082983      -0.25130305
F        0.93226260      10.27077979       8.04842548      -0.46922517       0.52168596       1.24792308       0.39916736       0.20506257      -0.03868869      -0.01243825      -0.28730023
F        2.61487421      10.03257591       9.35787848       0.04558303       0.07370172      -0.48766259       0.44902891       0.12572935       0.21379665      -0.00876077      -0.25352591
C        1.15404552      12.62276332       9.71529457       0.38526025      -0.20767735       0.03409674       0.24772267       1.24057603       0.21794590       0.02362088      -0.11979967
F       -0.07004988      12.76604514       9.23977008      -0.03803695      -1.67921075       0.30133831      -0.86281765      -0.80107290       0.32722303      -0.00991008      -0.22312704
F        1.47102387      13.84079870      10.18304733       0.43261819      -0.98709623       0.19863179       0.25053862       0.06610618       0.63984054      -0.01371528      -0.24115495
F        1.21321260      11.74786794      10.73810001       0.20886970      -0.66729208      -0.84800633      -0.44985908       0.28216255      -0.29529175      -0.00864081      -0.27636904
H        0.80460649      12.85942799       7.18583831       0.04095484       0.01895983       0.04541186       0.44573745      -0.14565140       0.33311442       0.02443309      -0.05411751
H        3.12435069      12.55817247       8.87028070      -0.00711655       0.09492404      -0.05884574      -0.53438812       0.12047853      -0.01515987       0.01297076      -0.03967866
O        9.76319965      12.47632785       4.44912485       0.73190318       1.04063117      -0.33617593      -0.06964181      -0.05891533      -0.10371518      -0.02775806      -0.09953663
C        9.48522404      13.43952881       3.49001976       0.16511373       0.08504759      -0.07909597      -0.11516349       1.06650114       0.30561674       0.01273508      -0.26667708
C        8.20783158      13.11665945       2.71477188       0.23948022       0.17509277       0.31021101      -0.69952953       0.08325610      -0.84337002       0.02512261      -0.15276088
F        7.22136098      12.80027982       3.53759975       1.35717774       0.17906997       1.26703376      -0.00152940      -0.06158584       0.22479376      -0.01096879      -0.25023526
F        8.34805073      12.08507080       1.83796857      -0.16651767       0.61267466       0.84468058       0.09681516       0.79089928       0.59773093      -0.01277363      -0.26614153
F        7.78853618      14.21921905       2.01083449      -0.41906544       0.41258402       0.35642247       0.39326593      -0.66923314       0.20496133      -0.01152088      -0.26870015
C       10.68743637      13.60657005       2.55452824       0.04403886      -0.67502170      -0.64577664      -0.16911156       0.28096318       0.31054947       0.02258676      -0.16583595
F       11.02895766      12.43780485       2.03211013      -0.49188788       0.32979626      -0.35540215       0.06153742      -0.77721035      -0.60472143      -0.01018558      -0.26915202
F       11.74278835      14.04000718       3.22022502       0.28703868       0.07089851      -0.42838434       0.41830444       0.33473608       0.52624178      -0.01208836      -0.24403684
F       10.45837305      14.47348606       1.56117499       0.01911764       0.01488891      -0.21281405      -0.17223403       0.10360768      -0.23489729      -0.01200104      -0.28215697
H       10.01538802      11.65333336       4.00730258      -0.02479840       0.03360896      -0.05715201       0.01714337      -0.00267949       0.08039886       0.02391356      -0.04030573
H        9.31025500      14.42994429       4.01063533       0.00485817      -0.11676557      -0.11460609       0.17219912      -1.10741615      -0.51917607       0.01347811      -0.04752614
O        6.89105231       3.51465531       9.68407768       0.21859311      -0.47916477       1.18124865       1.38811898       0.53294551       0.09682521      -0.02666287      -0.09561010
C        6.53333226       3.84752322      10.98284712       0.12696244      -0.22987966       0.04896880       0.07979918      -1.31290245       0.06311715       0.01183856      -0.23152784
C        5.97302273       5.22967549      11.01475005      -0.09911292      -0.67686348       0.35472179      -0.92096168       0.05259889       0.75707042       0.02390698      -0.13632709
F        4.97012239       5.26994194      10.13496367      -0.28849177      -0.96993388       0.64877193      -0.30869651       0.43814892      -0.12251096      -0.01170052      -0.26593083
F        6.77835584       6.24317216      10.77875057      -1.25164289      -1.22102460       0.97089812       0.50962162       0.14478683      -0.43173426      -0.01004952      -0.24855101
F        5.47333147       5.41105509      12.25144120      -0.22057378      -1.06712522      -0.56316301      -0.51770508       0.48294932       0.39684939      -0.01165523      -0.27183416
C        7.65022103       3.61960706      11.98424554      -0.28851492       0.29471502      -0.28599650       0.41560006       0.51505756       1.41886842       0.02509792      -0.11306447
F        8.44432683       4.73563280      12.08339842      -1.44210176       0.24800402       0.79136289       0.18333377      -0.95241195      -0.31824118      -0.01227146      -0.26071021
F        8.38791901       2.54567676      11.67298466      -0.05426083       0.35265831      -0.77491944      -0.16725698       1.20295644       0.21026216      -0.01084729      -0.22215939
F        7.15509111       3.44673744      13.24039407       0.28211066      -1.40244226       0.32131509       0.25102627      -0.14833888      -0.81129920      -0.01230673      -0.25306863
H        7.74815656       3.98644622       9.58677952      -0.08895874      -0.01136963      -0.17685631      -0.54352987      -0.56235540      -0.78519225       0.02465612      -0.01023137
H        5.75596267       3.16887424      11.34503746       0.12419882      -0.02058711       0.05795502      -0.22592275       0.11437885      -0.34250814       0.01036778      -0.03936334
O       11.54982342       3.07691633      11.02671564       1.82384056      -0.74070948       0.61434862       0.63729346       0.29017365       0.81040800      -0.03017155      -0.06513208
C       12.36198498       2.95647860      12.20827001       1.04808934       0.13110657      -0.23630483       0.46049964      -1.39331353      -2.29897070       0.01186195      -0.25316417
C       13.08758942       4.22796717      12.54441394       0.18968638      -0.51526215      -0.20453568      -1.46217155       1.02208793      -0.68542027       0.02302266      -0.11937143
F       12.15128258       5.17518497      12.71224377      -0.02776049      -1.66824681       0.83950692      -0.20490874       0.61024404       0.02438451      -0.01510760      -0.25891075
F       13.82300979       4.62376060      11.47314872       0.15673419      -0.48136450      -0.14809248       0.18806462      -0.07391516       0.73559511      -0.01190737      -0.26847285
F       13.77949885       4.19256790      13.65590023       1.24006393      -1.30533353      -0.67148546       0.81708151      -0.19709040       0.16051279      -0.00871670      -0.23997244
C       13.39186729       1.80708586      11.99452173      -0.42046541      -0.35122043      -0.26916560      -1.31395817      -1.02375805       0.91015399       0.02271458      -0.11307572
F       14.31002631       2.02551130      11.06365737      -0.54407216      -0.61864268       0.02782829       0.26599467       0.15594906       0.30769694      -0.01011653      -0.24595079
F       12.76361294       0.68128394      11.63765689       1.59877575      -0.00014252       0.39539376      -0.42183912       0.04743772      -0.39859769      -0.01482158      -0.23816994
F       13.91384480       1.48863694      13.21503127       1.70524477      -1.00352994       0.24033384       0.71148318       0.62465513      -0.63217515      -0.01304233      -0.25492907
H       11.90990874       3.71648785      10.38378675      -0.08805354       0.16708579      -0.15876936       0.08547337      -0.30722028       0.53785819       0.02033063      -0.07407741
H       11.71955626       2.59907692      12.99708783       0.05154777       0.04308587       0.12197781      -0.19446439       0.24266401       0.40180150       0.01177623      -0.05631804
O        6.52817078       7.33508093       8.02893402      -0.18487002      -0.58303107      -0.60841414      -0.04101628      -0.08114594      -0.86625397      -0.02660134      -0.09545104
C        7.07952422       7.69042061       6.77231545      -0.05355517       0.24945553      -0.00060448       1.33015418      -0.80423295       0.97499573       0.01457303      -0.18182135
C        6.46813935       9.00291876       6.30336634       0.20809318      -0.67008749       0.62242995      -1.54623950      -0.82205009      -0.03914997       0.02413221      -0.14176285
F        6.48470556       9.88105357       7.29531852       0.62005744       0.10192824      -0.31157853       0.10533813       0.30348569       0.17608577      -0.01168696      -0.26014385
F        5.15634510       8.75166572       5.99894952       0.15814370      -0.64148726       0.77601794       0.20715411       0.22953314       0.12695932      -0.01358722      -0.28168631
F        7.00499598       9.55437483       5.23951278       0.72811625      -1.20109243      -0.05729436       0.63714826       0.10925096      -0.47406009      -0.00926447      -0.25792938
C        7.10976997       6.47446024       5.78518050      -0.62761514      -0.03670350      -0.32652095      -0.86596012       0.94565690       0.59428883       0.02539191      -0.10053096
F        5.91518127       5.87478658       5.57043675      -1.24903495       1.06088952      -0.31762896       0.01217667       1.06967688      -0.44411007      -0.00897270      -0.25985810
F        7.83613792       5.51505310       6.28412850      -1.82692756       0.33760974       0.27794866       1.35399425      -0.94561785       0.94037521      -0.01106227      -0.21876542
F        7.69782084       6.87786489       4.66621910      -1.19531005      -0.35901764      -0.32328415      -0.40809691      -0.01043011      -0.81829882      -0.00958121      -0.25382400
H        5.62335294       7.01114308       7.89229497      -0.06563115       0.06883953       0.26357413       0.14622399       0.08182537       0.05235256       0.02422491      -0.05028197
H        8.16921902       7.87718865       6.96976319      -0.04495483       0.02851265      -0.02797744      -0.88310623      -0.05257277      -0.20290795       0.01229672      -0.03047245
192
Lattice="15.022524213163233 0.0 0.0 0.0 15.022524213163233 0.0 0.0 0.0 15.022524213163233" Properties=species:S:1:pos:R:3:momenta:R:3:forces:R:3:charge:R:1:energies:R:1 Built=T with=T Packmol=T charge=0 spin=1 external_field="_JSON [0.0, 0.0, 0.0]" energy=-20.10676383972168 stress="0.001417067600414157 -0.0006410512141883373 -0.002071051625534892 -0.0006410512141883373 0.0008462058031000197 -0.0021075024269521236 -0.002071051625534892 -0.0021075024269521236 0.0016775354743003845" dipole="-0.17519472539424896 -0.7780953049659729 -0.32404735684394836" free_energy=-20.10676383972168 pbc="T T T"
O       13.94615567       6.13976716       7.40752273      -0.14051473       0.16568282       0.31346283      -0.29790035      -0.45095277      -0.72421443      -0.02784685      -0.05808967
C       13.26840901       4.96181025       6.97642723       0.03779175      -0.40385213      -0.45399611       0.49535975       0.82514846       1.42383051       0.01436508      -0.24091065
C       11.79277354       5.11713763       7.33062150       0.26963872      -0.41734009      -0.90205481      -1.26043653       0.13371527      -0.35537213       0.02393202      -0.15196881
F       11.33930703       6.18289685       6.64811109       0.88086660      -0.87937500       0.81152333       0.01347984      -0.11560015       0.22771183      -0.01284492      -0.25307745
F       11.55687389       5.35198385       8.64154160       0.38635003      -0.54390930      -1.02669102       0.50885439      -0.05790724      -0.05513080      -0.01003101      -0.29216647
F       11.00166275       4.07919790       7.00086674       0.72275227      -0.46177427      -0.22892800       0.51397443       0.16923404      -0.12551172      -0.01063930      -0.24789211
C       13.95042026       3.74270634       7.59666496      -0.11047374       0.99588085      -0.83532663      -0.40206993      -0.60439986      -0.81309545       0.02452890      -0.13037306
F       14.45485607       4.08669817       8.77248166      -0.73959217       0.90222836      -0.11879788       0.09433253      -0.57265675       0.57081556      -0.00807580      -0.24393876
F       14.94255960       3.28284360       6.81357627      -0.81241932      -0.71824770      -0.90475319      -0.17912453       0.27847102       0.35275236      -0.00995607      -0.26104975
F       13.07286519       2.71359696       7.74268710       0.45554933       1.22597494      -0.85546647       0.55311626       0.39537901       0.33916727      -0.01096379      -0.25976089
H       13.99274794       6.18583138       8.37696816       0.04137512      -0.10642878      -0.03301935      -0.14771064      -0.22354676      -0.31641614       0.02248831      -0.05621854
H       13.33202454       4.87076641       5.90704861       0.08252370      -0.12649322      -0.02314518       0.07981412       0.17431895      -0.49312142       0.01428493      -0.05263940
O        2.22392290       9.84340858       2.47207981       0.39919778       0.29875001      -0.14265974      -0.18814394       0.01492779      -0.66964543      -0.02737276      -0.14026070
C        3.23084439      10.79144266       2.68923995       0.69542108       0.13699911       0.79801202      -0.37950006      -0.81389385       0.29251403       0.01298220      -0.25004295
C        2.95436378      12.12548918       2.05902674       0.03358889       0.58593951       0.24030154      -0.30824283       0.51665539      -0.93139887       0.02443049      -0.14930476
F        1.67939544      12.49024927       2.19084437      -0.05416149       0.19345238      -1.05392682       0.04302368      -0.02540206       0.18120717      -0.01120876      -0.25597328
F        3.19884284      12.10611459       0.71303939       0.34805620      -0.48484834       1.28466682       0.15344213       0.26391536       0.84647191      -0.01199117      -0.26807511
F        3.71715772      13.04124337       2.66545685       0.54196863      -0.01637800      -0.63625731      -0.00373821       0.19200933      -0.56207287      -0.00870875      -0.23356229
C        4.55847704      10.20153940       2.20281493      -0.44337634       0.46385739      -1.09574536       0.15887836      -0.84976482       0.36700347       0.02521245      -0.14233997
F        4.37604991       9.48218964       1.06471170      -0.38409472       0.49629715       0.17935215       0.15616803       0.49729592       0.68298852      -0.01072950      -0.25063431
F        5.03590889       9.36205001       3.13469965       0.00392017       1.34934288       0.42089799      -0.13689861      -0.14271225      -0.13620242      -0.01183819      -0.25510004
F        5.49247237      11.10532504       1.98645564      -0.64445389      -0.43809120      -0.13354952       0.31741336       0.47404140      -0.29763579      -0.00954913      -0.24962528
H        2.22401652       9.62639582       1.52084435       0.00870292       0.27793454       0.05350314       0.09323651      -0.01372940       0.28069103       0.02135012      -0.05413429
H        3.24848639      10.97295685       3.76616220       0.13996882      -0.06806734      -0.03233667       0.33209267      -0.10959013      -0.05009614       0.01235278      -0.04258746
O        7.79790057      13.46211279      14.20845694      -0.62032811       0.17507361      -0.47726936      -0.14883630       0.13799320      -0.19596386      -0.02831625      -0.10040396
C        8.15616722      13.74912570      12.89074390      -0.15141602       0.23865793      -0.23235786       0.55945897      -0.20979148       0.60543746       0.01289465      -0.22978409
C        9.61968529      14.25894912      12.83051995      -0.25976740      -0.26247731      -0.61521025       0.22829612       0.69144934       0.37098300       0.02394249      -0.11578851
F       10.35076481      13.74590318      13.84299375      -0.88984608       0.23744024      -0.46720969      -0.37416559      -0.03599847      -0.46634468      -0.01405948      -0.26337376
F        9.79087914      15.60990616      12.91423742      -1.53362539      -0.15277468       0.10564261      -0.47489518      -0.62256944       0.11945306      -0.01406859      -0.26927468
F       10.15126911      13.87594668      11.68517583      -0.99856421       0.08519923      -0.05159407       0.47829551      -0.21706441      -0.44601351      -0.01184295      -0.23269731
C        7.12011716      14.66826452      12.21569064       0.32783801       0.14970963      -0.42376521       0.15700197      -0.29499745       0.35116082       0.02431739      -0.14989172
F        6.65516796      15.58192806      13.06835408      -0.42420901       0.01363190       0.84157724      -0.06829780       0.03704079       0.23703825      -0.00960801      -0.26169819
F        6.06130932      13.90355761      11.83680817       0.39194728       0.58016209      -0.10211314       0.33696222       0.49574956      -0.17465498      -0.01343105      -0.29111603
F        7.62482963      15.32846746      11.18190605       0.39568304       0.80875994      -0.07522252      -0.28911734      -0.62468970      -0.49345243      -0.01021686      -0.22555493
H        8.00083101      14.22583664      14.76795898       0.05413350      -0.08494989      -0.04447576      -0.19498757      -0.11368917       0.07692048       0.02306815      -0.04798062
H        8.19047693      12.79387586      12.34645599       0.09814627       0.14128892       0.09995196      -0.21331280       0.30001956       0.07709804       0.01264532      -0.03666764
O       14.41836615       9.24485412       1.62219614       0.67433169      -0.11753621      -0.80756838      -1.84793949       0.22760120      -1.21385837      -0.03040705      -0.10527371
C       13.35982613       9.59379720       2.44966156       1.01586383      -0.36424382       0.07999589      -1.03913999      -0.06375720       0.14738703       0.01273097      -0.23706515
C       13.73275366      10.83887818       3.29882237      -0.17483683       0.99754363      -1.44764808       0.93413389       0.19417652       0.59487367       0.02402485      -0.10828990
F       14.04858614      11.82219525       2.45959669      -0.20817148      -0.43106258      -1.06670076      -0.26446578       0.13823105      -0.23464787      -0.01172261      -0.24388695
F       14.86059111      10.57248322       4.00291886       0.79960445       0.32604959      -0.89971122      -0.38862401      -0.08955203       0.02440728      -0.01259087      -0.26590320
F       12.84158839      11.34958568       4.18308668       1.07569470      -1.76550506       0.01045710       0.03748374      -0.93765938      -0.73855698      -0.01127840      -0.26573998
C       12.84933640       8.34609438       3.22598047       1.19109004       1.13201353      -0.60012553       0.71517968       1.19050670       1.15715957       0.02413433      -0.14482252
F       13.70371021       7.97089389       4.18484288      -0.22452168       1.36871565      -0.50785965       0.50985694       0.07843594       0.31180575      -0.01199385      -0.27194083
F       12.72823939       7.31722139       2.43112132      -1.13421234       0.87008540      -1.05332218      -0.50463247      -0.79011023      -1.07641625      -0.01089184      -0.25839117
F       11.68440339       8.57973391       3.84506103       0.85041572       1.04420423      -0.26992620      -0.31691486       0.19181129      -0.30813229      -0.01215828      -0.27906871
H       15.21651764       9.16858981       2.09380130       0.05023727      -0.04677172       0.06256595       1.76527584      -0.08193793       1.36742616       0.02088666      -0.06039670
H       12.51369550       9.89976634       1.81548194       0.28515463      -0.01472898      -0.05250692       0.24735403      -0.05286530       0.02547032       0.01134360      -0.04325209
O       11.48181765       4.33775854       0.82230295       0.21187601      -1.46629952       0.35359305       0.49616420       0.22749633       0.05220738      -0.02788863      -0.09936315
C       11.28306557       3.15848026       1.55079643      -0.03683624      -0.19726593       0.44827839      -1.00192881       0.71915227      -0.88255137       0.01393643      -0.26221031
C       10.06637545       3.34445058       2.47930375       0.13706081      -0.15325740      -0.15181886      -1.11534500      -0.34912428       0.90936130       0.02468579      -0.13155839
F        8.99661125       3.94044037       1.94482159       1.19069015      -1.82452074       0.26726897       0.66683239       0.10798281      -0.82595044      -0.00986964      -0.24432917
F       10.36355529       4.06178619       3.57048277       0.18432606      -2.21354347      -0.04154460       0.53300452       0.15165702       0.00578715      -0.01194649      -0.25963563
F        9.60995988       2.15785359       2.91475995      -0.24329852      -0.29455658       0.03050089       0.31675276      -0.48171842      -0.04574722      -0.01124489      -0.24783856
C       12.51014167       2.73883484       2.28958525      -0.28701525       0.33011797       0.70140001       1.82029128      -0.11293270       1.31723475       0.02571604      -0.11448207
F       13.03296747       3.82029149       2.97457129      -1.17103551      -0.47306729      -0.40462266      -0.28296781      -0.91740578      -0.56176728      -0.01122524      -0.25969258
F       13.47551770       2.32993298       1.41976756       0.33837047       0.05242612       0.97288977      -0.95223069       0.23236938       0.86678547      -0.01016453      -0.25600210
F       12.28597870       1.76372403       3.20796818      -0.19235786       0.22986136       0.49414063       0.28306144       0.87999487      -1.06073546      -0.00981768      -0.23794234
H       12.20697102       4.85443418       1.20785784      -0.00371634       0.01475147      -0.00039368      -0.26133034      -0.00420977      -0.00328666       0.02287653      -0.04893385
H       11.10680169       2.39294734       0.79992186       0.04273403       0.18222707      -0.03313126      -0.50462133      -0.40275586       0.23520188       0.01311276      -0.03723656
O        9.41553663       7.57560366      12.62179440       0.83695264       0.48816077       1.26858026       0.48962635      -0.03568011       0.24433103      -0.02818900      -0.08630107
C        9.20251188       8.78056080      13.28161942      -0.07323286       0.27218089       0.38516923      -0.15120514       0.27891344      -0.49008250       0.01241640      -0.25360832
C        9.82468925       8.93499800      14.66590618      -0.38107783       0.33162368       0.59636603       0.36110684      -0.92266524       1.06426287       0.02418236      -0.13228782
F       10.96444003       8.16772921      14.74340496      -0.75721170      -1.79728297       1.30404494      -0.96460116       0.69068730       0.07881738      -0.01512029      -0.28636333
F        9.00465148       8.57215344      15.68521920       0.17294787      -0.81844800      -0.53942651       0.50581086      -0.23995200      -0.63839328      -0.00954216      -0.26574323
F       10.15843441      10.19763041      14.91342335      -0.33409143      -0.42962192      -0.05820044       0.18092579       0.18933575      -0.14027373      -0.01244074      -0.24477154
C        7.71124985       9.08882293      13.26354917       0.22022695      -0.31374148       0.64979096      -0.82153773      -0.71635759      -1.11702943       0.02480131      -0.15995657
F        6.95871427       8.13148241      13.84762975       0.37123479      -0.65538087       0.23721303       0.45444566       0.36121440       0.02382142      -0.01081934      -0.28228313
F        7.30711728       9.12433581      11.95828241       0.80140924       0.42859444       0.74011882       0.26506364       0.15888274       0.73045605      -0.01549965      -0.26433581
F        7.43366115      10.25763573      13.80424467       1.20314265      -1.07683843       0.90101031      -0.14420870       0.50446546       0.39478403      -0.00992304      -0.27204409
H        9.15796970       6.81508295      13.16104596       0.03077916      -0.18810299       0.13123699      -0.09938839       0.12611476       0.04541383       0.02374521      -0.05503558
H        9.67478581       9.59120410      12.70504911       0.05613458      -0.06214737       0.00832343      -0.10140287      -0.40758550      -0.09818552       0.01052488      -0.03550110
O        3.97866061       1.35343754      12.50787117       0.52815126      -0.34661152      -0.51628531      -0.56034154       0.69704574      -0.21989462      -0.02482871      -0.03478540
C        2.75911385       1.78662058      11.91046596       0.73304342      -0.35392659       0.13393766       0.79968548      -1.58129764      -0.73248106       0.01411115      -0.23392895
C        3.00443426       1.79837812      10.38204600       0.16817847      -0.25035017      -0.21668176       1.23823810      -0.12211758      -0.60272467       0.02508667      -0.09820679
F        3.59259100       0.57640568      10.11396648       0.28512283       0.87322871      -0.70151087      -1.15009475       0.66664350      -0.22494638      -0.01482291      -0.23339267
F        3.90156645       2.69114420       9.91618290       0.09508292       0.34632153       0.40987593      -0.34394339      -0.13923739       0.81506413      -0.01065345      -0.23229612
F        1.90936311       1.99717024       9.63600535      -0.15350007       0.37973470       0.54599709       0.01436470      -0.68315291       0.40036622      -0.01163647      -0.26603526
C        2.37813778       3.09675416      12.54085721      -0.17623899       0.34381163      -0.10034293      -0.03662184       1.06775558       0.52154726       0.02444032      -0.14443526
F        2.91511621       4.18702699      11.98227995       0.26689476       0.22309392      -0.80943071       0.54406106      -0.11028206      -0.46208119      -0.01097972      -0.25150576
F        2.82349294       3.04314689      13.78635361       0.24456910      -1.51028890       0.54871772      -0.49078521       0.38859513       0.70684111      -0.00926397      -0.20999178
F        1.06055770       3.33872984      12.52662340       0.71619748      -0.50654568      -0.39260874       0.22681376      -0.55474377       0.17096394      -0.01253148      -0.21173055
H        4.04760623       0.39537427      12.45637326      -0.09805439       0.17532404       0.17974929      -0.03001981      -0.06026642      -0.13050823       0.02254483      -0.04669460
H        1.95717295       1.05108674      12.10563268      -0.02904934      -0.04994384       0.02895305       0.08992687       0.45111170      -0.17412385       0.01222816      -0.04982055
O        2.49993918       7.09434822      12.12739894       0.48449607       0.34471911      -0.02351990       0.00139901       0.42099035      -0.87336826      -0.03032736      -0.07062284
C        2.05581330       7.83749303      13.22463849      -0.53678304      -0.75656009       0.59056358      -0.95503223      -0.07405017      -1.33825719       0.00956341      -0.21817724
C        2.74638143       9.18972270      13.36749172      -0.20629540      -0.43932188       0.32897273       0.82380295       0.14255239       1.00296688       0.02478833      -0.15854952
F        2.60458995       9.94076070      12.28763929      -0.41848239      -2.02379231      -0.09057038       0.14543153      -0.18148080      -0.51201451      -0.01198687      -0.25026175
F        4.08204960       9.09145300      13.64654419      -0.44220327       0.04226007       0.56578625      -1.27614427      -0.00555268      -0.46732783      -0.01193472      -0.24603081
F        2.14372539       9.88975107      14.36470850       0.25715920      -0.46877371      -0.17291680       0.27986124      -0.26855800       0.05490884      -0.01176162      -0.25867555
C        2.13012224       6.88469880      14.37270616      -0.10577848       0.58545280       0.44222469       0.22396995      -0.11484560       1.69921243       0.02485296      -0.14248496
F        3.31964364       6.24621783      14.44484175      -0.97138583      -0.17552163       0.66409434      -0.49910083      -0.01111390      -0.42405039      -0.00823155      -0.26813889
F        1.14072438       5.98761533      14.27834571       0.85084779       0.52824452       0.65479338       0.36185801      -0.13438290      -0.12765965      -0.01331016      -0.26725814
F        1.99369367       7.48252161      15.56907837      -0.74633358      -0.70145586       0.14433709      -0.25968772       0.31142202       0.25736073      -0.00987363      -0.26393893
H        3.37767202       6.70051607      12.26193512      -0.02328346       0.02943921      -0.00726285      -0.20480494       0.23462702       0.27263856       0.02251885      -0.06098324
H        0.96552127       8.10917273      13.02033006      -0.10814644      -0.10001757      -0.15064869       1.57360590      -0.53868812       0.44042152       0.00760761      -0.01420996
O        4.43729182      16.03605040       7.34639574       1.00474409       1.76232813      -0.09439760      -0.42300871       0.73339808       0.15794671      -0.02442447      -0.10455036
C        4.80719425      14.78486946       6.92117817      -0.75394763       1.38889657      -0.29129807       0.43087813       0.32995778      -1.00705230       0.01028933      -0.23584174
C        6.24873210      14.54704809       7.32173310      -0.18457142       0.54814375      -0.32902003      -0.26456583      -0.43721426      -0.19690132       0.02381605      -0.16034892
F        6.28588947      14.23029636       8.61735428      -0.38387433       1.13360996       0.38205765       0.25947231       0.50240624       0.65408885      -0.01417146      -0.26744255
F        7.01132105      15.59272752       7.05002276      -1.11894720       1.34737833       0.24001360       0.23900735       0.34882349       0.35466820      -0.00969991      -0.27472219
F        6.76770355      13.49900216       6.68928942      -0.97975025       0.72231290       0.44459332       0.17371961      -0.47335172      -0.53957629      -0.01242892      -0.24906904
C        4.54174429      14.52192534       5.42671553       0.06961417       1.10136359      -0.00118633       0.11326116       1.08875191      -0.39770463       0.02425850      -0.10517040
F        5.37019242      15.11178218       4.49019654       0.68306087       0.97577462       0.96263575      -1.01253045      -0.91127229       1.45265555      -0.01066752      -0.26351029
F        3.28718647      14.98551401       5.20187776       0.58951284       1.82182394      -0.20704764       0.49382013      -0.37079287      -0.39186841      -0.01149780      -0.26181406
F        4.55857026      13.19805244       5.27544033      -0.03766371       1.48120353       0.58968116      -0.03008051      -0.03809886      -0.71056330      -0.01185383      -0.23158385
H        3.47412056      16.07004775       7.47004526       0.08687068       0.02215643       0.30216341       0.42206025      -0.02491610      -0.14073066       0.02266617      -0.03222375
H        4.21195376      14.01490445       7.34903372      -0.40701616       0.09692461      -0.15267264      -0.44007716      -0.80391544       0.68718988       0.00822323      -0.02217299
O       12.30663833      13.85111710       9.04537026       0.01705998      -0.59016351      -1.16421931      -0.11788839       1.34245539       0.00666151      -0.02900362      -0.07882607
C       11.44662107      12.90525200       8.53568571      -0.78072400       0.58931927       0.31096222       0.21357970      -0.59736049       0.04682767       0.01177099      -0.17887373
C       12.09914476      12.37599149       7.24078910      -0.20685672       0.88163648      -0.60778178       0.43017840      -1.05019987       1.15555108       0.02335831      -0.12691899
F       13.16778176      11.59274898       7.60315877      -0.86195369       2.43755060      -0.69969124      -0.20475294       0.76045346      -0.26367113      -0.01767006      -0.26706615
F       12.54265102      13.32912947       6.42327731      -0.08355418       0.98586526      -1.01593877      -0.01193449       0.20493129       0.18275800      -0.00999739      -0.30094188
F       11.29537639      11.58335681       6.58747391      -0.17628268       1.09752030       0.15258490      -0.93669140      -0.71376073      -0.79252493      -0.01032171      -0.22652797
C        9.95389007      13.33895715       8.39341304      -0.27586076       0.21122445      -0.34419908       0.15324295       0.55877513       0.55057901       0.02508903      -0.11117543
F        9.60225122      13.63729656       7.12669520      -0.37891104       0.20918851       0.41225325       0.02210656      -0.33329237       0.78663945      -0.00908818      -0.25375706
F        9.74604255      14.43413806       9.15168139       0.05830140       0.10708480       0.01829333       0.04317393      -0.10373491      -0.58807850      -0.01216183      -0.23965159
F        9.14457155      12.38794873       8.91376236       0.36502878      -0.24506803      -0.01724019       0.24774197       0.17510568      -0.83329022      -0.01281914      -0.26622924
H       12.26155138      14.63759163       8.47586979      -0.13924064       0.21471921       0.00399608       0.19486763      -0.05146471       0.31696087       0.02447923      -0.03478808
H       11.44510823      12.11897190       9.30529034       0.22713069       0.04166535      -0.14181487      -0.05994481      -0.15718772      -0.59281075       0.01045077      -0.02584571
O       14.91272295       8.88053398      11.51551546      -0.40855828      -0.57451062       0.63478523       0.94854248      -0.14689937      -0.25569353      -0.02253781      -0.08600559
C       13.59940676       9.00614278      11.85692341       0.01803774      -0.78039762       0.59492043      -1.67582107       0.88075101      -0.29811537       0.01213426      -0.22290108
C       12.67626452       8.69364204      10.63335038      -0.27136043       0.36092450      -0.28386823      -0.20439543       0.81362617       1.31395781       0.02408353      -0.12414138
F       12.71541269       7.39001914      10.37312065      -0.83996763       0.70660334      -0.31709255      -0.38671038      -0.14615887      -0.01747759      -0.01055865      -0.27929354
F       13.01877476       9.33907331       9.52880391       0.38282867       0.88056364       0.24070751       0.25488952       0.14369112      -0.19701722      -0.01040623      -0.28122410
F       11.41274474       9.10147106      10.95764604      -0.16000772       0.96115416       0.84248224       0.45767170      -0.79597920      -0.52104199      -0.01218416      -0.24784388
C       13.30197696      10.42003374      12.43001803      -0.29153112      -0.26733741      -0.27164759      -0.21357240      -0.46545941      -0.61926639       0.02348962      -0.13604482
F       13.26424986      11.35988434      11.47103408      -0.32307166      -0.82632139      -0.25745980       0.10662503       0.05228178      -0.16462761      -0.01201261      -0.28983942
F       14.25365647      10.75507710      13.28289684      -0.29473826      -0.81793921       0.30172351       0.31244490       0.14474893       0.42715442      -0.01013545      -0.27389902
F       12.12623706      10.44704017      13.05578849      -0.66563253      -1.37209683      -1.29695447      -0.11487544       0.07359771       0.30990225      -0.01119424      -0.25643292
H       15.24037110       9.66436233      11.04279576       0.04912779       0.01816310      -0.26404980      -0.12015183      -0.22215441       0.02153360       0.02270857      -0.05783116
H       13.28648349       8.32533924      12.66413034      -0.03827478       0.02242709       0.15510317       0.43849528      -0.13261816      -0.29513174       0.01187870      -0.05104856
O        1.74420497      13.06713817       7.45941310       0.06735345      -0.00737891      -0.41551267       0.44563287      -0.24552462       0.62574100      -0.02494211      -0.12561487
C        2.10895819      12.37166130       8.63348195       0.17973102       0.34100817      -0.24904689      -0.52038729      -0.37455454      -0.31955719       0.01314233      -0.24088663
C        2.14706737      10.86911958       8.39621700      -0.68276761       0.84933994      -0.41615092       0.50745928      -1.31657934      -0.75855792       0.02473373      -0.11588621
F        2.96270221      10.71398652       7.32946453      -0.45432267       0.75793481      -0.06046606      -0.48763332      -0.49640945       0.31507611      -0.01172582      -0.24691194
F        0.92828585      10.34361058       8.12483842      -0.23479537       0.71441568       1.17549817       0.44519359       0.56158614      -0.21487494      -0.01097073      -0.27691013
F        2.63258916      10.09302125       9.39741040       0.16187500       0.34937428      -0.53743117       0.02791263       0.96147513      -0.43094420      -0.01137121      -0.24709131
C        1.17600718      12.69567271       9.77175068       0.31132979       0.27742258       0.04411499      -0.48136657       0.56053382      -0.21540208       0.02406759      -0.12908351
F       -0.07521542      12.78960231       9.30134123      -0.26486427      -1.95393348       0.48969701      -0.08627763      -0.38817018       0.45381424      -0.01114310      -0.24735099
F        1.49150810      13.89350306      10.24900893       0.49900956      -0.86573915       0.51822660       0.04552736       0.39936754       0.67843473      -0.01178443      -0.24752662
F        1.22299901      11.79795267      10.77437625       0.04565388      -0.51238650      -0.95921522      -0.20317888       0.32779628      -0.20543644      -0.00903962      -0.27196664
H        0.81122912      12.91691311       7.26452439      -0.09727497      -0.07415140       0.08241981      -0.12938850      -0.08455268       0.01008344       0.02396699      -0.05378382
H        3.10473786      12.68617092       8.89675114      -0.05243544       0.14008942      -0.01523183       0.42643070       0.05377043       0.18985152       0.01351837      -0.04533891
O        9.83971535      12.57516708       4.46299082       0.70358826       0.85285551      -0.35050161      -0.10427165      -0.26271594       0.13708046      -0.02745640      -0.10124741
C        9.54559061      13.52053146       3.50236313       0.24620460       0.00749863      -0.42608777       0.31089449      -0.89066732      -1.31831706       0.01225738      -0.26497728
C        8.25611280      13.19845277       2.73470521      -0.09876520       0.27006785      -0.03857776      -0.52811736       0.31292233      -0.40944415       0.02519048      -0.14831044
F        7.29629547      12.87598680       3.59096137       1.31365818       0.17131650       1.31579083      -0.10137683       0.04570741       0.05017234      -0.01098193      -0.25434327
F        8.39083468      12.17261727       1.87307224      -0.12297301       0.92051932       1.04047371       0.05173161       0.44374770       0.19334340      -0.01168432      -0.27152783
F        7.82389305      14.30400207       2.03307914      -0.19683530       0.00104370       0.51007930       0.43010640      -0.90461183       0.38019711      -0.01158662      -0.27285931
C       10.74728398      13.66335033       2.54849274      -0.01593406      -0.14076367      -0.29369434      -0.02028246       1.59797323       0.89555740       0.02271939      -0.15003996
F       11.07875213      12.50933677       2.02985308      -0.38660841      -0.18103445      -0.70262255       0.28242669      -1.08844864      -0.73452866      -0.00861845      -0.26935035
F       11.81671189      14.12099672       3.22923937       0.31541543       0.10326886      -0.30622701      -0.25224063      -0.17115067      -0.02943048      -0.01372864      -0.25605607
F       10.51620331      14.55432198       1.56325386      -0.04219787      -0.02708479      -0.28064871      -0.07225129      -0.26100302      -0.03333161      -0.01270422      -0.28200370
H       10.05714886      11.74502957       4.02370189      -0.02862959       0.05692931       0.03274961       0.05339567      -0.20309517       0.09801047       0.02394278      -0.03682113
H        9.37123471      14.44110484       3.97686826       0.00105961       0.08321957       0.01039132      -0.10964534       1.35360694       0.70835400       0.01358233      -0.04066538
O        6.94184293       3.52010495       9.77239296       0.45668133      -0.54905318       0.97331679       0.10713539      -0.62323451      -0.95130360      -0.02550080      -0.06546392
C        6.57749782       3.84961274      11.04734828       0.27041660      -0.62640708       0.13322908       0.25288135      -0.32165983       0.31139919       0.01195397      -0.26209742
C        5.99244809       5.23111496      11.09598545      -0.56226657      -0.69205688       0.55180904      -0.77355450      -0.15840022      -0.00032892       0.02376119      -0.14362153
F        4.98863714       5.27687803      10.20730288      -0.41149364      -0.76914864       0.58045098      -0.22634517       0.32237822      -0.09726050      -0.01252413      -0.27370191
F        6.78801915       6.24830368      10.86056444      -0.89510298      -1.04543798       0.69995297       0.76055908       0.39087793      -0.56516635      -0.01044329      -0.24708226
F        5.49428759       5.41658496      12.30926618      -0.53696700      -0.83960537      -0.17934030      -0.79454911       0.38542506       1.12125587      -0.01024134      -0.26596141
C        7.68635321       3.65386981      12.05534395      -0.02658783       0.31206464       0.50345962       0.42405918      -0.46065032       1.49412274       0.02446478      -0.12669589
F        8.45581209       4.76276754      12.16903102      -1.27960213      -0.16061054       0.63001301       0.43595240      -0.61698133      -0.24934264      -0.01093840      -0.26283762
F        8.43192959       2.57738116      11.71959548      -0.15246496       1.01797016      -0.63471923      -0.14900935       1.43375635       0.32834703      -0.01251984      -0.22068185
F        7.20382436       3.42943529      13.31623709       0.40167061      -1.39473593      -0.17355223       0.22969109       0.07780750      -1.00622773      -0.01278408      -0.25425816
H        7.73696453       3.97691101       9.48446213      -0.05357498      -0.04235677      -0.39899648       0.14315403       0.18745765       0.02374494       0.02459702      -0.04141680
H        5.80111593       3.17210535      11.39846948      -0.07480149      -0.05760397      -0.09319597      -0.25843039      -0.08862740      -0.29629308       0.01046543      -0.03805722
O       11.67361979       3.07599109      11.10820727       1.92745166      -0.53293388       0.69914161      -0.63468492      -0.80089509       0.76776612      -0.02811095      -0.04671457
C       12.47243426       2.96194843      12.25165525       0.88456271      -0.66050561      -0.77056359      -0.63441455      -1.30903411      -0.06708527       0.01199819      -0.27648872
C       13.15811939       4.24078613      12.60100433      -0.17478616      -0.04225117      -0.39153195       0.06633601       0.61657453      -0.09132863       0.02319368      -0.14640848
F       12.21731245       5.16483465      12.80458503      -0.08890822      -1.35850782       0.81599667      -0.08428442       0.56318843      -0.06454008      -0.01350346      -0.26549244
F       13.90479313       4.63723429      11.53795638       0.19751016      -0.43812419       0.21488727      -0.00973278       0.25958461       0.69633824      -0.01209599      -0.27227193
F       13.89198738       4.18142694      13.71445039       1.45585815      -1.34100015      -0.73495939       0.07801580      -0.01726231      -0.50223815      -0.01037963      -0.25039774
C       13.44421272       1.79427040      12.06243828      -0.45529706      -0.70981629       0.36331261       1.17025006      -0.38203835       1.40592623       0.02312176      -0.12059796
F       14.37736694       2.02221218      11.12781745      -0.41922478      -0.49723692       0.17290343       0.15626508       0.26925904       0.35022211      -0.01206075      -0.24746513
F       12.87111323       0.68351624      11.70978316       1.13410725      -0.20268457       0.15946364      -1.35629857      -0.93440002      -0.51828456      -0.01161321      -0.21666624
F       14.03792259       1.47578932      13.28907713       1.82334678      -0.60768594      -0.25662433      -0.08807589       0.87143087      -1.26570654      -0.01585638      -0.25457424
H       11.93335060       3.73847953      10.48138808      -0.03147552      -0.07001734       0.23931996       0.65612572       0.68177313      -0.30577642       0.02089202      -0.07028779
H       11.82806374       2.67851598      13.11247435       0.16899828       0.21994327      -0.02992050       0.27119172       0.19155172      -0.52614421       0.01186879      -0.04745563
O        6.56085317       7.35808284       8.05121807       0.00385084      -0.57139640      -0.75918706       0.61942565      -0.02270513       0.19817451      -0.02593417      -0.03242800
C        7.12245399       7.73174354       6.81775362      -0.01218880      -0.37922526       0.30469393      -1.19071162      -1.44003177       0.17003629       0.01517269      -0.22752897
C        6.49744790       9.02249127       6.35921567      -0.49378032      -0.70550817       0.30651484      -1.04558384       0.54569399      -1.02864277       0.02414162      -0.15779363
F        6.53729819       9.93977360       7.32867634       0.64278595       0.14338704      -0.27012217      -0.00217219      -0.17098272      -0.07286222      -0.01207897      -0.26269406
F        5.19119536       8.78552701       6.05331534       0.32900397      -0.50158499       0.84458819       0.36634558       0.29148787       0.16427678      -0.01220683      -0.28054804
F        7.06542537       9.57610579       5.26636991       0.86915680      -1.27615326      -0.04079425      -0.02688788      -0.47081095       0.48919666      -0.01196302      -0.26281345
C        7.11576453       6.51927017       5.81057697      -0.96434792       0.44644468      -0.00522505      -0.31441489       0.75928581       0.61319166       0.02549799      -0.10714997
F        5.91647253       5.94147049       5.59066019      -1.17920204       1.55557438      -0.50380693       0.17651808       1.02080727      -0.30868378      -0.00840063      -0.26131237
F        7.84091546       5.54876032       6.33163070      -1.21077620      -0.07114183       0.65090780       0.90216291      -0.54024863       0.51588094      -0.01197720      -0.23602690
F        7.70741840       6.90655583       4.67921541      -1.37603552      -0.39450801      -0.64241131      -0.46093798      -0.15412849      -0.38772798      -0.00990234      -0.25815362
H        5.63250891       7.09355187       8.03875406      -0.03643992       0.11084848       0.10322571       0.03531775       0.11236381      -0.58092016       0.02441967      -0.05698353
H        8.15265867       7.93239053       6.98882480      -0.02702071       0.03313282      -0.00932178       0.98748088       0.08031823       0.25702792       0.01276173      -0.03273771
192
Lattice="15.104869705124639 0.0 0.0 0.0 15.104869705124639 0.0 0.0 0.0 15.104869705124639" Properties=species:S:1:pos:R:3:momenta:R:3:forces:R:3:charge:R:1:energies:R:1 Built=T with=T Packmol=T charge=0 spin=1 external_field="_JSON [0.0, 0.0, 0.0]" energy=-19.82937240600586 stress="0.0017720360774546862 0.0001922727096825838 -0.0014692217810079455 0.0001922727096825838 0.0014319432666525245 -0.0013833720004186034 -0.0014692217810079455 -0.0013833720004186034 0.002850102260708809" dipole="-0.459888219833374 -0.35774075984954834 -0.3290945589542389" free_energy=-19.82937240600586 pbc="T T T"
O       14.01505394       6.17378267       7.44899838      -0.37142549      -0.17039801      -0.28749696      -0.54723543      -0.79760909      -1.00275898      -0.02875050      -0.07797749
C       13.34818944       4.98372863       7.00568886       0.29937091       0.19403338      -0.13895846       0.41585982       1.40773177      -0.23408049       0.01498794      -0.21106963
C       11.85769527       5.12891453       7.33503026      -0.17559949      -0.39536659      -0.73887059      -0.31396943      -0.08228043       0.90537083       0.02434313      -0.13982306
F       11.42335338       6.19481065       6.70504306       0.76747210      -0.75564358       0.69645070      -0.47878021       0.61496365      -0.65492421      -0.01078031      -0.23800528
F       11.63366762       5.36656328       8.66192841       0.65417422      -0.60801436      -1.05384895       0.55291671      -0.21900959      -0.04062655      -0.01194589      -0.28824338
F       11.08328527       4.09030314       7.03186246       0.89400246      -0.42868431      -0.36771510       0.17846650      -0.09341349      -0.45499444      -0.00932496      -0.24756068
C       14.02082710       3.79295086       7.60138390      -0.12676067       0.36551235      -0.84018455       0.28454673      -1.66072631       0.67447710       0.02488406      -0.12130332
F       14.51534543       4.12847338       8.81876589      -0.71675958       0.58512779      -0.10593069      -0.01732094      -0.67247868      -0.45134625      -0.00960950      -0.24673361
F       15.00243604       3.28536341       6.83033615      -0.87948009      -0.43564890      -0.67383490      -0.07614204       0.76616836       0.48146975      -0.00990222      -0.25073332
F       13.15906130       2.76258276       7.76519757       0.63164674       1.39744828      -0.68519362       0.13425179       0.28142834       0.31550950      -0.01094677      -0.24283522
H       14.07634093       6.14716960       8.41260029      -0.00255183      -0.17392095       0.02581949      -0.03451079      -0.01828997      -0.00487897       0.02227145      -0.04818264
H       13.44691986       4.87069358       5.90788253       0.06987916       0.03890710      -0.00729241      -0.12892713       0.42660129       0.51604950       0.01423790      -0.04710448
O        2.24807621       9.90860034       2.48125509       0.40477759       0.45843183      -0.10653917       0.12765588       0.37171361      -0.29305828      -0.02750533      -0.13461231
C        3.27004617      10.85000267       2.73248656       0.30594915      -0.10456608       0.49562194      -0.94947404      -0.09472089      -0.83611089       0.01267766      -0.23796643
C        2.96954564      12.21570010       2.07366692      -0.06011865       0.44882073       0.01236303      -0.03599779      -0.95515931       0.11969448       0.02454519      -0.12415082
F        1.68778180      12.56390400       2.17738277      -0.00109035       0.22197224      -0.89478069       0.14596310       0.15146568       0.39058301      -0.01070157      -0.26245451
F        3.22650524      12.16169156       0.75381104       0.44130068      -0.34765474       1.48687573       0.24862474       0.25888452      -0.02878322      -0.01049236      -0.26900709
F        3.75125092      13.11455866       2.66074533       0.50721955       0.19357768      -0.83264715      -0.12197850       0.62387085      -0.29661250      -0.00832302      -0.24089220
C        4.56855432      10.26647094       2.18044678      -0.25360999      -0.02069193      -0.44796558       0.53062832      -0.82276922       2.01619434       0.02456262      -0.11369664
F        4.39093214       9.54935533       1.07822012      -0.32552869       0.63833300       0.35684965       0.07494861       0.05325714       0.02503473      -0.00793133      -0.25099999
F        5.06214672       9.44732616       3.16044765      -0.12298822       1.26457256       0.19951964      -0.30438197      -0.22088990      -0.63221610      -0.01485467      -0.24796250
F        5.50877595      11.15905703       1.99110404      -0.40105518      -0.08295498      -0.37599931       0.55989319       0.84270537      -0.63831323      -0.00953858      -0.24333295
H        2.24266560       9.79054595       1.51595509       0.00186107       0.16467548      -0.12307445      -0.09266201      -0.19917583       0.14731210       0.02130679      -0.04891056
H        3.36679952      10.99508414       3.80450418       0.24565284      -0.07934191       0.11525681       0.01272460      -0.01109394       0.03693305       0.01214460      -0.05892166
O        7.82046347      13.54090835      14.26894482      -0.68104167       0.15400496      -0.64584385      -0.02407972       0.17366213      -0.11806332      -0.02835172      -0.09828665
C        8.20063708      13.83684551      12.96061081       0.13247139       0.40329919       0.19732395       0.47875875       0.12791383       0.58541203       0.01271431      -0.22850217
C        9.66212753      14.33533499      12.88293883      -0.28536437       0.19538091      -0.20191820      -0.28567198       0.92294490       1.04601574       0.02413328      -0.12215395
F       10.38256157      13.82694707      13.90371841      -1.01736483       0.19569726      -0.70156924      -0.16592605      -0.11369438      -0.45991290      -0.01403916      -0.26493394
F        9.80256898      15.68735555      12.98804351      -1.68485204      -0.46864927       0.11139683      -0.22430798      -0.56670803      -0.06993584      -0.01387583      -0.27504075
F       10.18483182      13.95270543      11.74419990      -0.69174826      -0.02822963      -0.35405104       0.64355779      -0.17640305      -0.65230733      -0.01072725      -0.23280278
C        7.17184892      14.75416989      12.27127403       0.25034542       0.17320113      -0.08623937      -0.34461436       0.35275704       0.89701581       0.02466718      -0.14233051
F        6.68157781      15.66647120      13.16111769      -0.30961959      -0.12626372       0.71967345       0.45361561      -0.51131088      -0.59930933      -0.01185799      -0.26224771
F        6.10715532      13.99794099      11.89773139       0.59294007       0.82184729      -0.20988250       0.47311610       0.49858260      -0.25323987      -0.01331762      -0.28150004
F        7.67454361      15.42907687      11.23907352       0.19983390       0.46140478      -0.20341709      -0.48022893      -0.74668908      -0.01636146      -0.00969478      -0.23080561
H        8.05442517      14.27616353      14.85425284      -0.01386432      -0.02654365       0.05842856      -0.19366238      -0.07819939      -0.01049741       0.02279812      -0.05090501
H        8.24901810      12.89737409      12.42880739      -0.05115684      -0.06507445      -0.07611493      -0.32977122      -0.29280928      -0.28760332       0.01267414      -0.02775557
O       14.51735274       9.29228508       1.60648264       0.96596010      -0.13168693      -0.52402084       1.71037960      -0.15724698       1.64175916      -0.03176523      -0.11094211
C       13.46751003       9.63504658       2.46522882       0.72205695      -0.07678746      -0.06801055      -0.45998013       1.28636360      -1.02800882       0.01243057      -0.21236791
C       13.81313160      10.93242452       3.27003669       0.45973522       0.47814523      -0.72639724       1.40924156      -2.05372524       1.94620204       0.02490295      -0.06173423
F       14.11868901      11.87897502       2.44299127      -0.31634457      -0.11117050      -1.29130756      -0.17738658       1.04029214      -0.64877176      -0.00792775      -0.23493488
F       14.95923630      10.63915307       4.00048272       0.51093366       0.37632490      -1.02198606      -0.59867454       0.26893109      -0.47438088      -0.01584270      -0.25832734
F       12.93937401      11.36178475       4.20092051       1.01965650      -2.04125822      -0.42217509      -0.18997371      -0.31239778      -0.97225082      -0.01045120      -0.26775646
C       12.96762572       8.44223881       3.23111042       0.95683654       1.13541739      -0.02996726      -1.51093125      -1.06191421       0.96478879       0.02443864      -0.15050855
F       13.77718743       8.04976703       4.19643610       0.13076747       1.32553785      -0.37365306       0.90704936      -0.17520347       0.24036150      -0.00979357      -0.25841314
F       12.76713121       7.37776298       2.41286545      -1.18723640       0.82756688      -1.28652728       0.22773404       0.63723356       0.07412152      -0.01424125      -0.27153999
F       11.77017124       8.65543262       3.85614449       0.88874171       1.18960580      -0.53340985       0.43937594       0.45121598      -0.70150566      -0.01421404      -0.26168862
H       15.34976436       9.20195899       2.17227729      -0.14521614       0.00448770      -0.01290163      -1.26648164       0.16871986      -0.96766198       0.02197896      -0.05694048
H       12.68760200       9.94736246       1.78122578       0.06685334      -0.01114857      -0.13651554      -0.61558360      -0.06404413      -0.00327276       0.01171969      -0.02399594
O       11.55527328       4.32116935       0.83711216       0.42122818      -1.12739252       0.25562502      -0.00179771       0.65371704      -0.61775893      -0.02744032      -0.09326929
C       11.33530014       3.17406088       1.57040550      -0.38356589       0.02509238       0.12164378      -0.43024603      -0.28504688      -0.53202891       0.01243110      -0.25663134
C       10.11828088       3.34905012       2.49639316      -0.21193950      -0.59248725       0.31608918      -0.12318288      -1.25755739       0.84536803       0.02424164      -0.13267079
F        9.07853378       3.91770841       1.95608783       1.23032822      -1.52443076      -0.25383054      -0.46377358       0.97316372      -1.22990990      -0.00797905      -0.23351747
F       10.42862719       4.02945473       3.59016782       0.45163778      -1.94929814       0.09827160       0.51575387       0.75853312       0.57823479      -0.01122793      -0.26096806
F        9.65863945       2.15859783       2.93104841      -0.06262800      -0.58316798      -0.00753908       0.35258603      -0.75535721      -0.06111364      -0.01264934      -0.24663956
C       12.58323782       2.76318455       2.33902313       0.39870105       0.06648064       0.94300701       0.55831689      -0.83189332      -0.52140653       0.02497309      -0.13112475
F       13.07352743       3.82508535       2.97852024      -1.15829234      -0.68363841      -0.47288569       0.35858119       0.15435432       0.34821996      -0.00816371      -0.26425782
F       13.55152061       2.34575287       1.45847180      -0.17252231       0.18342816       1.41707090      -0.95681894       0.24231109       0.91864717      -0.01218422      -0.26509425
F       12.35018197       1.78458434       3.23223515      -0.04881980       0.60552757       0.06548771       0.29804242       0.54545820      -0.54329664      -0.00968643      -0.24987252
H       12.23539359       4.88104613       1.21515931      -0.11198877       0.01022425       0.03390531       0.13212067       0.22207327       0.31262740       0.02282711      -0.05014378
H       11.12735406       2.41549855       0.81030796      -0.18498453      -0.13783265       0.08265819      -0.24143305      -0.37274653       0.49595997       0.01250629      -0.03589731
O        9.49453710       7.62599543      12.73426888       0.94725771       0.11186207       1.49526857       0.52624011       0.18505420      -0.29699624      -0.02875989      -0.07403912
C        9.24963587       8.83900860      13.36762774      -0.06539085       0.14019672       0.31871807       0.16325146      -0.74739921       0.17052871       0.01151697      -0.26208302
C        9.86817529       8.98517643      14.77682993      -0.09712965      -0.31141104       0.76547163       0.70572925      -1.39303267      -0.44923949       0.02418554      -0.11783748
F       10.99839977       8.17207776      14.85801416      -1.26396153      -1.28004846       1.29574985      -1.02279615       1.21111321      -0.02171061      -0.01697498      -0.27978960
F        9.06045082       8.59693598      15.75487798       0.26946974      -0.88602348      -0.64697164      -0.14923730      -0.12865870       0.23311268      -0.00746794      -0.26645917
F       10.20713704      10.24416747      14.99364944      -0.18974606      -0.28607226      -0.02674954       0.36080673       0.26183423       0.24862632      -0.01166702      -0.25220561
C        7.75558654       9.11929257      13.35022166      -0.06962629      -0.59236811       0.03126079      -0.23216353      -0.26989326      -1.12770796       0.02487276      -0.15623999
F        7.00929805       8.16165916      13.92964981       0.58148869      -0.45632492       0.22951267       0.37243640       0.35732311      -0.04059339      -0.01000039      -0.28737909
F        7.36911247       9.18607946      12.04768637       0.86994312       0.46393020       1.09014595       0.00441028       0.00800684       0.60833287      -0.01467483      -0.26592180
F        7.50382017      10.28978852      13.90602271       1.04552108      -0.78051047       1.11978428      -0.39987141       0.51585823       0.46877939      -0.01034980      -0.26991606
H        9.23644110       6.86501571      13.25108584       0.06784806       0.20039895      -0.02160835      -0.28640062      -0.27863765       0.42850685       0.02332711      -0.05686595
H        9.74246698       9.59015168      12.76310937       0.01010434      -0.09509809      -0.06345532      -0.06487612       0.27198383      -0.14623278       0.01014226      -0.04243489
O        4.01232312       1.36082996      12.55914105       0.27213853       0.19012725      -0.59815647      -0.26136720      -0.68254006      -0.06222607      -0.02337356      -0.04445812
C        2.80810861       1.77082538      11.97365970       0.86098225      -0.70342928      -0.24943066       0.07476041       0.61678159      -0.89002669       0.01258708      -0.22858797
C        3.03875816       1.79910095      10.42693359       0.64319373      -0.14123303      -0.29241866       0.53525364       0.53007740       0.31698456       0.02452089      -0.10593453
F        3.61279394       0.60506299      10.14930727      -0.21589241       1.03593513      -0.87947786      -0.80315709      -0.03003975      -0.58153307      -0.01248217      -0.24499029
F        3.92298484       2.71367461       9.98584626      -0.08945580       0.25374908       0.74839418      -0.31247544      -0.14461815       0.54620183      -0.01050604      -0.24058031
F        1.91672535       2.01341408       9.70546232      -0.05541896       0.02641045       0.73797556       0.38408804      -0.71926540       0.40659255      -0.01282651      -0.27576852
C        2.38849838       3.13303531      12.61017122       0.15900332       0.45375227       0.09632052       1.30721998      -0.63231224       0.15939713       0.02434698      -0.11844364
F        2.94065546       4.21414221      12.02580211       0.44269066       0.07203068      -0.83949420       0.20806447      -0.43727645       0.27550137      -0.01095170      -0.26445132
F        2.84140056       3.02468629      13.87819698      -0.08063081      -1.15416030       0.62654944      -0.77950430       0.96345115      -0.27055848      -0.01059898      -0.22246416
F        1.08554326       3.34112850      12.58643335       0.73621463      -0.69295477      -0.28381740      -0.08327661      -0.23067237       0.25327593      -0.01095603      -0.20989457
H        4.02964554       0.37987987      12.59874206      -0.05868547      -0.12868048       0.13360918       0.10612437       0.90564024      -0.06663272       0.02316270      -0.03433155
H        1.98108444       1.08939698      12.16400105       0.06049336       0.13009362      -0.04942781      -0.13421844      -0.12574773      -0.04178996       0.01146040      -0.04906434
O        2.52629182       7.14762242      12.18804607       0.32224734       0.58617161      -0.30181181      -0.11116034       0.34586895      -0.21324684      -0.03074656      -0.09532614
C        2.04304675       7.85157595      13.30590993      -0.29226249      -0.63796387      -0.11688041       2.87612557       0.17073950      -0.86461407       0.00977092      -0.23840758
C        2.75939626       9.22220762      13.46184313       0.04709906      -0.46636680       0.61495296       0.10653907      -0.25179398       0.00685035       0.02444943      -0.15149792
F        2.60909060       9.94208719      12.34995280      -0.33216833      -2.07666692      -0.26890213       0.19103043      -0.15174702      -0.16698372      -0.01332013      -0.25601858
F        4.08517817       9.14195673      13.73302472      -1.01693183      -0.00603608       0.34503265      -0.96785736      -0.19152379      -0.35688877      -0.01101469      -0.25134361
F        2.16345754       9.93070146      14.43983367       0.34056894      -0.53239854      -0.08300696       0.06253320      -0.00700828       0.32735461      -0.01080189      -0.26752436
C        2.13932285       6.94079365      14.48424116      -0.02549315       0.22703474       1.05130423       0.09580449      -1.10757363       0.46746320       0.02450419      -0.14245321
F        3.31058941       6.27642057      14.53854018      -1.08835135      -0.11999717       0.46869346       0.02591145       0.17330180      -0.27728954      -0.00841083      -0.27265903
F        1.16977035       6.03230649      14.37256083       0.85124737       0.35252817       0.57748922      -0.32422751      -0.56546128      -0.11321896      -0.01392072      -0.25505900
F        1.98403033       7.50883593      15.66099607      -0.83291405      -0.38094536       0.42062667      -0.14293081       0.93950832       0.94169986      -0.00828033      -0.25716615
H        3.39471015       6.76170478      12.36174762       0.04302222       0.05114431       0.13260379       0.02862288       0.03489348       0.15922315       0.02206802      -0.06011085
H        1.05083790       8.06311245      13.07530201       0.13754491      -0.18207270       0.04149496      -1.69112933       0.44452378       0.00094208       0.00804397      -0.02292458
O        4.48951576      16.18279752       7.38442992       0.87138284       2.02724595      -0.08586759       0.12244487       0.34503832      -0.22386034      -0.02389660      -0.12187850
C        4.80384318      14.91702135       6.94263603      -0.73911957       0.96836566      -0.39542689       0.04601812      -1.19011986       0.33369538       0.00987426      -0.18666555
C        6.26961192      14.64452480       7.35030624      -0.51850279       0.32981544      -0.15597138      -0.88324714      -0.29082483       0.74760497       0.02391339      -0.15192854
F        6.31190588      14.34096327       8.67635169      -0.27833283       1.39439368       0.44174860       0.12833850       0.59323162      -0.34803677      -0.01591713      -0.27482149
F        7.02228106      15.71400862       7.09679722      -1.01547481       1.36539027       0.37721575       0.06468225      -0.26371241       0.23486353      -0.00979164      -0.27181086
F        6.78096870      13.58915613       6.73396709      -0.85295049       0.55022817       0.17927176       0.25168893      -0.16694595      -0.47389549      -0.01126064      -0.25099227
C        4.56995728      14.65560672       5.45326656       0.06865405       1.46939460      -0.12058516      -0.16081320       0.29884759       0.00311112       0.02420643      -0.12436531
F        5.41116886      15.21439556       4.54789035       0.23487819       0.57932532       1.54366482      -0.68863869      -0.57076442       0.89934611      -0.00873963      -0.27336049
F        3.32314780      15.11230429       5.22208661       0.77357538       1.63392656      -0.45379555       0.23674706      -0.25237483      -0.63462251      -0.01120158      -0.25730416
F        4.58241142      13.30936389       5.31511097      -0.05057089       1.57059954       0.24586517      -0.03086796       0.49279147      -0.64583081      -0.01367710      -0.23369938
H        3.56894934      16.17743675       7.64307310       0.14260788       0.07848083       0.25668478      -0.33968109       0.22478643       0.03651761       0.02197529      -0.02493145
H        4.08385534      14.13849499       7.35393022      -0.06160847       0.23331139      -0.05875335       1.23016167       0.72436398      -0.03298004       0.00770584      -0.01502324
O       12.37401427      13.92433571       9.05899661      -0.00965808       0.36255842      -1.06979466       0.04835910       0.82682598       1.11970615      -0.02857962      -0.05450761
C       11.48376049      12.99500130       8.58668858      -0.38368037       0.34327956      -0.25640451       1.24764681      -0.61654902      -1.70917106       0.01174592      -0.14306876
C       12.15880804      12.47188960       7.26788457      -0.18498269       0.56231368      -0.03767859      -0.36909848      -0.16877449       0.80588114       0.02278733      -0.11668175
F       13.21759040      11.72284807       7.62558178      -0.81648145       2.65138700      -0.76570879       0.37185168       0.19917054      -0.02035001      -0.01591937      -0.26510927
F       12.60856281      13.42840352       6.43386096      -0.16320480       1.01092085      -0.86285047      -0.34710249      -0.09948158       0.44072720      -0.01181232      -0.30576253
F       11.34689423      11.67050353       6.62201887      -0.60946099       0.73602848      -0.27488963      -0.74655116      -0.61947775      -0.82204813      -0.01112288      -0.23775761
C        9.99916409      13.42458607       8.43410645      -0.16277245       0.35229102       0.13747226       0.32975662       0.00446977       1.17778254       0.02528617      -0.10606852
F        9.64513477      13.71548460       7.18070916      -0.37911591       0.06420899       0.71458659      -0.04511484      -0.23739848       0.47368562      -0.00805166      -0.25485754
F        9.80084284      14.51533203       9.19847690       0.03368540       0.05819203      -0.27339537      -0.12904654      -0.04423822      -0.53288805      -0.01142258      -0.24342945
F        9.20565315      12.45132373       8.95669096       0.47757193      -0.08260713      -0.44110231       0.21615756       0.44096956      -0.84563690      -0.01338808      -0.26847759
H       12.28417184      14.75268345       8.59404286      -0.06105934      -0.01352911       0.23094479      -0.03033534       0.55609620      -0.26387364       0.02431329      -0.04126546
H       11.58431535      12.15564059       9.26526352       0.04551152      -0.17572119      -0.16346773      -0.56007040      -0.22592629       0.14879759       0.01038907      -0.02498043
O       14.99062226       8.91447447      11.59342406       0.08179728      -0.44968100       0.37970218       0.09729865      -0.82505804       0.36875737      -0.02412444      -0.09081966
C       13.65892985       9.03520694      11.94081557      -0.65935275      -0.16073873       0.25079393      -0.63642281       1.46388042      -1.18889380       0.01275137      -0.24519370
C       12.73343640       8.76218934      10.69518793      -0.31122038       0.59934695       0.45812504       0.01408868       0.11637468       1.34434342       0.02466855      -0.10505978
F       12.76086186       7.44858248      10.42145714      -1.03453631       0.72832658      -0.34119656      -0.42759606       0.34740359      -0.02538491      -0.01129252      -0.27649543
F       13.10103831       9.41341384       9.58697092       0.43494488       0.88613891       0.26793557      -0.02718351      -0.09251398       0.41046441      -0.01023065      -0.28342012
F       11.47467672       9.17101094      11.03521050       0.12430984       0.55906456       0.48154318       0.61843580      -0.75830793      -0.84647316      -0.01112316      -0.23536938
C       13.36272199      10.46070379      12.48301555      -0.26268815      -0.53373421      -0.40192802       0.25544786      -0.45648906       0.14986423       0.02361841      -0.13679263
F       13.32949291      11.40102154      11.52664343      -0.24703047      -0.81722360      -0.28623060       0.18101829      -0.10237432       0.04431849      -0.01108190      -0.28611997
F       14.32449671      10.79381399      13.36486862      -0.33513745      -0.75115744       0.34973152      -0.49202430       0.04091259      -0.23457941      -0.01190446      -0.27930549
F       12.17526685      10.46997032      13.09614353      -0.66035088      -1.26067131      -1.10766324       0.12527426       0.27905208       0.36151138      -0.01104943      -0.24570701
H       15.29346978       9.62777385      11.03240915      -0.15581194      -0.32108244      -0.05820090       0.04336499       0.41944760      -0.35711679       0.02215953      -0.06223179
H       13.39076806       8.36605878      12.75951529       0.13874894      -0.05722332      -0.04157456       0.11730109      -0.28604728      -0.24078548       0.01233956      -0.05730923
O        1.75443959      13.13584703       7.49198348      -0.06224553      -0.18847553      -0.11769007       0.00471842      -0.30783004       0.70902699      -0.02474207      -0.14321584
C        2.12347196      12.45173462       8.66913889       0.02474588       0.30438746      -0.26839476       0.05456787       0.13245973       0.25943407       0.01314989      -0.22949117
C        2.14019631      10.94834935       8.42108139      -0.15332058       0.11061792      -0.52425023       1.38909316      -1.32024276       0.33953878       0.02491995      -0.09732778
F        2.96357811      10.78910380       7.36973807      -0.74017371       0.50192006       0.03966437      -0.59954673      -0.55813783      -0.02189366      -0.01140528      -0.24430773
F        0.92952683      10.42229173       8.19756630      -0.09098734       0.97365238       0.97084933       0.10735046       0.46989462      -0.56717223      -0.00944708      -0.27300107
F        2.65077950      10.16429662       9.43155037       0.11480373       0.89863074      -0.82304404      -0.13411444       1.17811918      -0.67502594      -0.01368941      -0.23984440
C        1.18913174      12.77802647       9.82376221       0.00024710       0.24252352      -0.13676664      -0.66051292      -0.65555245      -0.42253855       0.02447380      -0.12559570
F       -0.08185586      12.80821692       9.36782088      -0.18185442      -1.96856130       0.70109586       0.32853544       0.22638281       0.39853463      -0.01154044      -0.26024592
F        1.51230153      13.95069107      10.32275163       0.45315924      -0.57354399       0.82949044      -0.21827236       0.68858385       0.58701003      -0.00996355      -0.25232118
F        1.23012979      11.85175826      10.80760724       0.00848434      -0.31600565      -1.02975412       0.05298955       0.44545484      -0.14950404      -0.01066453      -0.26485062
H        0.81334024      12.95966429       7.34715968       0.09741099      -0.02255467       0.07367038      -0.03101582       0.12187415      -0.20847157       0.02385527      -0.04680257
H        3.12895364      12.80888035       8.95202874       0.00876363       0.02918996       0.01365033      -0.30536225      -0.47416469      -0.10998734       0.01329996      -0.04793700
O        9.91405226      12.66858235       4.47772270       0.62067493       0.71745481      -0.30834877      -0.14611696      -0.42947507      -0.12296793      -0.02731850      -0.09749157
C        9.60867702      13.59706590       3.49760517       0.23045498       0.33647946      -0.58284289      -0.21094121       1.53143799       0.43018174       0.01200086      -0.24086244
C        8.29442849      13.28545859       2.74733731      -0.17368754       0.44755998       0.00831398       0.26051494       0.32995087       0.59624666       0.02517661      -0.15356329
F        7.36918538      12.95153350       3.64441374       1.21532247       0.22339841       1.27455275      -0.21729033       0.18521018      -0.13754989      -0.01165574      -0.26024994
F        8.43372877      12.26459961       1.91002132      -0.12686274       0.98011999       0.96849937      -0.07357620      -0.13202378      -0.40197286      -0.01062144      -0.27055067
F        7.86395547      14.37706200       2.05950462      -0.04640561      -0.38699025       0.65239631       0.12898213      -0.58786452       0.18349916      -0.01017586      -0.28276396
C       10.80665186      13.74769865       2.55818599       0.07108728       0.53698451       0.03132147       0.36213613       0.84560430       0.26934582       0.02292658      -0.16753052
F       11.13119245      12.56793356       2.01909449      -0.26509814      -0.50316974      -0.94068004       0.14317270      -0.08375779      -0.19701155      -0.01045290      -0.28330845
F       11.88704702      14.19932433       3.23806673       0.08562057      -0.04901891      -0.40295218      -0.59529281      -0.37960613      -0.32650322      -0.01341143      -0.25879073
F       10.57252462      14.63133058       1.56488912      -0.05146343      -0.19433248      -0.23826101       0.03059669      -0.35409591       0.15837911      -0.01238106      -0.27966738
H       10.10591912      11.80828009       4.06920737      -0.00670032      -0.02193677       0.07135331      -0.03419990       0.18031420       0.14593945       0.02410306      -0.04160653
H        9.43401385      14.59380167       4.01770272       0.08400420      -0.01524586      -0.05975550       0.29989409      -1.14395845      -0.65892708       0.01312523      -0.04150729
O        6.99702982       3.51834381       9.84534506       0.65589744      -0.83653588       0.25149751       0.02280563      -0.88782334      -1.29244685      -0.02561841       0.01728594
C        6.62423957       3.84450323      11.11692524       0.18942082      -0.59086584       0.29480724      -0.44119847       0.43630883       0.15526600       0.01135077      -0.26727408
C        5.99754489       5.22992956      11.17658773      -0.71564265      -0.75643378       0.35980362       0.12192082      -0.05581173      -0.63483655       0.02342956      -0.16297558
F        5.00405065       5.28779118      10.27776343      -0.50573463      -0.63145312       0.54766038      -0.18372846       0.19541118       0.00321091      -0.01272217      -0.27673256
F        6.80652738       6.25766921      10.93470187      -0.57661126      -0.90245897       0.43848968       0.42724842       0.06595935      -0.43556648      -0.01214313      -0.25644332
F        5.50519242       5.42689337      12.38010206      -0.95145981      -0.66638564       0.45393980      -0.86665297       0.26109892       1.30438328      -0.00962102      -0.26937437
C        7.72915346       3.67928976      12.15283230      -0.00543133      -0.09265529       0.90257308      -0.33390015      -0.97870129      -0.00849634       0.02400927      -0.14912862
F        8.47279058       4.78217285      12.25087626      -0.95924344      -0.30427989       0.56094024       0.76871276       0.00152776       0.01869158      -0.00984292      -0.27021903
F        8.47412309       2.62607390      11.76988170      -0.11800593       1.60513057      -0.43238218       0.33368868       0.91079080       0.44643164      -0.01312941      -0.22092469
F        7.25476178       3.41307021      13.37971653       0.46347589      -1.31543266      -0.48985131       0.00644012       0.11886732      -0.16307166      -0.01127482      -0.26436126
H        7.71668126       3.98430520       9.40172015      -0.22273181      -0.00453531      -0.09129890      -0.02806808       0.39032936       0.68259811       0.02463232      -0.04946378
H        5.80180666       3.16492968      11.38610359       0.00081154      -0.02937482      -0.18569268       0.33971626       0.04627712       0.03727030       0.01003960      -0.04064386
O       11.78947820       3.06984035      11.19309266       1.45214325      -0.76313864       0.56602946      -0.73257196       0.95429111      -2.12646294      -0.02740430      -0.05919240
C       12.57373468       2.94442107      12.29080515       0.80064338      -0.84299860      -0.47910709       0.14061731       0.34376487       1.48011398       0.01091132      -0.23708864
C       13.22835413       4.26390342      12.65476973       0.16774560      -0.08164186      -0.31810836       1.08522606      -0.76859081       0.37281996       0.02353753      -0.13247524
F       12.28160459       5.16168571      12.89518387      -0.10694863      -1.07514906       0.75129675       0.05489698       0.48750398      -0.16259858      -0.01162848      -0.27411920
F       13.98577833       4.65400972      11.61059232       0.16498980      -0.19026367       0.48194511      -0.07648847       0.72332859       0.36560351      -0.01119891      -0.27410495
F       14.00448666       4.17026552      13.76642678       1.29655780      -1.26753311      -1.08534330      -0.55920082       0.24067852      -0.87109041      -0.01244140      -0.25436062
C       13.51706676       1.77370497      12.15552435       0.50780738      -0.73040617       0.88078268       2.29461241       0.12659687       0.55036098       0.02335790      -0.12800092
F       14.44612429       2.02216272      11.19580778      -0.35828279      -0.36684216       0.37577866       0.13974087       0.21383786       0.45731753      -0.01453383      -0.24859275
F       12.96116004       0.67448869      11.77501221       0.35153854      -0.81894640      -0.05915025      -1.58967280      -1.35985637      -0.27672550      -0.01063133      -0.21279871
F       14.16011422       1.47361980      13.34719214       1.63762338      -0.19885132      -0.86716927      -0.45615345       0.70027047      -1.12018335      -0.01457052      -0.26793692
H       12.06055158       3.81755724      10.59883970       0.19823902       0.11350653       0.14762725      -0.14494671      -1.03810501       0.78938341       0.02232987      -0.05241518
H       11.95965162       2.78259298      13.15996512       0.02485672       0.07574097       0.02686851      -0.54638559      -0.60823721       0.44544053       0.01170165      -0.02043908
O        6.60101959       7.38000699       8.07561586       0.23750388      -0.65064341      -0.47284558       0.23725241      -0.32938913       0.81337065      -0.02449179      -0.05093235
C        7.15325926       7.74887506       6.86759552      -0.22125082      -0.70485337       0.27039582       0.50992584       0.24313483      -0.28482702       0.01491150      -0.24319279
C        6.50821863       9.05079953       6.39646509      -0.55802839      -0.30295268      -0.15638675       0.85335505       0.83999944      -0.64939773       0.02420434      -0.14576441
F        6.58917695       9.99576074       7.36066466       0.57545947      -0.06463969      -0.38949139      -0.23987202      -0.61928922      -0.40978321      -0.01316453      -0.26659295
F        5.22929874       8.82270977       6.10887148       0.35559271      -0.34193258       0.86075463      -0.33966911       0.33595961      -0.08857410      -0.00893981      -0.27796352
F        7.12501153       9.59206598       5.29841226       0.69351687      -1.55987332       0.31265713      -0.59337640      -0.68080360       0.82177484      -0.01349533      -0.25850555
C        7.11658789       6.57709003       5.84710574      -0.79816029       0.53149429       0.19351282       0.87179899      -0.42186880       0.13944322       0.02524559      -0.12935892
F        5.91977826       6.02025910       5.60690462      -1.06721094       1.99712834      -0.58525833       0.19704384       0.85786021      -0.04078645      -0.00753627      -0.26146236
F        7.85656560       5.57574819       6.38492484      -0.97142926      -0.12373605       0.72846551       0.03222493       0.28908783      -0.14297223      -0.01399422      -0.24949192
F        7.71093915       6.93311668       4.68763999      -1.62548603      -0.48053956      -0.61658484      -0.61271560      -0.19511184       0.44990313      -0.01081106      -0.25740039
H        5.65287682       7.20012139       8.06201884      -0.00891021       0.16177633      -0.17460010       0.01660365       0.06199996      -0.42434588       0.02497538      -0.05111898
H        8.23677685       7.98364927       7.04031868       0.00536528      -0.04441663       0.02433440      -0.88493365      -0.37336969      -0.15132311       0.01261350      -0.03977884
192
Lattice="15.184148099261407 0.0 0.0 0.0 15.184148099261407 0.0 0.0 0.0 15.184148099261407" Properties=species:S:1:pos:R:3:momenta:R:3:forces:R:3:charge:R:1:energies:R:1 Built=T with=T Packmol=T charge=0 spin=1 external_field="_JSON [0.0, 0.0, 0.0]" energy=-19.797863006591797 stress="0.00019507273100316525 0.0006750414613634348 -0.0005983914597891271 0.0006750414613634348 0.0010035904124379158 -0.0012978878803551197 -0.0005983914597891271 -0.0012978878803551197 0.001500599319115281" dipole="-0.473632276058197 -0.3230394721031189 0.04622375965118408" free_energy=-19.797863006591797 pbc="T T T"
O       14.07371643       6.19548754       7.47548232      -0.57117805      -0.48613612      -0.47550876      -0.24297848      -0.31779251      -0.32312191      -0.02924024      -0.13022822
C       13.43230502       5.03032329       7.03433842       0.32491856       0.72790011      -0.21346722      -0.30661169       0.50175571       0.13030025       0.01339056      -0.21558864
C       11.91466640       5.13879526       7.35504145       0.03139260      -0.42401828      -0.12831948       1.02066553       0.06253648       1.31277847       0.02421647      -0.10889958
F       11.49885923       6.21310656       6.75255161       0.39346609      -0.30684389       0.21250149      -0.94886822       1.02674079      -1.15465450      -0.01044047      -0.22580937
F       11.71474768       5.37745813       8.68052973       0.87448221      -0.73227407      -0.99295174       0.35686272      -0.30651894       0.28515092      -0.01265358      -0.28594887
F       11.16468250       4.09944881       7.05586299       0.86696600      -0.54403627      -0.64407500      -0.19294243      -0.34344500      -0.64253497      -0.00814951      -0.24922502
C       14.09293725       3.81295998       7.61619341       0.05988653      -0.26514538      -0.35822642       0.35827163      -0.54232752       0.99272645       0.02497493      -0.10007641
F       14.57309974       4.16077548       8.85833827      -0.69446260       0.23004330      -0.43997161       0.11786311      -0.74224752      -0.79480785      -0.01104490      -0.24724662
F       15.05892975       3.29643910       6.85163249      -0.79571666      -0.04384329      -0.46320344       0.42658272       0.73512417       0.32271031      -0.00942210      -0.24656013
F       13.24376610       2.81350887       7.79042893       0.51086435       1.34655323      -0.50454641      -0.64406264      -0.52699441       0.41925979      -0.00919583      -0.22811076
H       14.14826226       6.10778020       8.43433914       0.00609619      -0.09226535      -0.11105833       0.10649039       0.29655150       0.07115426       0.02218316      -0.03065916
H       13.53555757       4.95821906       5.96600222       0.00908946       0.18831040       0.01484007      -0.08721162       0.12330848      -0.56593585       0.01339383      -0.04382297
O        2.27288697       9.97709650       2.48682768       0.42320919       0.60792201      -0.30665368      -0.07925158       0.28438017       0.46227193      -0.02795147      -0.13248040
C        3.29142131      10.90385243       2.76054695      -0.05802299      -0.00993840       0.17982617      -0.47195366       0.35287464      -0.81526828       0.01236186      -0.20615859
C        2.98350134      12.28639560       2.08966282       0.00688302      -0.14403054       0.29646817       0.27859947      -1.15947926       0.82357663       0.02458550      -0.10245006
F        1.69772361      12.63669557       2.16857637       0.09624261       0.30691217      -0.65313091       0.29195172       0.15241137       0.56312501      -0.01063333      -0.26420426
F        3.25652852      12.21800179       0.79378933       0.57214365      -0.24484092       1.22272389       0.28712243       0.11420902      -0.87440574      -0.00960712      -0.25798705
F        3.78276226      13.19253094       2.65182417       0.38348782       0.50540232      -0.91621503      -0.38633388       0.54964763      -0.08236226      -0.00934305      -0.24783204
C        4.58786602      10.31466227       2.19487721       0.02808630      -0.16502017       0.56566690       0.55980015       0.26851320       1.68563330       0.02434410      -0.11578843
F        4.40603863       9.61521580       1.09229081      -0.28681813       0.54549900       0.27663026       0.08100825      -0.31573254      -0.15841407      -0.00749335      -0.25353709
F        5.08395323       9.52722763       3.17822176      -0.22485367       1.03749752      -0.09142252      -0.06976233      -0.67778599      -0.43671435      -0.01378735      -0.24465957
F        5.53061567      11.22054391       1.98783065      -0.16553603       0.28580585      -0.67202237       0.31880599       0.58366686      -0.50805581      -0.01099225      -0.25049031
H        2.24321760       9.90204347       1.52757041      -0.04775063       0.07709693       0.09085797      -0.09691039      -0.23062691      -0.32536337       0.02134569      -0.04860444
H        3.47951313      11.01307442       3.83748848       0.09663258      -0.07493992      -0.09528543      -0.53162754       0.08964048      -0.31722239       0.01173738      -0.05241124
O        7.84093161      13.61845944      14.32460324      -0.65969872       0.22701571      -0.59892107      -0.04188350      -0.24512315      -0.00546019      -0.02769404      -0.09000836
C        8.25155531      13.92154091      13.03714638       0.17854585       0.12368979       0.12228137      -0.38319206      -0.54543561      -0.51299095       0.01236766      -0.22026731
C        9.69792953      14.42491544      12.95115025      -0.44151792       0.41459992       0.16548408      -0.28937972      -0.13709259       0.28294316       0.02423065      -0.14254060
F       10.41049505      13.90376157      13.95628551      -1.00357970       0.12965389      -0.84526469       0.18294489      -0.14191006      -0.12436025      -0.01320173      -0.26320866
F        9.80975211      15.75519924      13.05846695      -1.71036474      -0.59407388       0.05909376       0.03320236       0.09806340      -0.11521558      -0.01163761      -0.27781394
F       10.22406624      14.02481299      11.79364191      -0.43342157      -0.02567891      -0.53212344       0.32158285       0.21297726      -0.00290238      -0.01217661      -0.24629337
C        7.21623275      14.84305427      12.34116529       0.09047319       0.39227589       0.33971716      -0.20836133       0.44643685       0.73444372       0.02446459      -0.14212212
F        6.71201044      15.74207350      13.24414935      -0.03784088      -0.37758911       0.34009070       0.58540225      -0.42937291      -0.81711388      -0.01233663      -0.26306525
F        6.15744141      14.09552052      11.95320301       0.80777580       1.02750801      -0.32455172       0.39427102       0.35852575      -0.20969777      -0.01339233      -0.27730221
F        7.71668718      15.51715417      11.29378329      -0.06200933       0.08951848      -0.08764238      -0.55552447      -0.71196300       0.45773447      -0.01026494      -0.24077110
H        8.06517218      14.31870734      14.94396345      -0.10086691      -0.07463928       0.00198852      -0.04339020       0.23414144       0.08806108       0.02255870      -0.05343192
H        8.23719638      12.96867237      12.46629899      -0.14523328       0.15382527       0.01531726       0.00784670       0.51604646       0.29503408       0.01258746      -0.03107293
O       14.62471836       9.33728977       1.60584638       0.75718714      -0.07116722      -0.22167631      -0.94713765       0.22618470       0.45403826      -0.03097249      -0.14826727
C       13.56064029       9.69747703       2.46039392       0.34915077       0.63365975      -0.83214736      -0.67539775       1.01895809      -1.36884522       0.01271862      -0.21248397
C       13.91737302      10.98694930       3.27547304       1.04246668      -0.59764890       0.05810290       0.83504128      -1.85183692       0.81496310       0.02497825      -0.09029841
F       14.18355007      11.94495450       2.41928207      -0.39886717       0.35374281      -1.46623799      -0.19389091       0.60825825       0.08332236      -0.00888102      -0.25171661
F       15.04782647      10.70665301       3.99198086       0.30818436       0.52615464      -1.24885031      -0.09380837       0.30072618      -0.40310174      -0.01365820      -0.26162088
F       13.03202440      11.36778624       4.20603537       0.87919714      -2.06802314      -0.87202422      -0.31764522       0.05457433      -0.82454735      -0.01007583      -0.26777107
C       13.05588833       8.51854969       3.25343278      -0.00407935       0.39619638       0.19717088      -1.91331601      -1.44428039      -0.16892706       0.02479786      -0.12206019
F       13.85896516       8.12449671       4.21037753       0.60221716       1.15979155      -0.25176868       0.93482286      -0.43594104       0.21422468      -0.00816493      -0.25602064
F       12.80623819       7.44367278       2.39482974      -0.92772658       1.31705163      -1.01773268       0.69702357       1.20971441       0.87165987      -0.01712056      -0.26157951
F       11.85811146       8.73465349       3.85825984       1.12817288       1.42353195      -0.84915999       0.40616614       0.51418221      -0.50693363      -0.01330998      -0.25395551
H       15.38711025       9.24951557       2.16453142       0.24977706      -0.04373590       0.11207316       1.13278604      -0.14628828       0.46864626       0.02070766      -0.05266298
H       12.75198245       9.97551362       1.76427843      -0.01791385      -0.08611545       0.06915494       0.01241355      -0.03146034       0.42610511       0.01194553      -0.03454570
O       11.62841470       4.31443856       0.84396579       0.41089538      -0.76656740      -0.08485296       0.08864561       0.73722112      -0.55918342      -0.02717174      -0.10788596
C       11.37678583       3.18388283       1.58091854      -0.44041964      -0.42730135       0.09085110       0.23655482      -1.09783888       0.64813423       0.01078413      -0.22341648
C       10.16559827       3.33070049       2.52874809       0.00870956      -1.10324717       0.56393667       0.81395352      -0.57983893       0.14220005       0.02355756      -0.14474893
F        9.15327480       3.90603656       1.95214226       0.82480723      -0.95187867      -0.81895650      -0.89189017       1.11680770      -0.94232953      -0.00824051      -0.24222045
F       10.49770386       4.00576904       3.61607967       0.62757295      -1.50219766       0.46767297       0.18445116       0.87158346       0.82312077      -0.01105277      -0.27017316
F        9.70958221       2.14936040       2.94617803       0.06455640      -1.03039490       0.00258964       0.15073198      -1.06836927       0.11145779      -0.01153404      -0.25242454
C       12.66370534       2.77180631       2.37765370       0.13844588      -0.33239689       0.21098161      -1.42123914      -0.56961036      -2.08074141       0.02416636      -0.10179314
F       13.11620617       3.83128067       2.98629635      -0.79307464      -0.29755132      -0.06697004       0.95527536       1.21725202       1.13553834      -0.00724700      -0.25295484
F       13.61342145       2.36376295       1.50763524      -0.47959788       0.22846424       1.74137432      -0.24510358      -0.09191200       0.37368679      -0.01185734      -0.27884823
F       12.41558121       1.81129781       3.24934462       0.08789255       0.66143687       0.01985331       0.22965200      -0.30999768       0.33845943      -0.00893448      -0.25951302
H       12.25230996       4.92604708       1.27370315      -0.13656169       0.01073039       0.15044193      -0.37267137      -0.34300944       0.04486301       0.02326195      -0.05123587
H       11.09367699       2.35657685       0.91635103      -0.14844788      -0.10951663       0.28700665       0.27140000       0.16061856      -0.04990882       0.01148510      -0.04556485
O        9.57796399       7.67307913      12.84233977       1.16537737       0.15509177       1.28524831      -0.14240265      -1.51380861       0.52197456      -0.02938731      -0.07982192
C        9.29863945       8.88376077      13.45207247       0.11698802      -0.18970478       0.35619958       0.48765391      -0.44955680      -0.04825330       0.01033367      -0.24282295
C        9.92298124       9.00845795      14.87627118       0.22482688      -0.76095599       0.21311075       0.46249747      -0.30439189      -1.50629914       0.02407570      -0.11224673
F       11.01815798       8.18969948      14.96910439      -1.61015035      -0.68218146       1.25340139      -0.34630424       1.07734048      -0.10048974      -0.01530052      -0.27866793
F        9.11247582       8.61836625      15.82430026       0.02383694      -0.94313470      -0.31584225      -0.76601100      -0.12691908       0.95856637      -0.00680113      -0.25647965
F       10.25816458      10.29119478      15.07375613      -0.00815618      -0.28595266       0.15019685       0.34704888      -0.35462382       0.42389816      -0.01313416      -0.26368809
C        7.79441117       9.14349591      13.41402209       0.05981044      -0.48647057      -0.21987234       0.74151117       0.62536412       0.26825646       0.02503251      -0.15357707
F        7.06283495       8.19456501      14.00823985       0.68678504      -0.32837442       0.18510509       0.08714181       0.14659670      -0.14354099      -0.00931353      -0.29232031
F        7.42926540       9.24601723      12.14136174       0.74857334       0.43226338       1.18945893      -0.46259844      -0.09662625      -0.22614679      -0.01190743      -0.26390186
F        7.56737224      10.32597175      14.01025723       0.81402303      -0.63810390       1.26401355      -0.47240338       0.00752327       0.13775028      -0.01260018      -0.27355590
H        9.26716882       6.90966657      13.39113482      -0.07838404      -0.01887756       0.18980452       0.27249721       0.88607574      -0.62618119       0.02392701      -0.04920545
H        9.78228550       9.62566412      12.80365465      -0.07367603       0.01540449       0.00477135      -0.23390183       0.09712928       0.39701971       0.00959263      -0.04230620
O        4.04083786       1.36696451      12.60696512       0.24157085      -0.06793672      -0.58318059       0.10874502       1.13530564      -0.11730078      -0.02215702      -0.04861800
C        2.85697823       1.76443133      12.01773962       0.71444093       0.01279873      -0.62779067      -0.95429540       1.56252921      -0.43854359       0.01179266      -0.18746978
C        3.08218049       1.80940398      10.47546767       0.59749688       0.19972764       0.03457567      -0.65649951       0.72538400       0.84561431       0.02423113      -0.11672827
F        3.62232575       0.63299395      10.17553715      -0.46581272       0.81624122      -1.22586360      -0.25713915      -0.72477037      -0.80291885      -0.01068529      -0.24929632
F        3.94007426       2.73416483      10.06012283      -0.14574242       0.25813813       0.90433318       0.10334721       0.20928653       0.12876108      -0.00910269      -0.24579194
F        1.92850448       2.02030763       9.77799214       0.21204377      -0.29721108       0.92943702       0.67294526      -0.56754667       0.41898695      -0.01435192      -0.28611186
C        2.42197188       3.15757554      12.67996709       0.85426150      -0.12679961       0.03807718       1.21514440      -1.46256185      -0.34271461       0.02421392      -0.07563463
F        2.96832982       4.23497552      12.07034391       0.48740903      -0.18573770      -0.54855924       0.03232618      -0.62022132       0.83270973      -0.01061152      -0.26141301
F        2.84925453       3.01771599      13.96411320      -0.45704289      -0.58796113       0.33696700      -0.69784302       1.22712398      -0.83185840      -0.01069147      -0.22716472
F        1.10982723       3.33983055      12.64686455       0.72296315      -0.74868834      -0.15065475       0.21087979      -0.08571918       0.25417942      -0.01117159      -0.21353626
H        4.03983292       0.43417334      12.72209973       0.02020576       0.12334494       0.12151216       0.16877887      -1.28423405       0.17266786       0.02288366      -0.02986565
H        1.99032012       1.11528676      12.20513139      -0.02713432      -0.04232335      -0.04771313       0.26522875      -0.11054729      -0.07808954       0.01112698      -0.04789563
O        2.55115694       7.20425725      12.24315005       0.45685533       0.63698543      -0.22597996       0.18939126       0.10240981       0.35411692      -0.03012488      -0.14677353
C        2.06629272       7.87061227      13.36602084       0.53786507      -0.36020366      -0.29165161      -0.66235095       1.02344346       0.09392780       0.00805703      -0.23259337
C        2.77348307       9.24854858      13.55332577      -0.14441036      -0.61114544       0.31218556      -0.81190890      -0.26185018      -1.05737305       0.02384619      -0.15237994
F        2.61552714       9.94000117      12.40766015      -0.22664008      -2.10082921      -0.25154749       0.20472349      -0.01920926       0.17417601      -0.01529732      -0.26054236
F        4.07618762       9.18824509      13.81227457      -1.24871488      -0.13588968       0.22986896       0.01292135      -0.33299419      -0.10509442      -0.00949812      -0.25291342
F        2.18350981       9.96943610      14.51597472       0.31417394      -0.49436335       0.11687755      -0.14034839       0.07246627       0.40737784      -0.01055648      -0.27644289
C        2.14988890       6.97578268      14.60072884      -0.02353904      -0.25842571       0.76684005      -0.10388207      -0.66100955      -1.37907982       0.02428002      -0.12619330
F        3.30176546       6.30700823      14.62600411      -0.86702304      -0.08387359       0.42803583       0.82057714      -0.07783830       0.14295644      -0.00764701      -0.27172378
F        1.19443660       6.06854865      14.46245364       0.53277366      -0.03026511       0.55083828      -0.88148928      -0.94133341       0.03216927      -0.01417441      -0.24536324
F        1.97231054       7.54509858      15.76111100      -0.86456820       0.14866878       0.97975994      -0.00847403       1.06749678       1.13850701      -0.00769917      -0.26108843
H        3.41012824       6.83129714      12.48751976      -0.04807150       0.07227598       0.08053288       0.07725259      -0.15234621      -0.25895515       0.02225517      -0.04519446
H        0.96829699       8.07014061      13.16991831      -0.16137768      -0.01233716       0.11496372       1.51125968       0.01090010       0.41291681       0.00727862      -0.02510095
O        4.53868815      16.33085434       7.41868055       0.72523083       2.02681578      -0.20620100      -0.49214953      -0.24028568      -0.29572651      -0.02504450      -0.10477963
C        4.80713830      15.03080844       6.96585973      -0.13254360       0.98924492      -0.27283500       2.08273220       1.16003346       0.25958788       0.01048159      -0.21854863
C        6.27389779      14.73389178       7.39063225      -0.81902556       0.33139559       0.23528512      -0.18216152       0.31576791       0.68909228       0.02422381      -0.14803770
F        6.33820227      14.45571330       8.72964539      -0.26923371       1.64035429       0.11420370      -0.11532253       0.44720590      -0.86971241      -0.01605376      -0.27320203
F        7.03262464      15.82833299       7.14511715      -1.05878600       1.03254902       0.47280219      -0.26115656      -0.98517513       0.17929402      -0.01135359      -0.26169825
F        6.79591665      13.67448100       6.77153833      -0.75718967       0.56806003       0.02213196       0.04781040       0.28834370      -0.12123665      -0.01114431      -0.25254828
C        4.59389323      14.79114329       5.47942381      -0.10250129       1.28555268       0.06560389      -0.54198027      -0.96437389       0.78637230       0.02479499      -0.11033344
F        5.44278798      15.30698288       4.61535772       0.08059721       0.46386407       1.74406042       0.11235386       0.15004480      -0.02330911      -0.00638194      -0.27284625
F        3.36103403      15.23264555       5.23338086       0.76433294       1.55389267      -0.80098126      -0.24176596       0.00403014      -0.77020925      -0.01052356      -0.25593129
F        4.60484123      13.42357005       5.34556478      -0.08093033       1.87231723      -0.03484391      -0.10706455       0.73562706      -0.48591906      -0.01602633      -0.23861592
H        3.64729290      16.32757728       7.80233372       0.17557880       0.18119178       0.20065186       0.34817880       0.13627794      -0.25303715       0.02137609      -0.03016509
H        4.14853315      14.33471187       7.39649984       0.05064165       0.08267549       0.16020782      -0.68178296      -1.12537456       0.78687507       0.00841813      -0.03041156
O       12.43901267      14.01107063       9.08387409      -0.01412875       0.61851250      -0.46859421      -0.23832534       1.39470029       0.64989054      -0.02833758      -0.01989461
C       11.54143525      13.06949539       8.60638886       0.22747174      -0.01406076      -0.91835422       0.90788066      -0.30056787      -0.98641944       0.01231414      -0.15681669
C       12.20923521      12.56099157       7.30765915      -0.50377643       0.63435552      -0.01348871      -0.77964205       0.34331214      -0.75188059       0.02288442      -0.13299714
F       13.26955845      11.85244481       7.64637956      -0.48432767       2.54604765      -0.69576803       0.87674254      -0.47468185       0.24633329      -0.01409908      -0.24799114
F       12.66743918      13.52348013       6.44897952      -0.43541788       0.86005485      -0.54909194      -0.77597439      -0.42944318       0.77170134      -0.01410318      -0.29681766
F       11.38717567      11.74767814       6.64540867      -0.82914254       0.53155456      -0.56038939      -0.16514835      -0.15905419      -0.32590336      -0.01249079      -0.25050652
C       10.04932745      13.50770263       8.49393911       0.07540052       0.22960434       0.54550007       0.63636303      -0.41895750       0.27152634       0.02534861      -0.12009797
F        9.68559968      13.78788705       7.23929338      -0.40734174      -0.02163299       0.88155366      -0.07431790      -0.11298544       0.27061510      -0.00921230      -0.25729796
F        9.85213867      14.59317386       9.23711184      -0.04907528       0.08750525      -0.43458937      -0.18041873       0.16538346      -0.10026485      -0.00992375      -0.24710539
F        9.26743229      12.51749321       8.98756659       0.55236570       0.14515513      -0.77317204       0.10928613       0.43672022      -0.47739297      -0.01342231      -0.27392244
H       12.30175204      14.91074808       8.70201678      -0.12983200       0.16182775       0.09861424      -0.06389162      -1.05308616       0.28884763       0.02503096      -0.04655750
H       11.60263070      12.16477927       9.23816145      -0.19302065       0.02674678      -0.15165534      -0.24650410       0.60884374       0.12075491       0.01069570      -0.02838559
O       15.06865144       8.93995495      11.67060209      -0.14323139      -0.73900189       0.52198762      -0.39049605       0.93842167      -1.09180176      -0.02494697      -0.07669675
C       13.70372688       9.08854110      12.00065167      -0.51824655       0.34558790      -0.36452126       0.98892772       0.25853539      -0.93074918       0.01348773      -0.27171719
C       12.78828680       8.83120855      10.77897763      -0.26014026       0.46990514       0.76213144       0.17908069      -0.53478265      -0.19067949       0.02529927      -0.12103574
F       12.79868697       7.50989534      10.46775445      -1.20377973       1.02748483      -0.28308653      -0.29075289       0.83511823       0.25941780      -0.01252709      -0.27159044
F       13.18025697       9.48450331       9.64844288       0.35226256       0.76829718       0.64995198      -0.26764798      -0.32305980       1.09450126      -0.01160228      -0.27788830
F       11.54161876       9.22914957      11.10010767       0.36901067       0.23230298       0.06230861       0.32088280      -0.53118593      -0.78990352      -0.00902006      -0.22303554
C       13.42504026      10.49149729      12.53654636      -0.12110235      -0.58202291      -0.12260301       0.23669285       0.26304504       0.86486220       0.02452260      -0.14019462
F       13.39437297      11.43860723      11.58056142      -0.13992609      -0.91971797      -0.20193777       0.24344730      -0.33352360       0.28439540      -0.01061883      -0.27628878
F       14.38661615      10.83094005      13.44129790      -0.71328342      -0.77141778       0.09575087      -0.98109150      -0.14353289      -0.71011353      -0.01270697      -0.27245873
F       12.22361155      10.49443526      13.13855785      -0.51601852      -1.08550646      -0.92656685       0.41905320       0.36466077       0.33453244      -0.01094551      -0.23261201
H       15.32677506       9.61175058      10.98285581      -0.08237823      -0.10619504      -0.24554923      -0.25842988      -0.85415316       0.83839297       0.02260964      -0.06005719
H       13.51751774       8.35299499      12.79086754       0.05073445      -0.13356855      -0.10348440      -0.38510105       0.19654414      -0.20518649       0.01289030      -0.05456503
O        1.76443162      13.19769194       7.53312022       0.07345471      -0.25780435       0.20790929      -0.34351593      -0.10787110       0.40617999      -0.02511140      -0.14053518
C        2.13477230      12.52872640       8.70687263      -0.09353102       0.18462203      -0.11487689      -0.74708593      -0.75554717       0.24232405       0.01241765      -0.23242900
C        2.15801818      11.00146574       8.45063808       0.41423701      -0.19611919      -0.12775011       0.67223436       0.17581664       1.08063734       0.02452020      -0.09827752
F        2.95698917      10.85464572       7.40778487      -0.93279358       0.16678526      -0.14970463      -0.17561477      -0.79011482      -0.75109959      -0.01034034      -0.24289767
F        0.93212586      10.50437136       8.26137788      -0.10174137       1.11083680       0.61447555      -0.09067388       0.13120253      -0.80013114      -0.00970397      -0.28081223
F        2.66720653      10.24746357       9.45607734       0.10413626       1.35660744      -1.06952854       0.16594209       0.62878537      -0.25319239      -0.01285430      -0.24721396
C        1.18983932      12.84638329       9.86623467      -0.23188871      -0.19932426      -0.27867634      -0.20688567      -0.90777731      -0.08499732       0.02451189      -0.11816830
F       -0.08474163      12.82738976       9.43711924      -0.01036096      -1.69608143       0.83169571       0.30147728       0.76417685       0.14644791      -0.01096109      -0.25726378
F        1.52980509      14.01313578      10.40131784       0.25493651      -0.28924519       1.01721700      -0.58493680       0.32217753       0.16006762      -0.01054279      -0.26222020
F        1.23764219      11.90858707      10.83712660       0.09143706      -0.10934373      -1.05376860       0.27895483       0.32273716       0.04530268      -0.01175075      -0.25522357
H        0.81524784      13.02527546       7.38666440      -0.06494591       0.01862011      -0.05963053       0.33976600       0.17055592      -0.11140998       0.02400922      -0.04668900
H        3.12638432      12.84320206       8.99324947      -0.01915607      -0.12012603      -0.02150014       0.38930392       0.00393838       0.04821870       0.01289392      -0.05065009
O        9.98357624      12.75514114       4.49082712       0.49692899       0.66881358      -0.35270439      -0.35200226       0.42977124      -0.00556856      -0.02797320      -0.07223939
C        9.66801053      13.68924712       3.49502192       0.25925030       0.40207226      -0.51553664       0.38187903      -1.36532903      -0.25866169       0.01235015      -0.24798563
C        8.33604402      13.37500649       2.77023734       0.13083196       0.46804869       0.43796037       0.86625588      -0.27214018       0.99233091       0.02545814      -0.14669335
F        7.43768569      13.02677983       3.69523311       1.08504354       0.35028022       1.16336400      -0.23486239       0.33732238      -0.23791137      -0.01221152      -0.26379123
F        8.47409721      12.35263979       1.94181352      -0.17760009       0.82742758       0.69923363      -0.12001710      -0.37230709      -0.55815917      -0.01065053      -0.26847336
F        7.90396773      14.44023675       2.08760999      -0.08311237      -0.50446846       0.65852159      -0.25242254       0.08208400      -0.09913819      -0.00875017      -0.28570539
C       10.87015712      13.84443380       2.57235537       0.25168955       0.51889771      -0.06953964       0.26438564      -0.85943675      -0.61812872       0.02344863      -0.15746105
F       11.18318435      12.62309672       2.00569901      -0.24817192      -0.23628745      -0.85806189      -0.05643481       1.04608631       0.43820688      -0.01424938      -0.28202465
F       11.94793934      14.27035605       3.24253436      -0.18837758      -0.20821764      -0.56094376      -0.44799602      -0.23798524      -0.29688463      -0.01144105      -0.25866506
F       10.62710001      14.70133585       1.56797119      -0.01089430      -0.30592034      -0.16295234       0.13027596      -0.07665343       0.09936493      -0.01145554      -0.27941161
H       10.15150305      11.88103059       4.12988884      -0.01640224       0.02770081       0.04820341       0.03032072      -0.16300023      -0.29329911       0.02354113      -0.05013537
H        9.54000836      14.61116788       3.97819370       0.09493117       0.02186269      -0.04970826      -0.25695643       1.42100537       0.77394682       0.01350939      -0.03285505
O        7.05119933       3.50350783       9.89881660       0.51425434      -1.25376121      -0.07589186       0.36070052       0.00345773      -0.54969013      -0.02631123      -0.02946532
C        6.66251358       3.84693752      11.18626398      -0.01690016      -0.25883534       0.18846931      -0.49034250       0.58062959      -0.46048415       0.01114333      -0.24825355
C        6.00308387       5.22755113      11.24387784      -0.51984584      -0.65737693       0.09138332       0.48921618       0.43572971      -0.28794715       0.02377396      -0.17148411
F        5.01625434       5.30023258      10.34606285      -0.57291366      -0.56071376       0.56838016      -0.10452321       0.07217237       0.10031821      -0.01218021      -0.27142593
F        6.82906969       6.26661748      11.00107162      -0.47948855      -0.98169218       0.27143025      -0.03544722      -0.41087309      -0.23435193      -0.01335285      -0.25973329
F        5.50471829       5.43940327      12.46372540      -1.27989598      -0.58665694       0.91383518      -0.44738349       0.01984999       0.45923191      -0.01046939      -0.28430426
C        7.76469715       3.68674950      12.24715063      -0.25815224      -0.41646220       0.45161153      -0.55821657      -0.16020219      -1.62299800       0.02410487      -0.13460511
F        8.49753540       4.80022534      12.33032565      -0.56970950      -0.22066518       0.62840527       0.69327754       0.23260526       0.25951883      -0.01056271      -0.27812386
F        8.51896287       2.68495218      11.82331293       0.19416617       1.79069340      -0.21823362       0.91416693      -0.10501134       0.36779094      -0.01232861      -0.21278074
F        7.30403725       3.39751974      13.43885690       0.36998524      -1.28245890      -0.27157524      -0.36159405      -0.05533122       0.94924951      -0.00936569      -0.26102978
H        7.69334073       4.08413920       9.45592594      -0.06384092       0.30098454       0.10923663      -0.24042609       0.07176317       0.62274188       0.02396766      -0.05181424
H        5.85413018       3.15376195      11.38568633       0.05057942      -0.11179294      -0.01913146      -0.04977602      -0.22766414       0.51842475       0.00970013      -0.03264299
O       11.89006556       3.06775245      11.25420184       1.03430193      -0.63065779      -0.23153512      -0.93553716      -1.04162443      -0.39401814      -0.02766527      -0.10776594
C       12.67019394       2.92981786      12.35866129       0.59521753      -0.63629649       0.75622798      -0.83635223       0.23532888       2.72716331       0.01055657      -0.19601054
C       13.31469118       4.27273353      12.71365072       0.60579492      -0.60725784      -0.01358938       0.48828781      -1.11563540       0.80125928       0.02429985      -0.12584628
F       12.34460235       5.16346883      12.98088283       0.03856984      -0.91398752       0.62727873       0.58776104       0.06136160      -0.30786204      -0.01231918      -0.28220645
F       14.06301194       4.67866736      11.68534492       0.13143607       0.21707499       0.55151858      -0.07232217       0.83402294      -0.02355778      -0.00998894      -0.27245522
F       14.10746790       4.16141489      13.80548165       0.97809651      -1.09360923      -1.45029216      -0.56837761       0.38138875      -0.54873866      -0.01253050      -0.25276476
C       13.62800988       1.75449014      12.25532156       1.29847021      -0.66203191       0.72874647       0.57844043       0.14815578      -1.21335936       0.02349048      -0.15506913
F       14.51423058       2.02439039      11.26693255      -0.20695840      -0.29296186       0.56299838       0.50138956       0.06354568       0.27179164      -0.01483037      -0.25165930
F       13.02952927       0.64985589      11.83487445      -0.25452842      -1.27383370      -0.03305261      -0.75877959      -0.40608370       0.40779406      -0.01288634      -0.24795306
F       14.27416897       1.47967971      13.38946530       1.46430031       0.02263924      -1.19225988      -0.03480995       0.13300189      -0.09954236      -0.01018042      -0.27740407
H       12.20273638       3.80609050      10.76823045       0.18091908      -0.02163003       0.11621928       0.34469011       1.06547904      -1.21383142       0.02153763      -0.02731609
H       12.01211482       2.76688587      13.24601944       0.01511771      -0.17517435      -0.04546187       0.33385420      -0.33789784      -0.47701630       0.01121508      -0.02727950
O        6.64228374       7.39589623       8.10964740       0.10486823      -0.83903504      -0.09337435      -0.76660311      -0.37848014       0.53360742      -0.02463683      -0.10981688
C        7.18536201       7.76712988       6.90937681      -0.15842245      -0.33672346      -0.04875097      -0.64322221       0.91355217      -0.94106001       0.01395058      -0.23895028
C        6.53335733       9.09249171       6.42039879       0.20173047      -0.04134399      -0.23124801       1.85232687       0.12046409       0.33883515       0.02442553      -0.11378741
F        6.63671155      10.04234117       7.38631814       0.41548514      -0.39153513      -0.61902685      -0.34456483      -0.65230519      -0.49393207      -0.01364066      -0.26937631
F        5.26222181       8.86246533       6.16189153       0.02835020      -0.15773689       0.73522875      -0.79261732       0.41108093      -0.34638086      -0.00744902      -0.27518708
F        7.17597186       9.59825549       5.33894160       0.34409877      -1.82551115       0.63335000      -0.70914632      -0.41377485       0.39517805      -0.01204156      -0.26056907
C        7.13172039       6.62588651       5.88513529      -0.27690453       0.11001621       0.12283181       0.99562287      -1.08369696      -0.35739902       0.02486261      -0.13367893
F        5.92459906       6.10818884       5.62166539      -0.95844388       2.32494233      -0.52034964       0.19993804       0.54624456       0.27897233      -0.00766981      -0.26420438
F        7.87170005       5.60474967       6.43524415      -1.08184660       0.13307883       0.53394344      -0.44152045       0.65260744      -0.57001591      -0.01454910      -0.25009343
F        7.70586565       6.95600571       4.70047755      -1.87069886      -0.55566512      -0.25561794      -0.38436300      -0.12855352       0.88651240      -0.01120035      -0.25461102
H        5.68234885       7.31761082       7.99369831       0.01923056       0.14976468      -0.22012801       0.11216062      -0.12104808       0.26829639       0.02479792      -0.03325450
H        8.21704078       7.97113698       7.07198525      -0.08972280      -0.13108299      -0.02752514       0.96452856       0.14218266       0.03360977       0.01279435      -0.03446475
192
Lattice="15.26325868153299 0.0 0.0 0.0 15.26325868153299 0.0 0.0 0.0 15.26325868153299" Properties=species:S:1:pos:R:3:momenta:R:3:forces:R:3:charge:R:1:energies:R:1 Built=T with=T Packmol=T charge=0 spin=1 external_field="_JSON [0.0, 0.0, 0.0]" energy=-19.88198471069336 stress="-0.00106423266697675 0.0014720127219334245 8.88264003151562e-06 0.0014720127219334245 0.0026814027223736048 2.3291719116969034e-05 8.88264003151562e-06 2.3291719116969034e-05 0.0010449038818478584" dipole="-0.26430729031562805 -0.6923542022705078 0.5095123052597046" free_energy=-19.88198471069336 pbc="T T T"
O       14.12923253       6.21346831       7.49787898      -0.52368281      -0.34210603      -0.50976807       0.49606642       0.88967335       0.64633489      -0.02848041      -0.13498937
C       13.51097026       5.08511115       7.06077165       0.07394655       0.51987575      -0.38787169      -0.61793792      -1.22749639      -0.92307085       0.01183341      -0.19988792
C       11.98931592       5.15057965       7.39838777       0.57059750      -0.26743207       0.27365959       0.89232522       0.53267473       0.13793144       0.02357990      -0.11718061
F       11.56279372       6.24318350       6.78634669      -0.07409510       0.07601544      -0.28462322      -0.85060936       0.39505029      -0.74910676      -0.01241507      -0.23859733
F       11.80006899       5.38461913       8.70307613       0.97998630      -0.87568818      -0.71242224       0.11997107      -0.28927678       0.81889999      -0.01064763      -0.28419062
F       11.24407428       4.10498159       7.07215805       0.78819022      -0.64660114      -0.91811671       0.00905050       0.02343252      -0.43785110      -0.00868750      -0.25437182
C       14.17131565       3.82319111       7.64878842       0.14856513      -0.05829385      -0.06126924      -0.04134814       1.18850684       0.12938285       0.02469822      -0.07839046
F       14.63247528       4.18370851       8.88846491      -0.55707583      -0.12869377      -0.77324830       0.42763892      -0.68872499      -0.52326703      -0.01079980      -0.25449097
F       15.12077609       3.31656602       6.87705528      -0.44522495       0.24894906      -0.34073218       0.91747141       0.46994331       0.19403964      -0.00903022      -0.24680926
F       13.32019434       2.85747762       7.82102125       0.00882526       0.84514186      -0.25488398      -1.27946711      -1.36271572       0.56096029      -0.00787668      -0.20927761
H       14.24156065       6.13262350       8.45963658       0.06807096       0.06462752       0.00086938       0.03805140       0.29761592      -0.22864427       0.02260525      -0.02438589
H       13.59799251       5.07486183       5.95898240      -0.04871075       0.15264444      -0.07291267      -0.14653562      -0.25123259       0.42995355       0.01247292      -0.04247759
O        2.29595150      10.04887675       2.49533819       0.25858284       0.63376724      -0.09073627      -0.62992257      -0.22027199      -0.51270527      -0.02679725      -0.12233994
C        3.30288959      10.96379603       2.77077995      -0.18442516       0.15840904      -0.39706160      -0.03901376       0.31124377      -0.85710174       0.01289056      -0.22296220
C        3.00258065      12.33617082       2.11948371       0.17123703      -0.44932073       0.56298508       0.34752303       0.04642840       0.05806178       0.02468285      -0.11249872
F        1.71160810      12.71091651       2.16702068       0.32273405       0.31638429      -0.32244966       0.65181613      -0.12937979       0.76419747      -0.01110831      -0.26087749
F        3.28991642      12.27553572       0.82341618       0.68573047      -0.24836331       0.74061139       0.17467752      -0.13198476      -0.93704700      -0.01068717      -0.24469987
F        3.80923383      13.27675169       2.64199823       0.11375936       0.64432717      -0.88701642      -0.68394780       0.00724138       0.17835414      -0.01051076      -0.24779761
C        4.61771463      10.36764083       2.23977900       0.23328807       0.19654941       0.89064551       0.21871646       1.09281349      -0.40111655       0.02486697      -0.12743235
F        4.42226449       9.67749929       1.10529919      -0.22487878       0.40801264       0.34434982       0.17191194      -0.16901924       0.50370079      -0.01000114      -0.25948340
F        5.10505203       9.59828484       3.19098183      -0.15594837       0.57864099      -0.14495420       0.34923148      -1.11926389       0.23497047      -0.01039234      -0.24149343
F        5.55636017      11.28908021       1.97853754      -0.10045928       0.45362321      -0.80540780      -0.02815846       0.12758711      -0.04036872      -0.01222208      -0.25674179
H        2.22585856       9.96670200       1.51873878      -0.04948098      -0.00392697      -0.05465909       0.14642777      -0.02740902       0.60433751       0.02218385      -0.05264005
H        3.48045483      11.05404473       3.83175048      -0.16106924       0.01948400       0.06046368      -0.48143363       0.22039667       0.39160290       0.01200410      -0.04541124
O        7.86128833      13.69380468      14.38159605      -0.65730438       0.08270326      -0.48621089       0.10428303      -0.07015786       0.61162233      -0.02742269      -0.07296285
C        8.29526728      14.00050424      13.10694185      -0.19462809       0.31967616       0.01080802      -1.01727796       0.76723695      -0.15726604       0.01196835      -0.21576998
C        9.72817847      14.51171150      13.02458709      -0.53156606       0.07353006       0.04415801      -0.09257934      -1.08515298      -0.68579221       0.02438516      -0.13430183
F       10.44068444      13.97860512      14.00726081      -0.82978446       0.05395406      -0.80154956       0.45725214      -0.16610973       0.24548487      -0.01210627      -0.25827783
F        9.81738490      15.82416031      13.12736820      -1.62956300      -0.36606074       0.01099175       0.22358170       0.72552675      -0.07876514      -0.00989304      -0.27345634
F       10.26725852      14.09938714      11.84295879      -0.37834927       0.16923014      -0.34779138      -0.08908793       0.54585314       0.67496049      -0.01422636      -0.25271410
C        7.25681497      14.93982971      12.42464948       0.08866327       0.51885547       0.53484895       0.18381187      -0.01297221      -0.00809695       0.02392604      -0.14453650
F        6.74949252      15.81258177      13.31720457       0.21738042      -0.46505631       0.00130793       0.41564637       0.12064075      -0.47493944      -0.01072361      -0.26781762
F        6.21228012      14.19719996      12.00598943       0.92175176       1.12900347      -0.39834153       0.07303789       0.08330649      -0.09387064      -0.01391171      -0.27565160
F        7.75190859      15.59628187      11.35395355      -0.31186139      -0.19793044       0.21116552      -0.42500132      -0.42166013       0.71327209      -0.01132644      -0.25109646
H        8.05671457      14.38902974      15.03114196      -0.11233408       0.01899537      -0.00802604      -0.08234724      -0.10085279      -0.32787323       0.02268456      -0.05582556
H        8.22354336      13.09848406      12.53474699      -0.06722209      -0.01750966      -0.06516701       0.25364387      -0.67253965      -0.32877958       0.01267304      -0.02655929
O       14.72680273       9.38438541       1.61713764       1.02133592      -0.03939777       0.44868092       0.05285081       0.13312246       0.83549374      -0.03174425      -0.12605633
C       13.64314544       9.77671934       2.43353861       0.31277025       0.59609151      -0.92110829       0.20906928      -0.97988009       0.69890761       0.01163498      -0.23874529
C       14.03615631      11.00714854       3.29542842       1.08558612      -1.04996753      -0.09718758      -0.70926428       0.04804733      -1.32061315       0.02424797      -0.11819018
F       14.24596075      12.01784432       2.39716502      -0.48265437       0.37984544      -1.12184987      -0.13544188      -0.45232281       1.17995477      -0.01344696      -0.26051959
F       15.13570125      10.77742294       3.97902542       0.51294129       0.60627589      -1.31070270       0.97820604       0.01415072       0.13385093      -0.00902789      -0.25320446
F       13.12055049      11.37428680       4.20090941       0.71499625      -1.99686985      -1.19032256      -0.29364109       0.11279933      -0.53586161      -0.01050931      -0.27018949
C       13.10978168       8.56855871       3.27222795      -0.52229277      -0.01284806      -0.20236824       0.01110198      -0.15648055      -1.30378509       0.02427183      -0.11648312
F       13.95164896       8.19363266       4.22656773       0.92562150       0.90105888      -0.22684705       0.30670220      -0.53472006      -0.21072635      -0.00895632      -0.27595368
F       12.85367377       7.52369986       2.38739685      -0.55972315       1.83479544      -0.49878247       0.71713728       0.83799559       1.11851883      -0.01665542      -0.26635718
F       11.94988002       8.81993294       3.85457066       1.10703533       1.63653790      -0.92929298      -0.53120822       0.40474874       0.17955889      -0.01055783      -0.25247052
H       15.53456857       9.28430985       2.17342046      -0.14076973       0.01427612      -0.19241991      -0.70589185       0.13051252      -0.30283925       0.02117574      -0.06532767
H       12.79138976      10.01016344       1.81150403      -0.10667284       0.05992402       0.00991822      -0.04070967       0.46506941      -0.39558789       0.01179110      -0.04581647
O       11.70029087       4.31554861       0.84206275       0.25238415      -0.75292010      -0.29877615      -0.63228589      -0.67608970      -0.15181607      -0.02747075      -0.12963293
C       11.42278231       3.17453614       1.60227367      -0.17086968      -0.78954834       0.54915501       0.65846372      -0.56871688       0.62710923       0.01156515      -0.18988329
C       10.22646952       3.30220036       2.56414212       0.33358636      -1.01916015       0.47461225       0.30961046       0.77054238      -0.40771478       0.02395752      -0.15146017
F        9.21797611       3.90761861       1.93709393       0.56083200      -0.55876832      -1.04575510      -0.03918523       0.38548234       0.03190921      -0.01022626      -0.26190841
F       10.56880130       3.99268689       3.65154172       0.60118611      -1.15489740       0.77575643      -0.26392633       0.43818974       0.35458386      -0.01077501      -0.27381569
F        9.76245959       2.12725720       2.96256025       0.10492037      -1.52013200       0.08210299       0.06647496      -0.82699442       0.17005314      -0.00949114      -0.25571361
C       12.71896225       2.77096156       2.37961332      -0.66501241      -0.31004188      -0.61236456      -1.47046590       0.63421106      -0.81754637       0.02417378      -0.11434887
F       13.16976661       3.85112505       3.00700932      -0.38327241       0.25137996       0.42668668       0.53706914       0.79994285       0.69729686      -0.00965771      -0.26540720
F       13.67211882       2.38047623       1.56081579      -0.40507524       0.07820702       1.67612439       0.45952743      -0.48137197      -0.59012151      -0.00977543      -0.26668134
F       12.48355431       1.83444713       3.27000913       0.14597819       0.36071113       0.29021557      -0.00782740      -0.74235892       0.60160398      -0.00879415      -0.25761518
H       12.22086299       4.93250788       1.36486389      -0.20848878      -0.03419133       0.21548508       0.04149099       0.17894155       0.17662621       0.02277556      -0.04937898
H       11.11355697       2.31886149       1.00580904      -0.00238956      -0.10218899       0.00287799       0.34279376       0.12353739      -0.69781244       0.01155001      -0.03657410
O        9.66236058       7.70714229      12.95162305       1.14814027      -0.33588710       1.31653930       0.55412203       0.48751202      -1.01407611      -0.02874277      -0.10076454
C        9.35579949       8.91860922      13.53630590       0.27631904      -0.35636093       0.34498976       0.13627858      -0.26870522       0.05445075       0.01102843      -0.23477581
C        9.98517659       9.02568192      14.94897764       0.19037628      -0.59231455      -0.36540156      -0.68321127       0.85201001      -0.54602796       0.02423640      -0.11308423
F       11.03412417       8.22049683      15.07846675      -1.49342103      -0.28339233       1.15299780       0.78753853       0.49293447      -0.27934974      -0.01217964      -0.26191038
F        9.15548823       8.63856582      15.90446850      -0.36179605      -0.93940138       0.10863189      -0.70152986       0.15876278       0.59884351      -0.00867836      -0.25521940
F       10.31338143      10.33359707      15.15870881       0.13510953      -0.63538121       0.33396425       0.23113623      -1.02306986       0.29660955      -0.01485138      -0.26765704
C        7.84659327       9.17884615      13.48300865       0.51950013      -0.10110083       0.28497487       0.91830575       0.78053176       1.55542612       0.02538883      -0.14044103
F        7.11759345       8.22951655      14.08474964       0.69461929      -0.27141895       0.07370796       0.02809748       0.11786110      -0.30113220      -0.00964278      -0.29198849
F        7.48368601       9.30470612      12.23210729       0.44964313       0.38025494       0.88183609      -0.63497967      -0.08955224      -0.81360346      -0.01019724      -0.25654426
F        7.62495082      10.36237432      14.11592775       0.59680965      -0.73642024       1.22977735      -0.35700789      -0.37532663      -0.19786610      -0.01399016      -0.27146709
H        9.30854366       7.01752565      13.48226768      -0.03118053       0.09414461       0.03030809      -0.53829592      -1.30535781       0.66217154       0.02318848      -0.03892612
H        9.78451746       9.69560417      12.91350854      -0.08350861       0.07421350       0.13715076       0.24141996       0.15897642       0.02267096       0.00991303      -0.04283500
O        4.07110130       1.37691299      12.65444176       0.38736994      -0.01258757      -0.55395348       0.44412860      -1.18088913       0.28611022      -0.02249065      -0.01612186
C        2.88957861       1.78652250      12.05371588       0.18609090       0.54334401      -0.59581083      -0.52907991       0.70923185       0.47509369       0.01186909      -0.22866744
C        3.11373010       1.83279561      10.53888383       0.12933582       0.43380150       0.34771940      -1.00226724       0.16485074       0.26518241       0.02446127      -0.14303647
F        3.62817666       0.65264187      10.19222220      -0.52420151       0.46223470      -1.55024285      -0.07202265      -0.53518212      -0.46999872      -0.01108287      -0.25954458
F        3.95831517       2.75718405      10.13597469      -0.00647326       0.44309383       0.88240883       0.39195329       0.49419940      -0.13821657      -0.00809846      -0.24477397
F        1.94836300       2.02023878       9.85553009       0.53728561      -0.49043602       1.11793119       0.57840073      -0.20614702       0.35750604      -0.01447653      -0.28681684
C        2.47712778       3.15532471      12.74346774       1.09422144      -0.72833019      -0.16882916      -0.29367280      -0.78107494      -0.41036844       0.02472009      -0.08560005
F        2.99656862       4.24784053      12.12507769       0.50233211      -0.54382061      -0.05975775       0.07713658      -0.85910469       1.09022629      -0.01069009      -0.24996394
F        2.84863790       3.02593036      14.03957854      -0.70099917      -0.00468794      -0.14914623      -0.27444515       1.07227397      -1.09573448      -0.00980120      -0.23314461
F        1.13713547       3.33721361      12.71023650       0.99571979      -0.80635127      -0.05688673       0.89000821      -0.20552200       0.09482437      -0.01317302      -0.21606818
H        4.08130587       0.40685415      12.85627412       0.03845393       0.04308541       0.09737878      -0.11578347       1.30061579      -0.38938305       0.02392885      -0.03377762
H        2.04345902       1.11271231      12.23038674       0.18582553       0.01980919      -0.10612608       0.07949863       0.02363186      -0.03781790       0.01159667      -0.04884255
O        2.57887873       7.26202734      12.30281784       0.49700597       0.65201726      -0.03179661       0.30610415      -0.17679024       0.47165370      -0.02954804      -0.14519970
C        2.09068236       7.90645443      13.43003661       0.29675437       0.03886154       0.14776691       1.21588087       0.21204738       1.60803747       0.00895488      -0.22652811
C        2.77356086       9.27052054      13.62569269      -0.52884431      -0.62714172      -0.20455546      -0.48419720       0.22949778      -0.79519898       0.02356309      -0.15962134
F        2.62434812       9.93796455      12.46708132      -0.15873062      -2.03176120      -0.15302295       0.03178006       0.24156843       0.15841319      -0.01525828      -0.25730720
F        4.06689717       9.23019783      13.88977786      -1.06351687      -0.33249571       0.20245778       0.54962200      -0.47192553      -0.04707029      -0.00983492      -0.24791898
F        2.20170622      10.00878283      14.59664283       0.19594921      -0.49168922       0.24252374      -0.33557194      -0.09615082       0.05224418      -0.01075635      -0.27971613
C        2.15864479       6.99828284      14.69322387      -0.09956320      -0.33909664       0.06030740      -0.15548956       0.26098657      -1.09906816       0.02458086      -0.11125973
F        3.30278280       6.33677767      14.71484416      -0.36261685      -0.16245111       0.56747296       1.05962205      -0.17226367       0.38860887      -0.00704047      -0.26714543
F        1.20831266       6.09331605      14.55238980       0.04996475      -0.48924416       0.57786446      -0.97604346      -0.83232653       0.06962609      -0.01337706      -0.24441099
F        1.96071848       7.59386346      15.87370643      -0.80243339       0.52241471       1.26881203       0.24013183       0.37527692      -0.09188513      -0.00913852      -0.27875480
H        3.43347818       6.87273731      12.55799044       0.04735751      -0.03696750      -0.06792122      -0.13117155      -0.04926182      -0.35583466       0.02215911      -0.04413682
H        1.06351397       8.10706946      13.32172642       0.29155740       0.02239481       0.14921583      -1.18826997       0.35840744      -0.45096207       0.00828906      -0.02862764
O        4.58395043      16.47507136       7.44695465       0.76082126       1.78649211      -0.51776779       0.30763161      -0.59241575      -0.78952175      -0.02525196      -0.08366999
C        4.83958201      15.15545426       7.00113065       0.27326577       1.11141740       0.39639747      -0.30039343      -0.50182950       2.12771440       0.01142878      -0.21132083
C        6.27540152      14.82882397       7.44362398      -0.60800167       0.58152917       0.41393284       0.94203794       0.64015090      -0.00029080       0.02443621      -0.15763171
F        6.36304909      14.57563850       8.77249215      -0.37787834       1.77884073      -0.30455001      -0.30843270       0.15967295      -0.71285021      -0.01488760      -0.27275866
F        7.04020071      15.93050093       7.19555575      -1.17707294       0.47629052       0.54050577      -0.17322148      -1.13067269       0.09979466      -0.01257476      -0.24728420
F        6.81129338      13.76324819       6.80758407      -0.81938101       0.82101491       0.07291724      -0.31580538       0.72941065       0.30974126      -0.01217110      -0.25452742
C        4.60757795      14.90831268       5.52040420      -0.39276585       0.63759726       0.56207993      -0.46935979      -1.35832024       1.03527808       0.02510709      -0.13306509
F        5.47549885      15.40099018       4.68270560       0.30075926       0.67705777       1.55651504       0.64974260       0.63672477      -0.51316017      -0.00645787      -0.26329929
F        3.39593157      15.35254503       5.23529125       0.55329483       1.58613588      -1.13978801      -0.53376108       0.14024642      -0.57568824      -0.01010256      -0.26263106
F        4.62581150      13.54620801       5.36983860      -0.16403472       2.17311760      -0.22308206      -0.25196081       0.46822870      -0.26557100      -0.01646352      -0.24433076
H        3.75425582      16.50582113       7.92446382       0.12327502       0.17752730       0.15772631      -0.22274025      -0.13776670      -0.05151217       0.02064431      -0.04811586
H        4.17589572      14.40232748       7.53710878       0.10604661       0.07747718       0.10913954       0.66684926       0.86991286      -0.79372728       0.00824638      -0.04055359
O       12.50114990      14.10901842       9.12170300      -0.14852396       0.71747718      -0.11333150      -0.17706954      -1.48509562       0.87885022      -0.02859554      -0.03237968
C       11.61560920      13.14118970       8.60721042       0.35221194       0.33631579      -1.11040090      -0.34893245       1.33541524       0.48948485       0.01343854      -0.16846925
C       12.24636129      12.65494340       7.33338254      -0.71759442       0.71767864      -0.66371737       0.04588562      -0.10812394      -1.63394594       0.02376608      -0.13998201
F       13.33171297      11.97605214       7.66996986      -0.07352617       2.20663902      -0.56111698       0.65949100      -0.74070334       0.21265715      -0.01430496      -0.23383397
F       12.71645716      13.61324193       6.47348154      -0.90294275       0.63242341      -0.15805514      -1.11056876      -0.39779910       0.70692974      -0.01416625      -0.28144011
F       11.42516104      11.82257584       6.66456000      -0.78115496       0.55940300      -0.59891315       0.28280774       0.25176513       0.08929765      -0.01266478      -0.25375372
C       10.11152629      13.58341264       8.55811724       0.40074860       0.04944643       0.30910155       0.58599991      -0.20451139      -1.12058926       0.02571775      -0.11448557
F        9.72515450      13.85867245       7.30111662      -0.43024181      -0.05086904       0.96103402      -0.02322982      -0.00687834       0.04678447      -0.01101925      -0.25506884
F        9.90124912      14.67272621       9.27442508      -0.11088069       0.18588556      -0.36393275      -0.04436973       0.18416971       0.32983577      -0.00917916      -0.24778365
F        9.33053773      12.58880204       9.01255995       0.59033588       0.30594145      -0.86721910       0.09532724       0.21200059       0.05737566      -0.01300829      -0.27370968
H       12.28954040      14.97412852       8.81428378      -0.21866633       0.00215153       0.09508729      -0.41676962       1.08183837      -0.46526420       0.02401000      -0.04933370
H       11.57090490      12.27403151       9.25399321      -0.12387979       0.09033410       0.04751642       0.47450656      -0.12906344       0.38395578       0.01128953      -0.02517618
O       15.13822879       8.97091339      11.73919144      -0.52327898      -0.42654985       0.16127491      -1.28411484      -0.50898099       0.67636925      -0.02562480      -0.10816551
C       13.76609554       9.14766215      12.04227024       0.09856355       0.15568193      -0.59503114       1.23436499      -0.61113018      -0.20231467       0.01368084      -0.25799778
C       12.84674999       8.89065709      10.85907923      -0.12054935       0.19538369       0.29737551       0.39308894      -0.42329854      -1.48472452       0.02532041      -0.13334899
F       12.83291345       7.58078411      10.51709756      -1.28294620       1.40345081      -0.10652472      -0.07184781       0.58969253       0.39250076      -0.01248855      -0.27288261
F       13.25610027       9.55150511       9.72288508       0.19763730       0.58679080       1.21612628      -0.31353867      -0.34944946       1.09854805      -0.01307677      -0.27608228
F       11.61222286       9.28048364      11.15512573       0.39583228       0.04359802      -0.25319420      -0.19829315      -0.22847778      -0.47877359      -0.00815597      -0.21878327
C       13.49164274      10.52689128      12.60528324      -0.06259372      -0.33192824       0.25354645      -0.01010700       0.56612992       0.43478298       0.02501964      -0.14368695
F       13.46215810      11.47223178      11.63795587      -0.01338292      -1.08214940      -0.00889634       0.25760856      -0.29934722       0.47754329      -0.01122017      -0.27060682
F       14.43687899      10.86645297      13.50925024      -1.18087665      -0.84070268      -0.24214613      -0.84366202      -0.11458743      -0.54273856      -0.01154008      -0.27204219
F       12.27698300      10.52345618      13.18532489      -0.27284463      -0.89449533      -0.74006715       0.50647467       0.36979645       0.42150545      -0.01079303      -0.22714870
H       15.35117741       9.52408737      11.00820193      -0.06276631      -0.28676930      -0.08075201       0.58218241       0.83784276      -1.15171278       0.02187167      -0.05397530
H       13.56208999       8.37551074      12.78421399      -0.15602446       0.05110489      -0.16253694      -0.37946746       0.24598648       0.18997154       0.01301507      -0.04499352
O        1.77284185      13.25833647       7.58083311      -0.02292076      -0.23719163       0.33724622       0.68010634       0.24986735       0.31655639      -0.02457009      -0.12761642
C        2.13567917      12.59240832       8.75002833      -0.31925914      -0.26489548       0.01651262       0.13811541      -0.81896091       0.32040864       0.01213513      -0.22375411
C        2.18780493      11.05726527       8.49906160       0.36531781       0.21495783       0.27413736      -0.80884624       1.28842854       0.27062660       0.02425919      -0.10272891
F        2.94809694      10.91026277       7.43680858      -0.91842435      -0.23993161      -0.60610108       0.10806774      -0.80106324      -0.95329380      -0.01026302      -0.24654597
F        0.93406193      10.58801743       8.31519387      -0.10579215       1.10320115       0.22343885       0.11591860      -0.08530626      -0.72646505      -0.01145688      -0.28899610
F        2.68601229      10.33793778       9.47806301       0.32213632       1.42953653      -0.95358203       0.73038697      -0.27957091       0.73141867      -0.01024674      -0.24058999
C        1.18654464      12.89802321       9.90743882      -0.18692973      -0.48797966      -0.17046703       0.32321256      -0.21249330       0.48781818       0.02442177      -0.11069287
F       -0.08405100      12.85611554       9.50798919       0.07596238      -1.21821127       0.81690846       0.04457894       1.09163034      -0.16901380      -0.01017380      -0.24428859
F        1.53990324      14.07915551      10.48145928      -0.11542455      -0.31174746       0.93433039      -0.88441432      -0.41354576      -0.45557922      -0.01310311      -0.26729423
F        1.24866021      11.96909026      10.86744092       0.27798341      -0.04453359      -0.93094174       0.48139453      -0.09963831       0.45288616      -0.01188162      -0.24094635
H        0.84388025      13.11893799       7.39453966       0.07912563       0.06042704      -0.06323835      -0.49454349      -0.11196923      -0.05450501       0.02397703      -0.05296443
H        3.16590543      12.86501254       9.03469089       0.03348006      -0.05561106      -0.01436946      -0.44244894       0.14874992      -0.07914300       0.01240102      -0.04907216
O       10.04828673      12.84483780       4.50268815       0.33925649       0.79495450      -0.42610276      -0.24375157       0.01120088      -0.28999788      -0.02784654      -0.07207214
C        9.73259773      13.77046380       3.49550942       0.41982940       0.32329408      -0.18392096       0.25554958       1.09512722       1.47720516       0.01266285      -0.22631709
C        8.39329113      13.45940371       2.81122276       0.51691768       0.22199826       0.80650573       0.55814523      -0.60795099       0.38158885       0.02558261      -0.16120669
F        7.50316751      13.10601314       3.74294747       0.99012602       0.53115655       1.03360848      -0.09135397       0.39199752      -0.23480155      -0.01218939      -0.26509744
F        8.51299118      12.43600664       1.96686813      -0.22171785       0.64433659       0.47782901      -0.04137997      -0.31893650      -0.26869541      -0.01152363      -0.26703173
F        7.94113112      14.50386799       2.11477715      -0.22716562      -0.36938360       0.60605717      -0.25757313       0.34683689      -0.01246704      -0.00911533      -0.28357023
C       10.93792928      13.92562447       2.57546533       0.24303718      -0.13072820      -0.44407795      -0.31219798      -1.51910877      -0.76435310       0.02381110      -0.14903352
F       11.23464405      12.69043487       1.99741585      -0.27484624       0.37792121      -0.57366466      -0.03432396       1.30303288       0.61511785      -0.01545747      -0.27656645
F       12.00330537      14.33822736       3.24335771      -0.30957544      -0.27879227      -0.66895651      -0.05217230      -0.08345062      -0.17518295      -0.01010951      -0.25668946
F       10.68316106      14.77020321       1.57216948       0.06863659      -0.26890778      -0.16025412       0.18200517       0.18260011      -0.10036311      -0.01123489      -0.28046304
H       10.19706433      11.95432232       4.14310340      -0.02211414       0.07325161      -0.06096047      -0.04658963       0.34668967      -0.09726073       0.02381504      -0.04941697
H        9.61422088      14.77438939       4.01864439       0.03446028       0.08180426      -0.00447934       0.03550555      -1.16410267      -0.60121989       0.01319196      -0.03563137
O        7.10806703       3.48843903       9.94605917       0.74546307      -0.83971758      -0.07025116      -0.10254413       0.92165983       0.96860290      -0.02649173      -0.09783974
C        6.68940854       3.85764675      11.24779729      -0.40551381      -0.31345037      -0.00995727      -0.92394519      -0.73959959      -0.23479886       0.01189276      -0.22384609
C        6.01714483       5.23341355      11.30577486      -0.35307596      -0.37075158       0.12751113       0.10463150       0.61037779       0.39265385       0.02476898      -0.15711133
F        5.02720441       5.31369562      10.41541777      -0.58870781      -0.53497234       0.62952730       0.01838341       0.03020567       0.16602862      -0.01159329      -0.26304650
F        6.85141716       6.27074160      11.06423612      -0.56044577      -1.23495228       0.19167516      -0.26240808      -0.59587514      -0.09136224      -0.01258279      -0.25663593
F        5.49887993       5.45220194      12.55265490      -1.33220270      -0.63117712       0.84485549       0.17663455      -0.20079061      -0.65729928      -0.01225495      -0.28688923
C        7.79031163       3.69158222      12.31210987      -0.42211569      -0.19219580      -0.36944832      -0.03586648       0.93449283      -1.32373548       0.02423784      -0.13136674
F        8.53056570       4.82073757      12.41261008      -0.34140925      -0.14207919       0.76557062       0.17586097       0.05344100       0.27868545      -0.01265936      -0.27935922
F        8.57487250       2.74246694      11.88108642       0.71124470       1.50204834      -0.09991500       1.10580897      -0.90231073       0.09858605      -0.01135017      -0.20047975
F        7.34890332       3.38162210      13.50841434       0.14775645      -1.30868430       0.21825637      -0.45912433      -0.02831904       0.74133277      -0.00952959      -0.26332867
H        7.65118410       4.21411202       9.62173404      -0.22120988       0.14403343       0.27378732       0.25650236       0.01403452      -0.40566725       0.02338581      -0.04128303
H        5.91567133       3.11428183      11.48986205       0.09536364      -0.06644272       0.17362306       0.11660940       0.31856537       0.18756986       0.00957395      -0.04277593
O       11.98159721       3.06271192      11.30184189       1.05089572      -0.52508836      -0.51252604       0.76342320       0.92553401      -0.40234998      -0.03026737      -0.09927275
C       12.75377977       2.91991165      12.47102009       0.32640299      -0.62500477       1.27838152      -0.21150570      -0.19766852      -0.73029017       0.01066790      -0.24790920
C       13.40952236       4.26125640      12.78732154       0.53392106      -0.96632563       0.35467906      -0.73219532      -0.24758701       0.53690720       0.02460878      -0.12734817
F       12.41487056       5.16601225      13.06257187       0.46147477      -1.00857430       0.45483318       1.07649636      -0.45208722      -0.34231600      -0.01493650      -0.28172907
F       14.13888834       4.71318340      11.75999382       0.05119786       0.52477141       0.50788849      -0.29742196       0.34697276      -0.06342079      -0.01001020      -0.27466345
F       14.20366493       4.15735329      13.83838286       0.82569866      -0.89424310      -1.47681767       0.05119741       0.36867470       0.47009727      -0.01051364      -0.24012148
C       13.74892467       1.73916570      12.33166679       0.93333821      -0.50521530      -0.20017202      -1.84073579       0.43980631      -2.14936471       0.02364549      -0.12254684
F       14.58859834       2.02745740      11.34094044       0.14315429      -0.29518335       0.57383219       0.89798182      -0.06546900      -0.26807979      -0.01300538      -0.25603086
F       13.08828952       0.62018088      11.89952409      -0.36641303      -1.19325541       0.30227722       0.24325925       0.61772931       0.87315714      -0.01599033      -0.26646835
F       14.38787963       1.48722352      13.43078634       1.63390667      -0.09257675      -0.90400076       0.67902243      -0.54202759       1.04782605      -0.00742556      -0.25965244
H       12.34968277       3.83881952      10.80279482       0.06294645      -0.15706999      -0.04318021      -0.57652050      -1.14024484       0.35363340       0.02155394      -0.03960462
H       12.09516399       2.66828732      13.27952254      -0.00472416      -0.26441368       0.00547671      -0.40429270      -0.02566599       0.60780990       0.01143885      -0.04884717
O        6.67399268       7.40689673       8.15073375      -0.27028419      -0.91045406      -0.06057115      -0.54565227       0.08976359      -0.39091328      -0.02580736      -0.13365608
C        7.21431740       7.80287293       6.93554624      -0.04964717       0.08868283      -0.35582628       1.45594215       0.64953685      -0.10754395       0.01350258      -0.20934878
C        6.59125356       9.13627710       6.45046251       0.84502700      -0.20576771       0.11704619       0.47206986      -0.74116004       0.94962895       0.02468229      -0.12122806
F        6.68005415      10.08092061       7.40606654       0.27561649      -0.64429900      -0.80487984      -0.17036724      -0.35639352      -0.22795454      -0.01283691      -0.26959765
F        5.28647323       8.90739557       6.21068445      -0.20659222       0.06873316       0.55562973      -0.01600091       0.49178225      -0.31642523      -0.00965459      -0.28200093
F        7.21840522       9.59958439       5.38382967       0.08100601      -1.88835119       0.60940406      -0.28707775       0.10254301      -0.50076354      -0.00920118      -0.25474185
C        7.16513954       6.65515413       5.91700401       0.02066149      -0.30988019      -0.05473283       0.11023535      -0.40948978      -0.25392389       0.02460601      -0.15094768
F        5.93193116       6.20245456       5.63990781      -0.86317892       2.45148696      -0.30996101       0.13942800       0.03317602       0.55282938      -0.00876569      -0.26405826
F        7.88175623       5.64131664       6.47846142      -1.30816331       0.41474946       0.20104936      -0.45394090       0.40457207      -0.72684908      -0.01279407      -0.25533620
F        7.69653254       6.97724907       4.72376723      -1.89318313      -0.59641060       0.13878938       0.27959633      -0.06303304       0.59896481      -0.01072053      -0.25217628
H        5.72200196       7.40569792       7.98182810      -0.01115124       0.04279193       0.02704036      -0.22573557      -0.25992277       0.58060849       0.02393170      -0.02219777
H        8.30540997       7.97015618       7.09639081       0.10580558      -0.05494725      -0.04237501      -0.72373676       0.06434317      -0.13723786       0.01248977      -0.03574911
192
Lattice="15.342199614093367 0.0 0.0 0.0 15.342199614093367 0.0 0.0 0.0 15.342199614093367" Properties=species:S:1:pos:R:3:momenta:R:3:forces:R:3:charge:R:1:energies:R:1 Built=T with=T Packmol=T charge=0 spin=1 external_field="_JSON [0.0, 0.0, 0.0]" energy=-19.65663719177246 stress="-0.00021647772518917918 0.0011548607144504786 -0.000565645401366055 0.0011548607144504786 0.0024115398991853 0.00016214595234487206 -0.000565645401366055 0.00016214595234487206 0.0028036755975335836" dipole="-0.21360760927200317 -0.9342271089553833 0.5182607173919678" free_energy=-19.65663719177246 pbc="T T T"
O       14.19118855       6.24391660       7.52607175      -0.18985987       0.27029411      -0.27046524       0.62381512       1.32897735      -0.30376229      -0.02756438      -0.09155389
C       13.57789164       5.11823598       7.07482778      -0.19911403      -0.19089369      -0.56991817      -0.38191372      -1.28258240       0.61556852       0.01229813      -0.22123361
C       12.07959478       5.17219109       7.44442904       0.69739254       0.02392785       0.00417232      -0.43400997       0.55841553      -1.07675016       0.02352205      -0.13013275
F       11.61622205       6.27797871       6.81087652      -0.37695464       0.04436682      -0.47108836      -0.36210507      -0.48127288      -0.02804774      -0.01456639      -0.24829352
F       11.88692102       5.38814730       8.73545544       1.00749417      -0.99575269      -0.25514936       0.04907406      -0.21924360       0.90715832      -0.00883155      -0.28129345
F       11.32376691       4.11122417       7.08307022       0.91865257      -0.44788018      -1.03022344       0.53580832       0.76936716      -0.04833690      -0.01052232      -0.25056362
C       14.24839268       3.85340183       7.68437997      -0.01030313       0.53594294      -0.18778344      -0.59246480       0.81962085      -0.53831530       0.02475709      -0.08348272
F       14.69702502       4.19809378       8.91189712      -0.28506448      -0.40885785      -0.93965498       0.63174117      -0.42148376      -0.19834724      -0.00994347      -0.26016697
F       15.19345388       3.34290194       6.90515851       0.00926776       0.45850971      -0.22607748       0.80552554       0.45436469       0.30566901      -0.00907481      -0.25142467
F       13.38138120       2.88535926       7.85833796      -0.57254562       0.19103723       0.00120207      -0.91572559      -1.07362151       0.41947103      -0.00868624      -0.21489099
H       14.34453367       6.21751218       8.47065320       0.04533358       0.11814221      -0.07101656      -0.05649244      -0.10429394       0.38619173       0.02257361      -0.03829879
H       13.63281522       5.13619005       5.99754886      -0.07854443      -0.01904604       0.02731657       0.06111729      -0.37251192      -0.38350782       0.01304298      -0.04323987
O        2.31050820      10.11816147       2.50177396      -0.07962915       0.49398588      -0.22093126      -0.61334538      -0.22870567       0.47347468      -0.02602974      -0.13230999
C        3.31293175      11.02982016       2.76879600      -0.15621366       0.28902975      -0.22879919       0.00252985       0.22369066       1.05656219       0.01375628      -0.23803408
C        3.02808767      12.38686315       2.14932305       0.29761365      -0.08749285       0.24558225       0.13423392       1.26347899      -1.27362347       0.02499277      -0.11081781
F        1.73360178      12.78334992       2.17507781       0.71163159       0.17796262       0.08829073       0.88880956      -0.39354637       0.86987156      -0.01178952      -0.25726494
F        3.32538623      12.33141583       0.84145760       0.72485934      -0.34896967       0.34696374       0.00911776      -0.25253797      -0.66444486      -0.01216727      -0.23435794
F        3.82723329      13.36097511       2.63449630      -0.24956734       0.51889181      -0.72332873      -0.73570013      -0.43867421       0.45951173      -0.01087076      -0.24285252
C        4.65185559      10.44048688       2.27839829       0.23652347       0.71620113       0.33833685      -0.15358645       0.78514254      -1.47915339       0.02600979      -0.11975361
F        4.44057928       9.73764404       1.12446296      -0.12303808       0.39577386       0.73600045       0.21878828       0.12693498       1.01077926      -0.01244177      -0.25183764
F        5.13022322       9.65571819       3.20616818       0.07221015       0.04157903       0.06015480       0.48460448      -0.88816726       0.43173638      -0.00897552      -0.24549460
F        5.58193970      11.35935697       1.96870592      -0.15338317       0.44626003      -0.70815793      -0.14898819      -0.08758789       0.38171166      -0.01176997      -0.25481761
H        2.23332397      10.01288041       1.55594672       0.02563956      -0.03216824       0.03070959       0.09415935      -0.16192034      -0.79533607       0.02176708      -0.05236920
H        3.37472279      11.13975784       3.86825347      -0.30295246       0.08151121      -0.07698256       0.02742461       0.04099110      -0.51112044       0.01229249      -0.04773864
O        7.88266796      13.76604091      14.44485253      -0.59763775      -0.03200460      -0.29665815       0.11339732      -0.43686342       0.03153252      -0.02696537      -0.08186311
C        8.31983436      14.08706064      13.17032603      -0.67554269       0.22685862      -0.27693141      -0.70864648      -0.79978931      -0.68189758       0.01221910      -0.20625508
C        9.75644319      14.57905708      13.08570923      -0.53259181      -0.41207855      -0.35333652       0.04627776      -0.63979322      -0.74111199       0.02453297      -0.13916121
F       10.47628580      14.05117175      14.06090765      -0.59241725      -0.03543893      -0.64404763       0.43185860      -0.19314636       0.31064349      -0.01184177      -0.25773370
F        9.82776667      15.90120078      13.19505249      -1.47946778      -0.02433328      -0.02871385       0.33013859       0.49220562      -0.09676939      -0.01062099      -0.27534473
F       10.30944591      14.18041720      11.90019927      -0.48143417       0.46016736       0.05263274      -0.29832184       0.58835375       0.84784800      -0.01438936      -0.25282326
C        7.30019809      15.03549685      12.50746052       0.19380520       0.31791787       0.29693632       0.14806372      -0.72673464      -0.87817800       0.02374995      -0.14584410
F        6.79205805      15.88461712      13.38436842       0.35220501      -0.23300210      -0.08461134       0.16285667       0.76487392       0.10381071      -0.00906484      -0.26405820
F        6.26783739      14.29969916      12.05749281       0.85146906       1.08912535      -0.40890867      -0.35633379      -0.23426251       0.02713770      -0.01493555      -0.26662725
F        7.78196529      15.67007665      11.42268609      -0.42968473      -0.29415600       0.55457067      -0.02602365       0.03786786       0.62804759      -0.01187885      -0.25401032
H        8.03761272      14.47042496      15.07755747      -0.12420489       0.05553132      -0.06958291       0.03182717       0.31762445       0.14912125       0.02266297      -0.05517975
H        8.26560122      13.14858277      12.57208630       0.05622065       0.06340426       0.02232515       0.13655873       0.58737767       0.41064152       0.01254791      -0.02981099
O       14.82291388       9.43402557       1.63665312       0.22402705       0.10652503       0.19907172      -0.37553620       0.05342276       0.01772012      -0.03136949      -0.11560611
C       13.72634762       9.83947775       2.41647712       0.27272656      -0.02638815      -0.51116533      -0.08241320      -1.31303370       0.93640393       0.01155587      -0.22508417
C       14.14165021      11.02721904       3.29212481       0.45069613      -0.63751349      -0.92188044      -1.51580644       1.38729596      -1.63420820       0.02401745      -0.10309008
F       14.30658902      12.08540944       2.38917532      -0.51470037      -0.00939533      -0.42598685      -0.01723691      -1.02607083       1.49911571      -0.01637929      -0.25084215
F       15.23504394      10.84832586       3.96735938       1.14252061       0.54776699      -1.16770541       1.31704640      -0.18037342       0.24762422      -0.00724046      -0.24243546
F       13.20525094      11.38210398       4.18878718       0.59342223      -1.94410004      -1.41254021      -0.19605912       0.07354316      -0.41285330      -0.01148512      -0.26889527
C       13.16309232       8.61510146       3.26726789      -0.05447152       0.22371527      -0.84286479       1.56010461       1.07945883      -1.02439845       0.02416431      -0.09415144
F       14.04778072       8.25608906       4.23969313       0.85469864       0.66019212      -0.50885326      -0.53458738      -0.39811039      -0.95024693      -0.01139527      -0.28403729
F       12.90989075       7.61359034       2.39352505      -0.24856980       2.02371119      -0.01089114       0.52421027      -0.08117040       0.76155424      -0.01316285      -0.27011052
F       12.03511262       8.91014419       3.85288498       0.65393654       1.79404342      -0.70427962      -1.08519745       0.26225227       0.59646034      -0.00946848      -0.24434903
H       15.62888163       9.33444726       2.17875450       0.22909344      -0.00834903       0.20730452      -0.51041067       0.11896378       0.05533794       0.02138206      -0.06638014
H       12.85409580      10.13234516       1.80025018       0.16597762       0.19161916      -0.05726758       0.75209862       0.05158309      -0.01077446       0.01144961      -0.05487760
O       11.76480111       4.30975009       0.84035879       0.03285819      -1.06476683       0.03113527      -0.40218866      -0.66887331       1.24383724      -0.02839350      -0.12069688
C       11.48030115       3.15331835       1.63257239       0.06070205      -1.00532225       0.36873528       0.26555941      -0.02698088      -1.17806447       0.01356812      -0.22487247
C       10.29266103       3.28661337       2.59213114       0.23533455      -0.57722447       0.23821063      -0.63840699       0.75967884      -0.48975438       0.02529905      -0.13986194
F        9.28197792       3.91420266       1.92233417       0.77017012      -0.54880874      -0.79544846       0.80948639      -0.28688622       0.89433575      -0.01131161      -0.25329790
F       10.63653219       3.98513226       3.69108736       0.38042687      -1.06477672       0.75368904      -0.59454161      -0.07515366      -0.42940122      -0.01000986      -0.26076573
F        9.81639084       2.09560353       2.98076398       0.17669374      -1.68850910       0.12340537       0.25453541       0.17331327      -0.03008312      -0.00910935      -0.25474307
C       12.74820606       2.78056218       2.36724887      -0.94921669       0.08287932      -0.38501570       0.54349375       0.69383371       1.63893664       0.02462464      -0.12329362
F       13.22958933       3.88068654       3.03608679      -0.32735959       0.42178823       0.54399948      -0.30862153      -0.05318268      -0.17841861      -0.01303323      -0.26285157
F       13.73560767       2.39152615       1.60689737      -0.16117584      -0.17298580       1.21511066       0.35929668      -0.45208943      -1.10259819      -0.00870811      -0.24490589
F       12.55123622       1.84910090       3.29736666       0.07122220       0.07281322       0.47275885      -0.29018623      -0.33822507       0.09744781      -0.00982117      -0.25040284
H       12.16971643       4.94557582       1.46214226      -0.28316260      -0.04242506       0.08764771      -0.16873159      -0.02258995      -0.50740945       0.02276532      -0.04278117
H       11.21200397       2.32150020       0.96270668       0.15629775       0.08345663      -0.13434592       0.16748229       0.31409761       0.04530972       0.01234149      -0.04777274
O        9.74904437       7.73644295      13.05416100       1.09990379      -0.55821067       1.14476772      -0.76983202      -1.36974037       0.33360726      -0.02831497      -0.08244471
C        9.41655005       8.94920297      13.62055417       0.33267973      -0.35062470       0.32897213       0.18624869       0.29584840      -0.17013279       0.01202743      -0.24522251
C       10.03464241       9.05810368      15.01177055      -0.34084799      -0.09843796      -0.20113338      -1.20426321       0.90823531       1.15312338       0.02420746      -0.10765960
F       11.05949780       8.25772989      15.18403150      -0.90148400      -0.15494966       0.95937046       1.40203500       0.12933032      -0.47811386      -0.01141434      -0.24013436
F        9.18971354       8.66082917      15.99171639      -0.62757995      -0.75909937       0.21655484      -0.41921365       0.54044795      -0.11811604      -0.01119440      -0.24988407
F       10.37137169      10.36358768      15.24722465       0.21051264      -1.18154942       0.43360844       0.06928363      -1.10282874       0.13923791      -0.01501414      -0.26907092
C        7.91519544       9.22873242      13.57929097       0.77320849       0.17789670       0.94655365       0.03295124       0.28642827       0.80403745       0.02559833      -0.16462408
F        7.17285786       8.26604007      14.15745395       0.74578539      -0.18509884      -0.08491062       0.22008170       0.23195286      -0.30473822      -0.01014037      -0.28604302
F        7.53060268       9.36211843      12.31385446       0.21881758       0.33763225       0.60356730      -0.22496036      -0.07672092      -0.12651525      -0.01180307      -0.26558322
F        7.67793168      10.39443558      14.21923604       0.46381754      -0.92017379       1.10958764      -0.17434333      -0.31054193      -0.19247776      -0.01266515      -0.26855966
H        9.31479354       7.01429395      13.59035292      -0.01324017      -0.02110429      -0.04373485       0.64344114       0.87768716      -0.91338789       0.02434420      -0.03853070
H        9.83020357       9.78323362      13.03955306       0.06060870       0.02637716       0.09840433       0.23281492      -0.42587298      -0.09602723       0.01033310      -0.03827818
O        4.10694498       1.38274260      12.70288676       0.55374930       0.24096481      -0.64161063       0.23803698       1.69582653      -0.56344604      -0.02277458       0.00188129
C        2.91316510       1.82214335      12.09856351       0.32925094       0.61975793      -0.21067637       0.53653473      -0.80782187       1.03155041       0.01331678      -0.24703944
C        3.12735300       1.85955558      10.60677164      -0.17557290       0.36418599       0.22611647      -0.11939798      -0.38220811      -0.66094255       0.02503422      -0.15208687
F        3.63284870       0.66598818      10.20329370      -0.56760452       0.36423072      -1.60926101      -0.11277598       0.13920292       0.18088560      -0.01268035      -0.26886925
F        3.98094447       2.78588178      10.21017764       0.15783507       0.65639105       0.79608394       0.21599729       0.32007957      -0.17687160      -0.00826544      -0.24839112
F        1.97497488       2.01766298       9.93722808       0.68976326      -0.47658733       1.23201937      -0.01743001       0.25748625       0.09059635      -0.01273144      -0.27459946
C        2.52681026       3.13874500      12.79951230       0.60275539      -0.75820494      -0.27643421      -1.51788151       0.63045293       0.01406475       0.02521903      -0.10413830
F        3.02584247       4.24989126      12.19313689       0.57456421      -1.00251184       0.46349990       0.24143223      -0.95641804       0.98053682      -0.01098633      -0.24456501
F        2.84469358       3.04740592      14.10135975      -0.69417462       0.41726835      -0.67748735       0.28597298       0.62954211      -0.97658706      -0.00885060      -0.23997776
F        1.17492623       3.33195703      12.77449567       1.46854275      -0.94432976      -0.08353405       0.89857841      -0.35399434      -0.22272360      -0.01471690      -0.20865452
H        4.10046306       0.47473668      12.94430499      -0.05591970      -0.05701308       0.05552795      -0.23558593      -1.23769999       0.16780815       0.02315662      -0.03970634
H        2.10709215       1.10797022      12.25110671      -0.00234636      -0.06270258      -0.05120992      -0.29098392       0.06281897       0.15609351       0.01253462      -0.04250404
O        2.60902957       7.31812258      12.36903513       0.52268478       0.57719246       0.19418786      -0.46346602       0.06114352       0.43421549      -0.02911251      -0.11910392
C        2.12626551       7.94810502      13.52116278       0.61720619      -0.01618319       0.82539821      -1.57632589      -0.09654464       0.67469221       0.01015851      -0.22070535
C        2.76532102       9.29727008      13.68384271      -0.48019688      -0.36072945      -0.28813649       0.62041521       0.77055871       0.48950782       0.02383659      -0.17365552
F        2.63347654       9.93906964      12.52806427      -0.20454791      -1.82406398      -0.14143129      -0.21092886       0.55789852      -0.13037166      -0.01367450      -0.24820681
F        4.06403557       9.26623449      13.96631608      -0.78115496      -0.57081543       0.15023304       0.55448151      -0.47480536      -0.16570514      -0.01136820      -0.24548529
F        2.21571830      10.04676432      14.67755882      -0.00217893      -0.58838867       0.13070279      -0.44633639      -0.28018278      -0.48512372      -0.01189800      -0.27639282
C        2.16428148       7.02447167      14.76536472      -0.17017251      -0.14161443      -0.12766820      -0.14877596       0.35261047       0.34263146       0.02568528      -0.11815614
F        3.31640600       6.36466626      14.80814102       0.05117898      -0.19354728       0.75820649       0.52702338       0.08336361       0.37436777      -0.00716364      -0.26449597
F        1.21051075       6.10807263      14.64291710      -0.31679024      -0.74994816       0.59567907      -0.43145952      -0.18097928       0.01527677      -0.01287132      -0.24932306
F        1.95215233       7.64724192      15.98471783      -0.62438723       0.50297130       0.84482500       0.44622830      -0.38547975      -1.50879288      -0.01180000      -0.26703748
H        3.45213563       6.89252641      12.55929455      -0.00604835      -0.03572471      -0.15232634       0.21003620      -0.09739482       0.09490404       0.02155769      -0.06028482
H        1.03671778       8.19612157      13.39781754      -0.17591449       0.09386918      -0.09283220       1.04232836      -0.41407213      -0.20265010       0.00873411      -0.02433656
O        4.63111833      16.61067523       7.46515545       0.73264643       1.49274500      -0.77330078      -0.00359441      -0.56213576      -0.49527767      -0.02538668      -0.08230723
C        4.87331582      15.27685106       7.07002183       0.23068739       1.11423423       0.99485301       0.42870879       0.78412592      -0.11284152       0.01164321      -0.22661585
C        6.29403041      14.93564430       7.49652767      -0.05883379       0.87496503       0.23586820       1.02409840       0.46245173      -0.62639666       0.02444564      -0.15518494
F        6.38419156      14.69723071       8.80691425      -0.52693180       1.75800598      -0.47523700      -0.26706314      -0.19756860       0.06688394      -0.01391151      -0.27075300
F        7.04615176      16.01889545       7.24698174      -1.12136630       0.03763504       0.53715899       0.46906912      -0.51382893      -0.13514265      -0.01174852      -0.23866065
F        6.82293719      13.86067689       6.84718978      -1.00967938       1.21217713       0.28052550      -0.42179868       0.82107890       0.47948742      -0.01306403      -0.26196533
C        4.61348205      15.00112933       5.58005976      -0.40588557       0.24063408       0.88323569       0.41679034      -0.03987207       0.17681627       0.02472112      -0.16656481
F        5.51535408      15.50216994       4.74453965       0.56200498       0.97440630       1.38820155       0.33526307       0.52709281      -0.03410735      -0.00944671      -0.26761755
F        3.42448462      15.47361992       5.23029198       0.30951785       1.61688709      -1.29035314      -0.35775787      -0.01994993      -0.02557316      -0.01058848      -0.27441898
F        4.64346365      13.67388628       5.39078774      -0.33684164       2.20682914      -0.27902464      -0.45096681      -0.33825397       0.02900478      -0.01431345      -0.24804384
H        3.84211785      16.65496411       8.01515786       0.18178987       0.08104171       0.03326056       0.01449877      -0.16451180      -0.15068227       0.02022544      -0.04963680
H        4.27263574      14.57497341       7.57223558       0.02845663       0.16086242       0.01694721      -1.18428946      -0.84371257       0.71235919       0.00865228      -0.03118350
O       12.55764514      14.19870751       9.16807503      -0.47205639       0.61835923      -0.07065078      -1.07845497       0.90074158      -0.51372743      -0.02964481      -0.06195618
C       11.68418733      13.23404474       8.61847859       0.03810088       0.80508075      -0.39241982      -0.63389778       0.53412330       1.85037041       0.01286274      -0.16487634
C       12.28395373      12.74664961       7.33011799      -0.48164936       0.52926494      -1.23972180       0.72931033      -0.51281476      -0.35806546       0.02442969      -0.13867298
F       13.40176064      12.09024747       7.69588369       0.11168487       1.82669461      -0.52800576       0.10302109      -0.74672127      -0.11519105      -0.01614973      -0.23092346
F       12.75174333      13.69821915       6.50613259      -1.44382918       0.52980666       0.03224240      -1.03873396       0.05565981      -0.03541402      -0.01176555      -0.27187997
F       11.46636613      11.90010280       6.68430118      -0.58507755       0.70938840      -0.54006494       0.45811188       0.30690902       0.06840087      -0.01154781      -0.25572199
C       10.18428438      13.65513644       8.60218165       0.54280593       0.05759172      -0.32001034      -0.07360296       0.21901941      -1.14040303       0.02576754      -0.11037815
F        9.76438001      13.92928297       7.36300141      -0.41640754      -0.01863106       0.85457196       0.07316539       0.14762950      -0.51421064      -0.01111873      -0.24481066
F        9.94980595      14.75409972       9.31538778      -0.07365563       0.21394591      -0.17436454       0.19813485      -0.09726774       0.36185417      -0.00981935      -0.24947810
F        9.39489084      12.66270504       9.03801151       0.66489232       0.35739345      -0.73788522       0.25060424       0.02435035       0.39998487      -0.01319902      -0.26766497
H       12.23168294      15.09276897       8.89008421      -0.18393427      -0.05367620       0.11845972       0.52855057      -0.96612817       0.42152175       0.02454975      -0.04003900
H       11.63941280      12.38644316       9.32720040       0.16376181       0.13734255      -0.01976468       0.52172428       0.12308123      -0.45161927       0.01105488      -0.02010199
O       15.19375790       9.00310823      11.80545833      -0.80907356      -0.35729093      -0.05618220       0.25706485       0.70182765      -1.67493534      -0.02413578      -0.09971018
C       13.84972412       9.19644596      12.07977667       0.36882946      -0.06798502      -0.54717104      -0.42069867      -0.44027379       0.60591120       0.01217621      -0.24089730
C       12.91276109       8.94249508      10.91247225       0.10488161       0.14686422      -0.38905108       0.44820493       0.24292044      -0.97109640       0.02441872      -0.15330665
F       12.86616680       7.65814474      10.57081263      -1.25471812       1.45741295       0.02839077       0.15428482      -0.41798344       0.08569297      -0.01179646      -0.27359772
F       13.32806646       9.61426707       9.81006281       0.08203610       0.46831746       1.55432532      -0.11022042      -0.06148051       0.17201340      -0.01231480      -0.28543556
F       11.68038468       9.32880527      11.20387687       0.20415565       0.00610753      -0.41556994      -0.50420928       0.07149519      -0.21863994      -0.00941916      -0.22393787
C       13.55787070      10.57162543      12.68095740      -0.13225640      -0.20254169       0.14733086      -0.26864699      -0.14185667      -0.87303662       0.02448780      -0.14402419
F       13.53299384      11.50247286      11.70100468       0.10212939      -1.12586399       0.22462957       0.20127155       0.14916456       0.41864592      -0.01215294      -0.27406543
F       14.47698173      10.90076719      13.57085244      -1.42751867      -0.82313783      -0.33194007      -0.13317108       0.18695648       0.21955582      -0.00964372      -0.27327859
F       12.33635682      10.55712003      13.23743938      -0.06080337      -0.70853981      -0.48783080       0.32396567       0.36297068       0.57659972      -0.01108597      -0.23250195
H       15.44259027       9.48240724      10.96161373       0.01729865      -0.24966189      -0.07839447      -0.32994208      -0.65651101       1.30003572       0.02381664      -0.04952320
H       13.52830209       8.45175267      12.81484843      -0.21643140       0.06921060       0.01813827       0.25707704       0.06835163       0.20584109       0.01229052      -0.03526748
O        1.78587816      13.32160981       7.63227128       0.15527795      -0.11868046       0.42004123      -0.39817736       0.15650570      -0.05205670      -0.02483668      -0.10429449
C        2.13578394      12.64071118       8.79849806      -0.25316958      -0.49097112       0.11251541      -0.23551396      -0.01573940       0.00827417       0.01233718      -0.24878910
C        2.20350194      11.13575947       8.55161019      -0.17487039       0.76995854       0.02564778      -1.09170842       0.62297142      -1.13275242       0.02440956      -0.12363799
F        2.93993228      10.95602528       7.45471076      -0.91276495      -0.55219613      -0.92332030      -0.17319973      -0.42879143      -0.27459446      -0.01150495      -0.25743735
F        0.93743702      10.67058107       8.35990267       0.01097010       1.03978300      -0.06902702       0.32726020      -0.12316708      -0.45407179      -0.01218143      -0.28970927
F        2.71357326      10.42523875       9.50875430       0.74409202       1.15199012      -0.42188019       0.85774308      -0.63032103       1.18877482      -0.00877331      -0.23063226
C        1.18884899      12.94519734       9.95741155       0.00138833      -0.41082591       0.11550548       0.34104478       0.43714640       0.57801116       0.02451543      -0.09695851
F       -0.08262917      12.89839430       9.57673172       0.05775222      -0.64257440       0.68010779      -0.07040511       1.19205213      -0.33034024      -0.00999802      -0.23676421
F        1.53905231      14.14013588      10.55587047      -0.56761940      -0.63775770       0.59066495      -0.91798341      -0.84757876      -0.87067962      -0.01504309      -0.26369840
F        1.26564852      12.02806777      10.90361183       0.54330598      -0.22461626      -0.57137904       0.58488601      -0.61624944       0.97915369      -0.01073715      -0.22498021
H        0.84013919      13.19937636       7.40487910       0.00845713      -0.00164466      -0.01247057       0.59863806      -0.07029031       0.32551757       0.02449245      -0.05615360
H        3.14515482      12.92644642       9.06933834      -0.12745395       0.04869102      -0.01184060       0.17200390       0.29608652       0.17721349       0.01252574      -0.04307095
O       10.10903562      12.93645451       4.51165942       0.24238468       0.85860977      -0.46432995      -0.09334275       0.08242422       0.13164520      -0.02748545      -0.08378875
C        9.80271365      13.86236066       3.51787305       0.54977487       0.47709748       0.23476069       0.28206041      -1.16938937      -0.28182584       0.01278985      -0.25483721
C        8.46075306      13.53253390       2.85895137       0.58887279      -0.02405019       0.72585145      -0.25275141      -0.29160154      -0.65145433       0.02565139      -0.15672010
F        7.56737409      13.18987746       3.78766698       0.98522627       0.70182682       0.93080980       0.08659691       0.29356152      -0.15416308      -0.01168290      -0.26472756
F        8.55142351      12.51520834       1.98864452      -0.19349177       0.51319009       0.45509467       0.15836297      -0.21953216       0.17409748      -0.01226587      -0.26799446
F        7.97534232      14.57123770       2.14206460      -0.27329127      -0.23827282       0.68809558       0.08705415       0.14223567       0.36808473      -0.01105111      -0.28089136
C       10.99976021      13.97874504       2.56449167      -0.01382247      -0.71615196      -0.68992078      -0.64331079      -0.59883100      -0.14186071       0.02376641      -0.15790409
F       11.28563427      12.77325792       1.99653259      -0.26513390       0.89727137      -0.31228258       0.07954217       0.67317617       0.36492032      -0.01261334      -0.28916150
F       12.05767222      14.40467635       3.24179639      -0.26882138      -0.31997031      -0.74809324       0.15283710      -0.12973195      -0.19630951      -0.01077120      -0.25800705
F       10.74131614      14.84094926       1.57516015       0.15227004      -0.16752991      -0.24772215       0.14401348       0.17393565      -0.23447457      -0.01203860      -0.28304687
H       10.23879567      12.06723962       4.12066058      -0.01178354       0.07916260      -0.12238033       0.06738311      -0.20268169      -0.08508933       0.02374397      -0.04256807
H        9.68365976      14.79806074       3.98877484       0.03158806      -0.07586681      -0.09013926      -0.11492185       1.24998176       0.61564285       0.01338614      -0.03638125
O        7.16525647       3.48886406      10.00502636       0.58768713      -0.19465577       0.57253692      -0.22145545       2.00111294       1.24125981      -0.02632956      -0.07644915
C        6.70079091       3.85742819      11.30464045      -0.64489026      -0.62769746      -0.02398423      -0.00081058      -0.28878400       0.15266363       0.01296888      -0.22211508
C        6.03320695       5.25017845      11.37456985      -0.41889297      -0.18074449       0.39315482      -0.33741105       0.02661335       0.59617382       0.02558816      -0.13075165
F        5.03828428       5.32762372      10.48667520      -0.55898261      -0.50664222       0.71413374       0.06545393       0.08404449       0.18340823      -0.01161047      -0.25902876
F        6.87071349       6.26771475      11.12606028      -0.67932936      -1.48524193       0.17167267      -0.19377714      -0.39483780       0.01008494      -0.01070969      -0.25547478
F        5.49505921       5.46264869      12.63368606      -1.12423145      -0.74101353       0.35330150       0.58405071      -0.22625762      -1.20657253      -0.01293806      -0.28177911
C        7.81559163       3.71267970      12.35288642      -0.24645204       0.26884168      -0.60392077       0.72569132       0.68808055       0.38595358       0.02417669      -0.13369465
F        8.56575545       4.84199447      12.49802123      -0.39229846      -0.15043161       0.85623927      -0.35982454      -0.05170085       0.09332955      -0.01328464      -0.26915717
F        8.64395494       2.78938616      11.94013608       1.15946961       1.03075945      -0.09769072       0.64937174      -0.83835638      -0.05257282      -0.01165446      -0.20153362
F        7.38821760       3.36580554      13.58595436      -0.02749364      -1.23120630       0.26242313      -0.22986157       0.33917826      -0.58355808      -0.01192767      -0.26738393
H        7.62927130       4.30859638       9.72637634      -0.07127397       0.06180008      -0.04749438      -0.04877479      -0.83541745      -0.49124107       0.02372663      -0.02706373
H        5.98032480       3.12168477      11.63933879      -0.01033156      -0.01094387       0.16187259      -0.46497154      -0.11402804      -0.23088004       0.00984580      -0.04516158
O       12.07869119       3.06134057      11.34941821       1.13331783      -0.81625468       0.01751165      -0.10898530      -1.10227120       1.66409230      -0.03071016      -0.05712152
C       12.82871450       2.90528828      12.57510642       0.05028579      -0.86537282       0.57269149      -0.79437011      -0.60284460      -1.85558999       0.01277401      -0.22096553
C       13.49097694       4.24518809      12.87035987       0.02594711      -0.80958555       0.39516471      -1.09552062       0.73592907      -0.34204140       0.02450569      -0.10960229
F       12.49803368       5.16311185      13.13995285       0.99609391      -1.29706138       0.31664987       1.01065528      -0.68420893      -0.18102077      -0.01612491      -0.27844566
F       14.21066163       4.75176771      11.83393924      -0.18561546       0.51271008       0.52077281      -0.65475202      -0.36070582       0.11765347      -0.01253699      -0.27531493
F       14.30024888       4.15782135      13.87715578       1.00623900      -0.74163447      -0.97467480       0.60694194       0.22262225       1.42206073      -0.00873374      -0.21683228
C       13.83670235       1.73133524      12.37016833      -0.13361979      -0.34591483      -0.87205225      -2.01297832       0.09642388      -0.26767123       0.02377450      -0.13214378
F       14.67380597       2.02982635      11.41119359       0.61067458      -0.33297376       0.26631241       0.89672703      -0.09103037      -0.91715449      -0.01095408      -0.25175411
F       13.14951230       0.59791591      11.97448972      -0.08788570      -0.72809040       0.72566267       0.78926909       1.15899599       0.78147590      -0.01611879      -0.26860309
F       14.50840631       1.48869440      13.48301754       1.87935757      -0.38740901      -0.48752617       0.14266750      -0.55248368       0.34534258      -0.00920341      -0.26658154
H       12.43824153       3.76199464      10.81993670       0.15401679      -0.04071898      -0.21559111       0.48977891       0.59356779      -0.38317293       0.02045282      -0.06048577
H       12.13793292       2.57911836      13.38432928       0.00348927      -0.09924958       0.03984717       0.41166025       0.60878485      -0.45754907       0.01185234      -0.06095378
O        6.69741554       7.41895944       8.18675266      -0.40394148      -0.77146563      -0.35958147       0.06402364       0.37792385      -0.64935923      -0.02717683      -0.10848729
C        7.26240682       7.84909676       6.95867154       0.39790566       0.07851158      -0.21540348      -0.52312303      -0.74451149       0.52292889       0.01403080      -0.22151469
C        6.65770861       9.16638775       6.49761603       0.57794353      -0.64010447       0.51527564      -1.39289188      -0.84766829       0.45687336       0.02469483      -0.12328259
F        6.72128498      10.11501988       7.42319429       0.26567099      -0.71497754      -0.78508337       0.13559128       0.03803466       0.30547261      -0.01146231      -0.26166040
F        5.31062385       8.95821145       6.25552762       0.03976127       0.28624755       0.44238089       0.93421304       0.35491437      -0.12545702      -0.01357366      -0.27888590
F        7.25711749       9.60200843       5.42264170       0.06118659      -1.73105436       0.19296650       0.13518494       0.40672535      -1.02133465      -0.00814345      -0.24285462
C        7.20027114       6.67746377       5.94421154      -0.20466622      -0.16450715      -0.07746797      -0.95297110       0.97446918       0.14275324       0.02475503      -0.13042474
F        5.94096847       6.29696674       5.66510294      -0.81772770       2.32795044       0.02286286       0.00991145      -0.44436437       0.79047871      -0.00973523      -0.25651160
F        7.88640657       5.68242656       6.51266671      -1.45396955       0.44885491      -0.13756261      -0.15759608      -0.27917010      -0.61699355      -0.01060357      -0.25636914
F        7.69091519       6.99762700       4.75408917      -1.54881678      -0.61206125       0.25405860       1.04769492      -0.01297867      -0.13626336      -0.00998109      -0.24044600
H        5.73223431       7.43855883       8.09135850      -0.03095282      -0.04990380       0.20831957       0.15520443      -0.08108954       0.05786265       0.02331646      -0.04742132
H        8.31551569       7.99593591       7.10598865      -0.12056059       0.00947696      -0.03041402       0.57458055       0.25517690       0.29420817       0.01274739      -0.03721953
