192
Lattice="15.342199614093367 0.0 0.0 0.0 15.342199614093367 0.0 0.0 0.0 15.342199614093367" Properties=species:S:1:pos:R:3:momenta:R:3:forces:R:3:charge:R:1:energies:R:1 Built=T with=T Packmol=T charge=0 spin=1 external_field="_JSON [0.0, 0.0, 0.0]" energy=-19.65663719177246 stress="-0.00021647772518917918 0.0011548607144504786 -0.000565645401366055 0.0011548607144504786 0.0024115398991853 0.00016214595234487206 -0.000565645401366055 0.00016214595234487206 0.0028036755975335836" dipole="-0.21360760927200317 -0.9342271089553833 0.5182607173919678" free_energy=-19.65663719177246 pbc="T T T"
O       14.19118855       6.24391660       7.52607175      -0.18985987       0.27029411      -0.27046524       0.62381512       1.32897735      -0.30376229      -0.02756438      -0.09155389
C       13.57789164       5.11823598       7.07482778      -0.19911403      -0.19089369      -0.56991817      -0.38191372      -1.28258240       0.61556852       0.01229813      -0.22123361
C       12.07959478       5.17219109       7.44442904       0.69739254       0.02392785       0.00417232      -0.43400997       0.55841553      -1.07675016       0.02352205      -0.13013275
F       11.61622205       6.27797871       6.81087652      -0.37695464       0.04436682      -0.47108836      -0.36210507      -0.48127288      -0.02804774      -0.01456639      -0.24829352
F       11.88692102       5.38814730       8.73545544       1.00749417      -0.99575269      -0.25514936       0.04907406      -0.21924360       0.90715832      -0.00883155      -0.28129345
F       11.32376691       4.11122417       7.08307022       0.91865257      -0.44788018      -1.03022344       0.53580832       0.76936716      -0.04833690      -0.01052232      -0.25056362
C       14.24839268       3.85340183       7.68437997      -0.01030313       0.53594294      -0.18778344      -0.59246480       0.81962085      -0.53831530       0.02475709      -0.08348272
F       14.69702502       4.19809378       8.91189712      -0.28506448      -0.40885785      -0.93965498       0.63174117      -0.42148376      -0.19834724      -0.00994347      -0.26016697
F       15.19345388       3.34290194       6.90515851       0.00926776       0.45850971      -0.22607748       0.80552554       0.45436469       0.30566901      -0.00907481      -0.25142467
F       13.38138120       2.88535926       7.85833796      -0.57254562       0.19103723       0.00120207      -0.91572559      -1.07362151       0.41947103      -0.00868624      -0.21489099
H       14.34453367       6.21751218       8.47065320       0.04533358       0.11814221      -0.07101656      -0.05649244      -0.10429394       0.38619173       0.02257361      -0.03829879
H       13.63281522       5.13619005       5.99754886      -0.07854443      -0.01904604       0.02731657       0.06111729      -0.37251192      -0.38350782       0.01304298      -0.04323987
O        2.31050820      10.11816147       2.50177396      -0.07962915       0.49398588      -0.22093126      -0.61334538      -0.22870567       0.47347468      -0.02602974      -0.13230999
C        3.31293175      11.02982016       2.76879600      -0.15621366       0.28902975      -0.22879919       0.00252985       0.22369066       1.05656219       0.01375628      -0.23803408
C        3.02808767      12.38686315       2.14932305       0.29761365      -0.08749285       0.24558225       0.13423392       1.26347899      -1.27362347       0.02499277      -0.11081781
F        1.73360178      12.78334992       2.17507781       0.71163159       0.17796262       0.08829073       0.88880956      -0.39354637       0.86987156      -0.01178952      -0.25726494
F        3.32538623      12.33141583       0.84145760       0.72485934      -0.34896967       0.34696374       0.00911776      -0.25253797      -0.66444486      -0.01216727      -0.23435794
F        3.82723329      13.36097511       2.63449630      -0.24956734       0.51889181      -0.72332873      -0.73570013      -0.43867421       0.45951173      -0.01087076      -0.24285252
C        4.65185559      10.44048688       2.27839829       0.23652347       0.71620113       0.33833685      -0.15358645       0.78514254      -1.47915339       0.02600979      -0.11975361
F        4.44057928       9.73764404       1.12446296      -0.12303808       0.39577386       0.73600045       0.21878828       0.12693498       1.01077926      -0.01244177      -0.25183764
F        5.13022322       9.65571819       3.20616818       0.07221015       0.04157903       0.06015480       0.48460448      -0.88816726       0.43173638      -0.00897552      -0.24549460
F        5.58193970      11.35935697       1.96870592      -0.15338317       0.44626003      -0.70815793      -0.14898819      -0.08758789       0.38171166      -0.01176997      -0.25481761
H        2.23332397      10.01288041       1.55594672       0.02563956      -0.03216824       0.03070959       0.09415935      -0.16192034      -0.79533607       0.02176708      -0.05236920
H        3.37472279      11.13975784       3.86825347      -0.30295246       0.08151121      -0.07698256       0.02742461       0.04099110      -0.51112044       0.01229249      -0.04773864
O        7.88266796      13.76604091      14.44485253      -0.59763775      -0.03200460      -0.29665815       0.11339732      -0.43686342       0.03153252      -0.02696537      -0.08186311
C        8.31983436      14.08706064      13.17032603      -0.67554269       0.22685862      -0.27693141      -0.70864648      -0.79978931      -0.68189758       0.01221910      -0.20625508
C        9.75644319      14.57905708      13.08570923      -0.53259181      -0.41207855      -0.35333652       0.04627776      -0.63979322      -0.74111199       0.02453297      -0.13916121
F       10.47628580      14.05117175      14.06090765      -0.59241725      -0.03543893      -0.64404763       0.43185860      -0.19314636       0.31064349      -0.01184177      -0.25773370
F        9.82776667      15.90120078      13.19505249      -1.47946778      -0.02433328      -0.02871385       0.33013859       0.49220562      -0.09676939      -0.01062099      -0.27534473
F       10.30944591      14.18041720      11.90019927      -0.48143417       0.46016736       0.05263274      -0.29832184       0.58835375       0.84784800      -0.01438936      -0.25282326
C        7.30019809      15.03549685      12.50746052       0.19380520       0.31791787       0.29693632       0.14806372      -0.72673464      -0.87817800       0.02374995      -0.14584410
F        6.79205805      15.88461712      13.38436842       0.35220501      -0.23300210      -0.08461134       0.16285667       0.76487392       0.10381071      -0.00906484      -0.26405820
F        6.26783739      14.29969916      12.05749281       0.85146906       1.08912535      -0.40890867      -0.35633379      -0.23426251       0.02713770      -0.01493555      -0.26662725
F        7.78196529      15.67007665      11.42268609      -0.42968473      -0.29415600       0.55457067      -0.02602365       0.03786786       0.62804759      -0.01187885      -0.25401032
H        8.03761272      14.47042496      15.07755747      -0.12420489       0.05553132      -0.06958291       0.03182717       0.31762445       0.14912125       0.02266297      -0.05517975
H        8.26560122      13.14858277      12.57208630       0.05622065       0.06340426       0.02232515       0.13655873       0.58737767       0.41064152       0.01254791      -0.02981099
O       14.82291388       9.43402557       1.63665312       0.22402705       0.10652503       0.19907172      -0.37553620       0.05342276       0.01772012      -0.03136949      -0.11560611
C       13.72634762       9.83947775       2.41647712       0.27272656      -0.02638815      -0.51116533      -0.08241320      -1.31303370       0.93640393       0.01155587      -0.22508417
C       14.14165021      11.02721904       3.29212481       0.45069613      -0.63751349      -0.92188044      -1.51580644       1.38729596      -1.63420820       0.02401745      -0.10309008
F       14.30658902      12.08540944       2.38917532      -0.51470037      -0.00939533      -0.42598685      -0.01723691      -1.02607083       1.49911571      -0.01637929      -0.25084215
F       15.23504394      10.84832586       3.96735938       1.14252061       0.54776699      -1.16770541       1.31704640      -0.18037342       0.24762422      -0.00724046      -0.24243546
F       13.20525094      11.38210398       4.18878718       0.59342223      -1.94410004      -1.41254021      -0.19605912       0.07354316      -0.41285330      -0.01148512      -0.26889527
C       13.16309232       8.61510146       3.26726789      -0.05447152       0.22371527      -0.84286479       1.56010461       1.07945883      -1.02439845       0.02416431      -0.09415144
F       14.04778072       8.25608906       4.23969313       0.85469864       0.66019212      -0.50885326      -0.53458738      -0.39811039      -0.95024693      -0.01139527      -0.28403729
F       12.90989075       7.61359034       2.39352505      -0.24856980       2.02371119      -0.01089114       0.52421027      -0.08117040       0.76155424      -0.01316285      -0.27011052
F       12.03511262       8.91014419       3.85288498       0.65393654       1.79404342      -0.70427962      -1.08519745       0.26225227       0.59646034      -0.00946848      -0.24434903
H       15.62888163       9.33444726       2.17875450       0.22909344      -0.00834903       0.20730452      -0.51041067       0.11896378       0.05533794       0.02138206      -0.06638014
H       12.85409580      10.13234516       1.80025018       0.16597762       0.19161916      -0.05726758       0.75209862       0.05158309      -0.01077446       0.01144961      -0.05487760
O       11.76480111       4.30975009       0.84035879       0.03285819      -1.06476683       0.03113527      -0.40218866      -0.66887331       1.24383724      -0.02839350      -0.12069688
C       11.48030115       3.15331835       1.63257239       0.06070205      -1.00532225       0.36873528       0.26555941      -0.02698088      -1.17806447       0.01356812      -0.22487247
C       10.29266103       3.28661337       2.59213114       0.23533455      -0.57722447       0.23821063      -0.63840699       0.75967884      -0.48975438       0.02529905      -0.13986194
F        9.28197792       3.91420266       1.92233417       0.77017012      -0.54880874      -0.79544846       0.80948639      -0.28688622       0.89433575      -0.01131161      -0.25329790
F       10.63653219       3.98513226       3.69108736       0.38042687      -1.06477672       0.75368904      -0.59454161      -0.07515366      -0.42940122      -0.01000986      -0.26076573
F        9.81639084       2.09560353       2.98076398       0.17669374      -1.68850910       0.12340537       0.25453541       0.17331327      -0.03008312      -0.00910935      -0.25474307
C       12.74820606       2.78056218       2.36724887      -0.94921669       0.08287932      -0.38501570       0.54349375       0.69383371       1.63893664       0.02462464      -0.12329362
F       13.22958933       3.88068654       3.03608679      -0.32735959       0.42178823       0.54399948      -0.30862153      -0.05318268      -0.17841861      -0.01303323      -0.26285157
F       13.73560767       2.39152615       1.60689737      -0.16117584      -0.17298580       1.21511066       0.35929668      -0.45208943      -1.10259819      -0.00870811      -0.24490589
F       12.55123622       1.84910090       3.29736666       0.07122220       0.07281322       0.47275885      -0.29018623      -0.33822507       0.09744781      -0.00982117      -0.25040284
H       12.16971643       4.94557582       1.46214226      -0.28316260      -0.04242506       0.08764771      -0.16873159      -0.02258995      -0.50740945       0.02276532      -0.04278117
H       11.21200397       2.32150020       0.96270668       0.15629775       0.08345663      -0.13434592       0.16748229       0.31409761       0.04530972       0.01234149      -0.04777274
O        9.74904437       7.73644295      13.05416100       1.09990379      -0.55821067       1.14476772      -0.76983202      -1.36974037       0.33360726      -0.02831497      -0.08244471
C        9.41655005       8.94920297      13.62055417       0.33267973      -0.35062470       0.32897213       0.18624869       0.29584840      -0.17013279       0.01202743      -0.24522251
C       10.03464241       9.05810368      15.01177055      -0.34084799      -0.09843796      -0.20113338      -1.20426321       0.90823531       1.15312338       0.02420746      -0.10765960
F       11.05949780       8.25772989      15.18403150      -0.90148400      -0.15494966       0.95937046       1.40203500       0.12933032      -0.47811386      -0.01141434      -0.24013436
F        9.18971354       8.66082917      15.99171639      -0.62757995      -0.75909937       0.21655484      -0.41921365       0.54044795      -0.11811604      -0.01119440      -0.24988407
F       10.37137169      10.36358768      15.24722465       0.21051264      -1.18154942       0.43360844       0.06928363      -1.10282874       0.13923791      -0.01501414      -0.26907092
C        7.91519544       9.22873242      13.57929097       0.77320849       0.17789670       0.94655365       0.03295124       0.28642827       0.80403745       0.02559833      -0.16462408
F        7.17285786       8.26604007      14.15745395       0.74578539      -0.18509884      -0.08491062       0.22008170       0.23195286      -0.30473822      -0.01014037      -0.28604302
F        7.53060268       9.36211843      12.31385446       0.21881758       0.33763225       0.60356730      -0.22496036      -0.07672092      -0.12651525      -0.01180307      -0.26558322
F        7.67793168      10.39443558      14.21923604       0.46381754      -0.92017379       1.10958764      -0.17434333      -0.31054193      -0.19247776      -0.01266515      -0.26855966
H        9.31479354       7.01429395      13.59035292      -0.01324017      -0.02110429      -0.04373485       0.64344114       0.87768716      -0.91338789       0.02434420      -0.03853070
H        9.83020357       9.78323362      13.03955306       0.06060870       0.02637716       0.09840433       0.23281492      -0.42587298      -0.09602723       0.01033310      -0.03827818
O        4.10694498       1.38274260      12.70288676       0.55374930       0.24096481      -0.64161063       0.23803698       1.69582653      -0.56344604      -0.02277458       0.00188129
C        2.91316510       1.82214335      12.09856351       0.32925094       0.61975793      -0.21067637       0.53653473      -0.80782187       1.03155041       0.01331678      -0.24703944
C        3.12735300       1.85955558      10.60677164      -0.17557290       0.36418599       0.22611647      -0.11939798      -0.38220811      -0.66094255       0.02503422      -0.15208687
F        3.63284870       0.66598818      10.20329370      -0.56760452       0.36423072      -1.60926101      -0.11277598       0.13920292       0.18088560      -0.01268035      -0.26886925
F        3.98094447       2.78588178      10.21017764       0.15783507       0.65639105       0.79608394       0.21599729       0.32007957      -0.17687160      -0.00826544      -0.24839112
F        1.97497488       2.01766298       9.93722808       0.68976326      -0.47658733       1.23201937      -0.01743001       0.25748625       0.09059635      -0.01273144      -0.27459946
C        2.52681026       3.13874500      12.79951230       0.60275539      -0.75820494      -0.27643421      -1.51788151       0.63045293       0.01406475       0.02521903      -0.10413830
F        3.02584247       4.24989126      12.19313689       0.57456421      -1.00251184       0.46349990       0.24143223      -0.95641804       0.98053682      -0.01098633      -0.24456501
F        2.84469358       3.04740592      14.10135975      -0.69417462       0.41726835      -0.67748735       0.28597298       0.62954211      -0.97658706      -0.00885060      -0.23997776
F        1.17492623       3.33195703      12.77449567       1.46854275      -0.94432976      -0.08353405       0.89857841      -0.35399434      -0.22272360      -0.01471690      -0.20865452
H        4.10046306       0.47473668      12.94430499      -0.05591970      -0.05701308       0.05552795      -0.23558593      -1.23769999       0.16780815       0.02315662      -0.03970634
H        2.10709215       1.10797022      12.25110671      -0.00234636      -0.06270258      -0.05120992      -0.29098392       0.06281897       0.15609351       0.01253462      -0.04250404
O        2.60902957       7.31812258      12.36903513       0.52268478       0.57719246       0.19418786      -0.46346602       0.06114352       0.43421549      -0.02911251      -0.11910392
C        2.12626551       7.94810502      13.52116278       0.61720619      -0.01618319       0.82539821      -1.57632589      -0.09654464       0.67469221       0.01015851      -0.22070535
C        2.76532102       9.29727008      13.68384271      -0.48019688      -0.36072945      -0.28813649       0.62041521       0.77055871       0.48950782       0.02383659      -0.17365552
F        2.63347654       9.93906964      12.52806427      -0.20454791      -1.82406398      -0.14143129      -0.21092886       0.55789852      -0.13037166      -0.01367450      -0.24820681
F        4.06403557       9.26623449      13.96631608      -0.78115496      -0.57081543       0.15023304       0.55448151      -0.47480536      -0.16570514      -0.01136820      -0.24548529
F        2.21571830      10.04676432      14.67755882      -0.00217893      -0.58838867       0.13070279      -0.44633639      -0.28018278      -0.48512372      -0.01189800      -0.27639282
C        2.16428148       7.02447167      14.76536472      -0.17017251      -0.14161443      -0.12766820      -0.14877596       0.35261047       0.34263146       0.02568528      -0.11815614
F        3.31640600       6.36466626      14.80814102       0.05117898      -0.19354728       0.75820649       0.52702338       0.08336361       0.37436777      -0.00716364      -0.26449597
F        1.21051075       6.10807263      14.64291710      -0.31679024      -0.74994816       0.59567907      -0.43145952      -0.18097928       0.01527677      -0.01287132      -0.24932306
F        1.95215233       7.64724192      15.98471783      -0.62438723       0.50297130       0.84482500       0.44622830      -0.38547975      -1.50879288      -0.01180000      -0.26703748
H        3.45213563       6.89252641      12.55929455      -0.00604835      -0.03572471      -0.15232634       0.21003620      -0.09739482       0.09490404       0.02155769      -0.06028482
H        1.03671778       8.19612157      13.39781754      -0.17591449       0.09386918      -0.09283220       1.04232836      -0.41407213      -0.20265010       0.00873411      -0.02433656
O        4.63111833      16.61067523       7.46515545       0.73264643       1.49274500      -0.77330078      -0.00359441      -0.56213576      -0.49527767      -0.02538668      -0.08230723
C        4.87331582      15.27685106       7.07002183       0.23068739       1.11423423       0.99485301       0.42870879       0.78412592      -0.11284152       0.01164321      -0.22661585
C        6.29403041      14.93564430       7.49652767      -0.05883379       0.87496503       0.23586820       1.02409840       0.46245173      -0.62639666       0.02444564      -0.15518494
F        6.38419156      14.69723071       8.80691425      -0.52693180       1.75800598      -0.47523700      -0.26706314      -0.19756860       0.06688394      -0.01391151      -0.27075300
F        7.04615176      16.01889545       7.24698174      -1.12136630       0.03763504       0.53715899       0.46906912      -0.51382893      -0.13514265      -0.01174852      -0.23866065
F        6.82293719      13.86067689       6.84718978      -1.00967938       1.21217713       0.28052550      -0.42179868       0.82107890       0.47948742      -0.01306403      -0.26196533
C        4.61348205      15.00112933       5.58005976      -0.40588557       0.24063408       0.88323569       0.41679034      -0.03987207       0.17681627       0.02472112      -0.16656481
F        5.51535408      15.50216994       4.74453965       0.56200498       0.97440630       1.38820155       0.33526307       0.52709281      -0.03410735      -0.00944671      -0.26761755
F        3.42448462      15.47361992       5.23029198       0.30951785       1.61688709      -1.29035314      -0.35775787      -0.01994993      -0.02557316      -0.01058848      -0.27441898
F        4.64346365      13.67388628       5.39078774      -0.33684164       2.20682914      -0.27902464      -0.45096681      -0.33825397       0.02900478      -0.01431345      -0.24804384
H        3.84211785      16.65496411       8.01515786       0.18178987       0.08104171       0.03326056       0.01449877      -0.16451180      -0.15068227       0.02022544      -0.04963680
H        4.27263574      14.57497341       7.57223558       0.02845663       0.16086242       0.01694721      -1.18428946      -0.84371257       0.71235919       0.00865228      -0.03118350
O       12.55764514      14.19870751       9.16807503      -0.47205639       0.61835923      -0.07065078      -1.07845497       0.90074158      -0.51372743      -0.02964481      -0.06195618
C       11.68418733      13.23404474       8.61847859       0.03810088       0.80508075      -0.39241982      -0.63389778       0.53412330       1.85037041       0.01286274      -0.16487634
C       12.28395373      12.74664961       7.33011799      -0.48164936       0.52926494      -1.23972180       0.72931033      -0.51281476      -0.35806546       0.02442969      -0.13867298
F       13.40176064      12.09024747       7.69588369       0.11168487       1.82669461      -0.52800576       0.10302109      -0.74672127      -0.11519105      -0.01614973      -0.23092346
F       12.75174333      13.69821915       6.50613259      -1.44382918       0.52980666       0.03224240      -1.03873396       0.05565981      -0.03541402      -0.01176555      -0.27187997
F       11.46636613      11.90010280       6.68430118      -0.58507755       0.70938840      -0.54006494       0.45811188       0.30690902       0.06840087      -0.01154781      -0.25572199
C       10.18428438      13.65513644       8.60218165       0.54280593       0.05759172      -0.32001034      -0.07360296       0.21901941      -1.14040303       0.02576754      -0.11037815
F        9.76438001      13.92928297       7.36300141      -0.41640754      -0.01863106       0.85457196       0.07316539       0.14762950      -0.51421064      -0.01111873      -0.24481066
F        9.94980595      14.75409972       9.31538778      -0.07365563       0.21394591      -0.17436454       0.19813485      -0.09726774       0.36185417      -0.00981935      -0.24947810
F        9.39489084      12.66270504       9.03801151       0.66489232       0.35739345      -0.73788522       0.25060424       0.02435035       0.39998487      -0.01319902      -0.26766497
H       12.23168294      15.09276897       8.89008421      -0.18393427      -0.05367620       0.11845972       0.52855057      -0.96612817       0.42152175       0.02454975      -0.04003900
H       11.63941280      12.38644316       9.32720040       0.16376181       0.13734255      -0.01976468       0.52172428       0.12308123      -0.45161927       0.01105488      -0.02010199
O       15.19375790       9.00310823      11.80545833      -0.80907356      -0.35729093      -0.05618220       0.25706485       0.70182765      -1.67493534      -0.02413578      -0.09971018
C       13.84972412       9.19644596      12.07977667       0.36882946      -0.06798502      -0.54717104      -0.42069867      -0.44027379       0.60591120       0.01217621      -0.24089730
C       12.91276109       8.94249508      10.91247225       0.10488161       0.14686422      -0.38905108       0.44820493       0.24292044      -0.97109640       0.02441872      -0.15330665
F       12.86616680       7.65814474      10.57081263      -1.25471812       1.45741295       0.02839077       0.15428482      -0.41798344       0.08569297      -0.01179646      -0.27359772
F       13.32806646       9.61426707       9.81006281       0.08203610       0.46831746       1.55432532      -0.11022042      -0.06148051       0.17201340      -0.01231480      -0.28543556
F       11.68038468       9.32880527      11.20387687       0.20415565       0.00610753      -0.41556994      -0.50420928       0.07149519      -0.21863994      -0.00941916      -0.22393787
C       13.55787070      10.57162543      12.68095740      -0.13225640      -0.20254169       0.14733086      -0.26864699      -0.14185667      -0.87303662       0.02448780      -0.14402419
F       13.53299384      11.50247286      11.70100468       0.10212939      -1.12586399       0.22462957       0.20127155       0.14916456       0.41864592      -0.01215294      -0.27406543
F       14.47698173      10.90076719      13.57085244      -1.42751867      -0.82313783      -0.33194007      -0.13317108       0.18695648       0.21955582      -0.00964372      -0.27327859
F       12.33635682      10.55712003      13.23743938      -0.06080337      -0.70853981      -0.48783080       0.32396567       0.36297068       0.57659972      -0.01108597      -0.23250195
H       15.44259027       9.48240724      10.96161373       0.01729865      -0.24966189      -0.07839447      -0.32994208      -0.65651101       1.30003572       0.02381664      -0.04952320
H       13.52830209       8.45175267      12.81484843      -0.21643140       0.06921060       0.01813827       0.25707704       0.06835163       0.20584109       0.01229052      -0.03526748
O        1.78587816      13.32160981       7.63227128       0.15527795      -0.11868046       0.42004123      -0.39817736       0.15650570      -0.05205670      -0.02483668      -0.10429449
C        2.13578394      12.64071118       8.79849806      -0.25316958      -0.49097112       0.11251541      -0.23551396      -0.01573940       0.00827417       0.01233718      -0.24878910
C        2.20350194      11.13575947       8.55161019      -0.17487039       0.76995854       0.02564778      -1.09170842       0.62297142      -1.13275242       0.02440956      -0.12363799
F        2.93993228      10.95602528       7.45471076      -0.91276495      -0.55219613      -0.92332030      -0.17319973      -0.42879143      -0.27459446      -0.01150495      -0.25743735
F        0.93743702      10.67058107       8.35990267       0.01097010       1.03978300      -0.06902702       0.32726020      -0.12316708      -0.45407179      -0.01218143      -0.28970927
F        2.71357326      10.42523875       9.50875430       0.74409202       1.15199012      -0.42188019       0.85774308      -0.63032103       1.18877482      -0.00877331      -0.23063226
C        1.18884899      12.94519734       9.95741155       0.00138833      -0.41082591       0.11550548       0.34104478       0.43714640       0.57801116       0.02451543      -0.09695851
F       -0.08262917      12.89839430       9.57673172       0.05775222      -0.64257440       0.68010779      -0.07040511       1.19205213      -0.33034024      -0.00999802      -0.23676421
F        1.53905231      14.14013588      10.55587047      -0.56761940      -0.63775770       0.59066495      -0.91798341      -0.84757876      -0.87067962      -0.01504309      -0.26369840
F        1.26564852      12.02806777      10.90361183       0.54330598      -0.22461626      -0.57137904       0.58488601      -0.61624944       0.97915369      -0.01073715      -0.22498021
H        0.84013919      13.19937636       7.40487910       0.00845713      -0.00164466      -0.01247057       0.59863806      -0.07029031       0.32551757       0.02449245      -0.05615360
H        3.14515482      12.92644642       9.06933834      -0.12745395       0.04869102      -0.01184060       0.17200390       0.29608652       0.17721349       0.01252574      -0.04307095
O       10.10903562      12.93645451       4.51165942       0.24238468       0.85860977      -0.46432995      -0.09334275       0.08242422       0.13164520      -0.02748545      -0.08378875
C        9.80271365      13.86236066       3.51787305       0.54977487       0.47709748       0.23476069       0.28206041      -1.16938937      -0.28182584       0.01278985      -0.25483721
C        8.46075306      13.53253390       2.85895137       0.58887279      -0.02405019       0.72585145      -0.25275141      -0.29160154      -0.65145433       0.02565139      -0.15672010
F        7.56737409      13.18987746       3.78766698       0.98522627       0.70182682       0.93080980       0.08659691       0.29356152      -0.15416308      -0.01168290      -0.26472756
F        8.55142351      12.51520834       1.98864452      -0.19349177       0.51319009       0.45509467       0.15836297      -0.21953216       0.17409748      -0.01226587      -0.26799446
F        7.97534232      14.57123770       2.14206460      -0.27329127      -0.23827282       0.68809558       0.08705415       0.14223567       0.36808473      -0.01105111      -0.28089136
C       10.99976021      13.97874504       2.56449167      -0.01382247      -0.71615196      -0.68992078      -0.64331079      -0.59883100      -0.14186071       0.02376641      -0.15790409
F       11.28563427      12.77325792       1.99653259      -0.26513390       0.89727137      -0.31228258       0.07954217       0.67317617       0.36492032      -0.01261334      -0.28916150
F       12.05767222      14.40467635       3.24179639      -0.26882138      -0.31997031      -0.74809324       0.15283710      -0.12973195      -0.19630951      -0.01077120      -0.25800705
F       10.74131614      14.84094926       1.57516015       0.15227004      -0.16752991      -0.24772215       0.14401348       0.17393565      -0.23447457      -0.01203860      -0.28304687
H       10.23879567      12.06723962       4.12066058      -0.01178354       0.07916260      -0.12238033       0.06738311      -0.20268169      -0.08508933       0.02374397      -0.04256807
H        9.68365976      14.79806074       3.98877484       0.03158806      -0.07586681      -0.09013926      -0.11492185       1.24998176       0.61564285       0.01338614      -0.03638125
O        7.16525647       3.48886406      10.00502636       0.58768713      -0.19465577       0.57253692      -0.22145545       2.00111294       1.24125981      -0.02632956      -0.07644915
C        6.70079091       3.85742819      11.30464045      -0.64489026      -0.62769746      -0.02398423      -0.00081058      -0.28878400       0.15266363       0.01296888      -0.22211508
C        6.03320695       5.25017845      11.37456985      -0.41889297      -0.18074449       0.39315482      -0.33741105       0.02661335       0.59617382       0.02558816      -0.13075165
F        5.03828428       5.32762372      10.48667520      -0.55898261      -0.50664222       0.71413374       0.06545393       0.08404449       0.18340823      -0.01161047      -0.25902876
F        6.87071349       6.26771475      11.12606028      -0.67932936      -1.48524193       0.17167267      -0.19377714      -0.39483780       0.01008494      -0.01070969      -0.25547478
F        5.49505921       5.46264869      12.63368606      -1.12423145      -0.74101353       0.35330150       0.58405071      -0.22625762      -1.20657253      -0.01293806      -0.28177911
C        7.81559163       3.71267970      12.35288642      -0.24645204       0.26884168      -0.60392077       0.72569132       0.68808055       0.38595358       0.02417669      -0.13369465
F        8.56575545       4.84199447      12.49802123      -0.39229846      -0.15043161       0.85623927      -0.35982454      -0.05170085       0.09332955      -0.01328464      -0.26915717
F        8.64395494       2.78938616      11.94013608       1.15946961       1.03075945      -0.09769072       0.64937174      -0.83835638      -0.05257282      -0.01165446      -0.20153362
F        7.38821760       3.36580554      13.58595436      -0.02749364      -1.23120630       0.26242313      -0.22986157       0.33917826      -0.58355808      -0.01192767      -0.26738393
H        7.62927130       4.30859638       9.72637634      -0.07127397       0.06180008      -0.04749438      -0.04877479      -0.83541745      -0.49124107       0.02372663      -0.02706373
H        5.98032480       3.12168477      11.63933879      -0.01033156      -0.01094387       0.16187259      -0.46497154      -0.11402804      -0.23088004       0.00984580      -0.04516158
O       12.07869119       3.06134057      11.34941821       1.13331783      -0.81625468       0.01751165      -0.10898530      -1.10227120       1.66409230      -0.03071016      -0.05712152
C       12.82871450       2.90528828      12.57510642       0.05028579      -0.86537282       0.57269149      -0.79437011      -0.60284460      -1.85558999       0.01277401      -0.22096553
C       13.49097694       4.24518809      12.87035987       0.02594711      -0.80958555       0.39516471      -1.09552062       0.73592907      -0.34204140       0.02450569      -0.10960229
F       12.49803368       5.16311185      13.13995285       0.99609391      -1.29706138       0.31664987       1.01065528      -0.68420893      -0.18102077      -0.01612491      -0.27844566
F       14.21066163       4.75176771      11.83393924      -0.18561546       0.51271008       0.52077281      -0.65475202      -0.36070582       0.11765347      -0.01253699      -0.27531493
F       14.30024888       4.15782135      13.87715578       1.00623900      -0.74163447      -0.97467480       0.60694194       0.22262225       1.42206073      -0.00873374      -0.21683228
C       13.83670235       1.73133524      12.37016833      -0.13361979      -0.34591483      -0.87205225      -2.01297832       0.09642388      -0.26767123       0.02377450      -0.13214378
F       14.67380597       2.02982635      11.41119359       0.61067458      -0.33297376       0.26631241       0.89672703      -0.09103037      -0.91715449      -0.01095408      -0.25175411
F       13.14951230       0.59791591      11.97448972      -0.08788570      -0.72809040       0.72566267       0.78926909       1.15899599       0.78147590      -0.01611879      -0.26860309
F       14.50840631       1.48869440      13.48301754       1.87935757      -0.38740901      -0.48752617       0.14266750      -0.55248368       0.34534258      -0.00920341      -0.26658154
H       12.43824153       3.76199464      10.81993670       0.15401679      -0.04071898      -0.21559111       0.48977891       0.59356779      -0.38317293       0.02045282      -0.06048577
H       12.13793292       2.57911836      13.38432928       0.00348927      -0.09924958       0.03984717       0.41166025       0.60878485      -0.45754907       0.01185234      -0.06095378
O        6.69741554       7.41895944       8.18675266      -0.40394148      -0.77146563      -0.35958147       0.06402364       0.37792385      -0.64935923      -0.02717683      -0.10848729
C        7.26240682       7.84909676       6.95867154       0.39790566       0.07851158      -0.21540348      -0.52312303      -0.74451149       0.52292889       0.01403080      -0.22151469
C        6.65770861       9.16638775       6.49761603       0.57794353      -0.64010447       0.51527564      -1.39289188      -0.84766829       0.45687336       0.02469483      -0.12328259
F        6.72128498      10.11501988       7.42319429       0.26567099      -0.71497754      -0.78508337       0.13559128       0.03803466       0.30547261      -0.01146231      -0.26166040
F        5.31062385       8.95821145       6.25552762       0.03976127       0.28624755       0.44238089       0.93421304       0.35491437      -0.12545702      -0.01357366      -0.27888590
F        7.25711749       9.60200843       5.42264170       0.06118659      -1.73105436       0.19296650       0.13518494       0.40672535      -1.02133465      -0.00814345      -0.24285462
C        7.20027114       6.67746377       5.94421154      -0.20466622      -0.16450715      -0.07746797      -0.95297110       0.97446918       0.14275324       0.02475503      -0.13042474
F        5.94096847       6.29696674       5.66510294      -0.81772770       2.32795044       0.02286286       0.00991145      -0.44436437       0.79047871      -0.00973523      -0.25651160
F        7.88640657       5.68242656       6.51266671      -1.45396955       0.44885491      -0.13756261      -0.15759608      -0.27917010      -0.61699355      -0.01060357      -0.25636914
F        7.69091519       6.99762700       4.75408917      -1.54881678      -0.61206125       0.25405860       1.04769492      -0.01297867      -0.13626336      -0.00998109      -0.24044600
H        5.73223431       7.43855883       8.09135850      -0.03095282      -0.04990380       0.20831957       0.15520443      -0.08108954       0.05786265       0.02331646      -0.04742132
H        8.31551569       7.99593591       7.10598865      -0.12056059       0.00947696      -0.03041402       0.57458055       0.25517690       0.29420817       0.01274739      -0.03721953
