513
One frame, coordinates nm; not a dynamics run
C 0.0000000000 0.0000000000 1.8999999760
C 0.1419999900 0.0000000000 1.8999999760
C 0.2130000000 0.1229999960 1.8999999760
C 0.3540000020 0.1229999960 1.8999999760
C 0.0000000000 0.2459999920 1.8999999760
C 0.1419999900 0.2459999920 1.8999999760
C 0.2130000000 0.3680000010 1.8999999760
C 0.3540000020 0.3680000010 1.8999999760
C 0.0000000000 0.4909999970 1.8999999760
C 0.1419999900 0.4909999970 1.8999999760
C 0.2130000000 0.6139999630 1.8999999760
C 0.3540000020 0.6139999630 1.8999999760
C 0.0000000000 0.7369999890 1.8999999760
C 0.1419999900 0.7369999890 1.8999999760
C 0.2130000000 0.8599999550 1.8999999760
C 0.3540000020 0.8599999550 1.8999999760
C 0.0000000000 0.9819999930 1.8999999760
C 0.1419999900 0.9819999930 1.8999999760
C 0.2130000000 1.1050000190 1.8999999760
C 0.3540000020 1.1050000190 1.8999999760
C 0.0000000000 1.2279999260 1.8999999760
C 0.1419999900 1.2279999260 1.8999999760
C 0.2130000000 1.3509999510 1.8999999760
C 0.3540000020 1.3509999510 1.8999999760
C 0.0000000000 1.4739999770 1.8999999760
C 0.1419999900 1.4739999770 1.8999999760
C 0.2130000000 1.5959999560 1.8999999760
C 0.3540000020 1.5959999560 1.8999999760
C 0.0000000000 1.7189999820 1.8999999760
C 0.1419999900 1.7189999820 1.8999999760
C 0.2130000000 1.8420000080 1.8999999760
C 0.3540000020 1.8420000080 1.8999999760
C 0.0000000000 1.9649999140 1.8999999760
C 0.1419999900 1.9649999140 1.8999999760
C 0.2130000000 2.0880000590 1.8999999760
C 0.3540000020 2.0880000590 1.8999999760
C 0.0000000000 2.2100000380 1.8999999760
C 0.1419999900 2.2100000380 1.8999999760
C 0.2130000000 2.3329999450 1.8999999760
C 0.3540000020 2.3329999450 1.8999999760
C 0.0000000000 2.4559998510 1.8999999760
C 0.1419999900 2.4559998510 1.8999999760
C 0.2130000000 2.5789999960 1.8999999760
C 0.3540000020 2.5789999960 1.8999999760
C 0.0000000000 2.7019999030 1.8999999760
C 0.1419999900 2.7019999030 1.8999999760
C 0.2130000000 2.8239998820 1.8999999760
C 0.3540000020 2.8239998820 1.8999999760
C 0.0000000000 2.9470000270 1.8999999760
C 0.1419999900 2.9470000270 1.8999999760
C 0.2130000000 3.0699999330 1.8999999760
C 0.3540000020 3.0699999330 1.8999999760
C 0.0000000000 3.1929998400 1.8999999760
C 0.1419999900 3.1929998400 1.8999999760
C 0.2130000000 3.3159999850 1.8999999760
C 0.3540000020 3.3159999850 1.8999999760
C 0.4249999820 0.0000000000 1.8999999760
C 0.5669999720 0.0000000000 1.8999999760
C 0.6380000110 0.1229999960 1.8999999760
C 0.7799999710 0.1229999960 1.8999999760
C 0.4249999820 0.2459999920 1.8999999760
C 0.5669999720 0.2459999920 1.8999999760
C 0.6380000110 0.3680000010 1.8999999760
C 0.7799999710 0.3680000010 1.8999999760
C 0.4249999820 0.4909999970 1.8999999760
C 0.5669999720 0.4909999970 1.8999999760
C 0.6380000110 0.6139999630 1.8999999760
C 0.7799999710 0.6139999630 1.8999999760
C 0.4249999820 0.7369999890 1.8999999760
C 0.5669999720 0.7369999890 1.8999999760
C 0.6380000110 0.8599999550 1.8999999760
C 0.7799999710 0.8599999550 1.8999999760
C 0.4249999820 0.9819999930 1.8999999760
C 0.5669999720 0.9819999930 1.8999999760
C 0.6380000110 1.1050000190 1.8999999760
C 0.7799999710 1.1050000190 1.8999999760
C 0.4249999820 1.2279999260 1.8999999760
C 0.5669999720 1.2279999260 1.8999999760
C 0.6380000110 1.3509999510 1.8999999760
C 0.7799999710 1.3509999510 1.8999999760
C 0.4249999820 1.4739999770 1.8999999760
C 0.5669999720 1.4739999770 1.8999999760
C 0.6380000110 1.5959999560 1.8999999760
C 0.7799999710 1.5959999560 1.8999999760
C 0.4249999820 1.7189999820 1.8999999760
C 0.5669999720 1.7189999820 1.8999999760
C 0.6380000110 1.8420000080 1.8999999760
C 0.7799999710 1.8420000080 1.8999999760
C 0.4249999820 1.9649999140 1.8999999760
C 0.5669999720 1.9649999140 1.8999999760
C 0.6380000110 2.0880000590 1.8999999760
C 0.7799999710 2.0880000590 1.8999999760
C 0.4249999820 2.2100000380 1.8999999760
C 0.5669999720 2.2100000380 1.8999999760
C 0.6380000110 2.3329999450 1.8999999760
C 0.7799999710 2.3329999450 1.8999999760
C 0.4249999820 2.4559998510 1.8999999760
C 0.5669999720 2.4559998510 1.8999999760
C 0.6380000110 2.5789999960 1.8999999760
C 0.7799999710 2.5789999960 1.8999999760
C 0.4249999820 2.7019999030 1.8999999760
C 0.5669999720 2.7019999030 1.8999999760
C 0.6380000110 2.8239998820 1.8999999760
C 0.7799999710 2.8239998820 1.8999999760
C 0.4249999820 2.9470000270 1.8999999760
C 0.5669999720 2.9470000270 1.8999999760
C 0.6380000110 3.0699999330 1.8999999760
C 0.7799999710 3.0699999330 1.8999999760
C 0.4249999820 3.1929998400 1.8999999760
C 0.5669999720 3.1929998400 1.8999999760
C 0.6380000110 3.3159999850 1.8999999760
C 0.7799999710 3.3159999850 1.8999999760
C 0.8509999510 0.0000000000 1.8999999760
C 0.9929999710 0.0000000000 1.8999999760
C 1.0640000100 0.1229999960 1.8999999760
C 1.2049999240 0.1229999960 1.8999999760
C 0.8509999510 0.2459999920 1.8999999760
C 0.9929999710 0.2459999920 1.8999999760
C 1.0640000100 0.3680000010 1.8999999760
C 1.2049999240 0.3680000010 1.8999999760
C 0.8509999510 0.4909999970 1.8999999760
C 0.9929999710 0.4909999970 1.8999999760
C 1.0640000100 0.6139999630 1.8999999760
C 1.2049999240 0.6139999630 1.8999999760
C 0.8509999510 0.7369999890 1.8999999760
C 0.9929999710 0.7369999890 1.8999999760
C 1.0640000100 0.8599999550 1.8999999760
C 1.2049999240 0.8599999550 1.8999999760
C 0.8509999510 0.9819999930 1.8999999760
C 0.9929999710 0.9819999930 1.8999999760
C 1.0640000100 1.1050000190 1.8999999760
C 1.2049999240 1.1050000190 1.8999999760
C 0.8509999510 1.2279999260 1.8999999760
C 0.9929999710 1.2279999260 1.8999999760
C 1.0640000100 1.3509999510 1.8999999760
C 1.2049999240 1.3509999510 1.8999999760
C 0.8509999510 1.4739999770 1.8999999760
C 0.9929999710 1.4739999770 1.8999999760
C 1.0640000100 1.5959999560 1.8999999760
C 1.2049999240 1.5959999560 1.8999999760
C 0.8509999510 1.7189999820 1.8999999760
C 0.9929999710 1.7189999820 1.8999999760
C 1.0640000100 1.8420000080 1.8999999760
C 1.2049999240 1.8420000080 1.8999999760
C 0.8509999510 1.9649999140 1.8999999760
C 0.9929999710 1.9649999140 1.8999999760
C 1.0640000100 2.0880000590 1.8999999760
C 1.2049999240 2.0880000590 1.8999999760
C 0.8509999510 2.2100000380 1.8999999760
C 0.9929999710 2.2100000380 1.8999999760
C 1.0640000100 2.3329999450 1.8999999760
C 1.2049999240 2.3329999450 1.8999999760
C 0.8509999510 2.4559998510 1.8999999760
C 0.9929999710 2.4559998510 1.8999999760
C 1.0640000100 2.5789999960 1.8999999760
C 1.2049999240 2.5789999960 1.8999999760
C 0.8509999510 2.7019999030 1.8999999760
C 0.9929999710 2.7019999030 1.8999999760
C 1.0640000100 2.8239998820 1.8999999760
C 1.2049999240 2.8239998820 1.8999999760
C 0.8509999510 2.9470000270 1.8999999760
C 0.9929999710 2.9470000270 1.8999999760
C 1.0640000100 3.0699999330 1.8999999760
C 1.2049999240 3.0699999330 1.8999999760
C 0.8509999510 3.1929998400 1.8999999760
C 0.9929999710 3.1929998400 1.8999999760
C 1.0640000100 3.3159999850 1.8999999760
C 1.2049999240 3.3159999850 1.8999999760
C 1.2760000230 0.0000000000 1.8999999760
C 1.4179999830 0.0000000000 1.8999999760
C 1.4889999630 0.1229999960 1.8999999760
C 1.6309999230 0.1229999960 1.8999999760
C 1.2760000230 0.2459999920 1.8999999760
C 1.4179999830 0.2459999920 1.8999999760
C 1.4889999630 0.3680000010 1.8999999760
C 1.6309999230 0.3680000010 1.8999999760
C 1.2760000230 0.4909999970 1.8999999760
C 1.4179999830 0.4909999970 1.8999999760
C 1.4889999630 0.6139999630 1.8999999760
C 1.6309999230 0.6139999630 1.8999999760
C 1.2760000230 0.7369999890 1.8999999760
C 1.4179999830 0.7369999890 1.8999999760
C 1.4889999630 0.8599999550 1.8999999760
C 1.6309999230 0.8599999550 1.8999999760
C 1.2760000230 0.9819999930 1.8999999760
C 1.4179999830 0.9819999930 1.8999999760
C 1.4889999630 1.1050000190 1.8999999760
C 1.6309999230 1.1050000190 1.8999999760
C 1.2760000230 1.2279999260 1.8999999760
C 1.4179999830 1.2279999260 1.8999999760
C 1.4889999630 1.3509999510 1.8999999760
C 1.6309999230 1.3509999510 1.8999999760
C 1.2760000230 1.4739999770 1.8999999760
C 1.4179999830 1.4739999770 1.8999999760
C 1.4889999630 1.5959999560 1.8999999760
C 1.6309999230 1.5959999560 1.8999999760
C 1.2760000230 1.7189999820 1.8999999760
C 1.4179999830 1.7189999820 1.8999999760
C 1.4889999630 1.8420000080 1.8999999760
C 1.6309999230 1.8420000080 1.8999999760
C 1.2760000230 1.9649999140 1.8999999760
C 1.4179999830 1.9649999140 1.8999999760
C 1.4889999630 2.0880000590 1.8999999760
C 1.6309999230 2.0880000590 1.8999999760
C 1.2760000230 2.2100000380 1.8999999760
C 1.4179999830 2.2100000380 1.8999999760
C 1.4889999630 2.3329999450 1.8999999760
C 1.6309999230 2.3329999450 1.8999999760
C 1.2760000230 2.4559998510 1.8999999760
C 1.4179999830 2.4559998510 1.8999999760
C 1.4889999630 2.5789999960 1.8999999760
C 1.6309999230 2.5789999960 1.8999999760
C 1.2760000230 2.7019999030 1.8999999760
C 1.4179999830 2.7019999030 1.8999999760
C 1.4889999630 2.8239998820 1.8999999760
C 1.6309999230 2.8239998820 1.8999999760
C 1.2760000230 2.9470000270 1.8999999760
C 1.4179999830 2.9470000270 1.8999999760
C 1.4889999630 3.0699999330 1.8999999760
C 1.6309999230 3.0699999330 1.8999999760
C 1.2760000230 3.1929998400 1.8999999760
C 1.4179999830 3.1929998400 1.8999999760
C 1.4889999630 3.3159999850 1.8999999760
C 1.6309999230 3.3159999850 1.8999999760
C 1.7019999030 0.0000000000 1.8999999760
C 1.8429999350 0.0000000000 1.8999999760
C 1.9139999150 0.1229999960 1.8999999760
C 2.0559999940 0.1229999960 1.8999999760
C 1.7019999030 0.2459999920 1.8999999760
C 1.8429999350 0.2459999920 1.8999999760
C 1.9139999150 0.3680000010 1.8999999760
C 2.0559999940 0.3680000010 1.8999999760
C 1.7019999030 0.4909999970 1.8999999760
C 1.8429999350 0.4909999970 1.8999999760
C 1.9139999150 0.6139999630 1.8999999760
C 2.0559999940 0.6139999630 1.8999999760
C 1.7019999030 0.7369999890 1.8999999760
C 1.8429999350 0.7369999890 1.8999999760
C 1.9139999150 0.8599999550 1.8999999760
C 2.0559999940 0.8599999550 1.8999999760
C 1.7019999030 0.9819999930 1.8999999760
C 1.8429999350 0.9819999930 1.8999999760
C 1.9139999150 1.1050000190 1.8999999760
C 2.0559999940 1.1050000190 1.8999999760
C 1.7019999030 1.2279999260 1.8999999760
C 1.8429999350 1.2279999260 1.8999999760
C 1.9139999150 1.3509999510 1.8999999760
C 2.0559999940 1.3509999510 1.8999999760
C 1.7019999030 1.4739999770 1.8999999760
C 1.8429999350 1.4739999770 1.8999999760
C 1.9139999150 1.5959999560 1.8999999760
C 2.0559999940 1.5959999560 1.8999999760
C 1.7019999030 1.7189999820 1.8999999760
C 1.8429999350 1.7189999820 1.8999999760
C 1.9139999150 1.8420000080 1.8999999760
C 2.0559999940 1.8420000080 1.8999999760
C 1.7019999030 1.9649999140 1.8999999760
C 1.8429999350 1.9649999140 1.8999999760
C 1.9139999150 2.0880000590 1.8999999760
C 2.0559999940 2.0880000590 1.8999999760
C 1.7019999030 2.2100000380 1.8999999760
C 1.8429999350 2.2100000380 1.8999999760
C 1.9139999150 2.3329999450 1.8999999760
C 2.0559999940 2.3329999450 1.8999999760
C 1.7019999030 2.4559998510 1.8999999760
C 1.8429999350 2.4559998510 1.8999999760
C 1.9139999150 2.5789999960 1.8999999760
C 2.0559999940 2.5789999960 1.8999999760
C 1.7019999030 2.7019999030 1.8999999760
C 1.8429999350 2.7019999030 1.8999999760
C 1.9139999150 2.8239998820 1.8999999760
C 2.0559999940 2.8239998820 1.8999999760
C 1.7019999030 2.9470000270 1.8999999760
C 1.8429999350 2.9470000270 1.8999999760
C 1.9139999150 3.0699999330 1.8999999760
C 2.0559999940 3.0699999330 1.8999999760
C 1.7019999030 3.1929998400 1.8999999760
C 1.8429999350 3.1929998400 1.8999999760
C 1.9139999150 3.3159999850 1.8999999760
C 2.0559999940 3.3159999850 1.8999999760
C 2.1269998550 0.0000000000 1.8999999760
C 2.2690000530 0.0000000000 1.8999999760
C 2.3399999140 0.1229999960 1.8999999760
C 2.4809999470 0.1229999960 1.8999999760
C 2.1269998550 0.2459999920 1.8999999760
C 2.2690000530 0.2459999920 1.8999999760
C 2.3399999140 0.3680000010 1.8999999760
C 2.4809999470 0.3680000010 1.8999999760
C 2.1269998550 0.4909999970 1.8999999760
C 2.2690000530 0.4909999970 1.8999999760
C 2.3399999140 0.6139999630 1.8999999760
C 2.4809999470 0.6139999630 1.8999999760
C 2.1269998550 0.7369999890 1.8999999760
C 2.2690000530 0.7369999890 1.8999999760
C 2.3399999140 0.8599999550 1.8999999760
C 2.4809999470 0.8599999550 1.8999999760
C 2.1269998550 0.9819999930 1.8999999760
C 2.2690000530 0.9819999930 1.8999999760
C 2.3399999140 1.1050000190 1.8999999760
C 2.4809999470 1.1050000190 1.8999999760
C 2.1269998550 1.2279999260 1.8999999760
C 2.2690000530 1.2279999260 1.8999999760
C 2.3399999140 1.3509999510 1.8999999760
C 2.4809999470 1.3509999510 1.8999999760
C 2.1269998550 1.4739999770 1.8999999760
C 2.2690000530 1.4739999770 1.8999999760
C 2.3399999140 1.5959999560 1.8999999760
C 2.4809999470 1.5959999560 1.8999999760
C 2.1269998550 1.7189999820 1.8999999760
C 2.2690000530 1.7189999820 1.8999999760
C 2.3399999140 1.8420000080 1.8999999760
C 2.4809999470 1.8420000080 1.8999999760
C 2.1269998550 1.9649999140 1.8999999760
C 2.2690000530 1.9649999140 1.8999999760
C 2.3399999140 2.0880000590 1.8999999760
C 2.4809999470 2.0880000590 1.8999999760
C 2.1269998550 2.2100000380 1.8999999760
C 2.2690000530 2.2100000380 1.8999999760
C 2.3399999140 2.3329999450 1.8999999760
C 2.4809999470 2.3329999450 1.8999999760
C 2.1269998550 2.4559998510 1.8999999760
C 2.2690000530 2.4559998510 1.8999999760
C 2.3399999140 2.5789999960 1.8999999760
C 2.4809999470 2.5789999960 1.8999999760
C 2.1269998550 2.7019999030 1.8999999760
C 2.2690000530 2.7019999030 1.8999999760
C 2.3399999140 2.8239998820 1.8999999760
C 2.4809999470 2.8239998820 1.8999999760
C 2.1269998550 2.9470000270 1.8999999760
C 2.2690000530 2.9470000270 1.8999999760
C 2.3399999140 3.0699999330 1.8999999760
C 2.4809999470 3.0699999330 1.8999999760
C 2.1269998550 3.1929998400 1.8999999760
C 2.2690000530 3.1929998400 1.8999999760
C 2.3399999140 3.3159999850 1.8999999760
C 2.4809999470 3.3159999850 1.8999999760
C 2.5520000460 0.0000000000 1.8999999760
C 2.6940000060 0.0000000000 1.8999999760
C 2.7649998660 0.1229999960 1.8999999760
C 2.9069998260 0.1229999960 1.8999999760
C 2.5520000460 0.2459999920 1.8999999760
C 2.6940000060 0.2459999920 1.8999999760
C 2.7649998660 0.3680000010 1.8999999760
C 2.9069998260 0.3680000010 1.8999999760
C 2.5520000460 0.4909999970 1.8999999760
C 2.6940000060 0.4909999970 1.8999999760
C 2.7649998660 0.6139999630 1.8999999760
C 2.9069998260 0.6139999630 1.8999999760
C 2.5520000460 0.7369999890 1.8999999760
C 2.6940000060 0.7369999890 1.8999999760
C 2.7649998660 0.8599999550 1.8999999760
C 2.9069998260 0.8599999550 1.8999999760
C 2.5520000460 0.9819999930 1.8999999760
C 2.6940000060 0.9819999930 1.8999999760
C 2.7649998660 1.1050000190 1.8999999760
C 2.9069998260 1.1050000190 1.8999999760
C 2.5520000460 1.2279999260 1.8999999760
C 2.6940000060 1.2279999260 1.8999999760
C 2.7649998660 1.3509999510 1.8999999760
C 2.9069998260 1.3509999510 1.8999999760
C 2.5520000460 1.4739999770 1.8999999760
C 2.6940000060 1.4739999770 1.8999999760
C 2.7649998660 1.5959999560 1.8999999760
C 2.9069998260 1.5959999560 1.8999999760
C 2.5520000460 1.7189999820 1.8999999760
C 2.6940000060 1.7189999820 1.8999999760
C 2.7649998660 1.8420000080 1.8999999760
C 2.9069998260 1.8420000080 1.8999999760
C 2.5520000460 1.9649999140 1.8999999760
C 2.6940000060 1.9649999140 1.8999999760
C 2.7649998660 2.0880000590 1.8999999760
C 2.9069998260 2.0880000590 1.8999999760
C 2.5520000460 2.2100000380 1.8999999760
C 2.6940000060 2.2100000380 1.8999999760
C 2.7649998660 2.3329999450 1.8999999760
C 2.9069998260 2.3329999450 1.8999999760
C 2.5520000460 2.4559998510 1.8999999760
C 2.6940000060 2.4559998510 1.8999999760
C 2.7649998660 2.5789999960 1.8999999760
C 2.9069998260 2.5789999960 1.8999999760
C 2.5520000460 2.7019999030 1.8999999760
C 2.6940000060 2.7019999030 1.8999999760
C 2.7649998660 2.8239998820 1.8999999760
C 2.9069998260 2.8239998820 1.8999999760
C 2.5520000460 2.9470000270 1.8999999760
C 2.6940000060 2.9470000270 1.8999999760
C 2.7649998660 3.0699999330 1.8999999760
C 2.9069998260 3.0699999330 1.8999999760
C 2.5520000460 3.1929998400 1.8999999760
C 2.6940000060 3.1929998400 1.8999999760
C 2.7649998660 3.3159999850 1.8999999760
C 2.9069998260 3.3159999850 1.8999999760
C 2.9779999260 0.0000000000 1.8999999760
C 3.1199998860 0.0000000000 1.8999999760
C 3.1909999850 0.1229999960 1.8999999760
C 3.3320000170 0.1229999960 1.8999999760
C 2.9779999260 0.2459999920 1.8999999760
C 3.1199998860 0.2459999920 1.8999999760
C 3.1909999850 0.3680000010 1.8999999760
C 3.3320000170 0.3680000010 1.8999999760
C 2.9779999260 0.4909999970 1.8999999760
C 3.1199998860 0.4909999970 1.8999999760
C 3.1909999850 0.6139999630 1.8999999760
C 3.3320000170 0.6139999630 1.8999999760
C 2.9779999260 0.7369999890 1.8999999760
C 3.1199998860 0.7369999890 1.8999999760
C 3.1909999850 0.8599999550 1.8999999760
C 3.3320000170 0.8599999550 1.8999999760
C 2.9779999260 0.9819999930 1.8999999760
C 3.1199998860 0.9819999930 1.8999999760
C 3.1909999850 1.1050000190 1.8999999760
C 3.3320000170 1.1050000190 1.8999999760
C 2.9779999260 1.2279999260 1.8999999760
C 3.1199998860 1.2279999260 1.8999999760
C 3.1909999850 1.3509999510 1.8999999760
C 3.3320000170 1.3509999510 1.8999999760
C 2.9779999260 1.4739999770 1.8999999760
C 3.1199998860 1.4739999770 1.8999999760
C 3.1909999850 1.5959999560 1.8999999760
C 3.3320000170 1.5959999560 1.8999999760
C 2.9779999260 1.7189999820 1.8999999760
C 3.1199998860 1.7189999820 1.8999999760
C 3.1909999850 1.8420000080 1.8999999760
C 3.3320000170 1.8420000080 1.8999999760
C 2.9779999260 1.9649999140 1.8999999760
C 3.1199998860 1.9649999140 1.8999999760
C 3.1909999850 2.0880000590 1.8999999760
C 3.3320000170 2.0880000590 1.8999999760
C 2.9779999260 2.2100000380 1.8999999760
C 3.1199998860 2.2100000380 1.8999999760
C 3.1909999850 2.3329999450 1.8999999760
C 3.3320000170 2.3329999450 1.8999999760
C 2.9779999260 2.4559998510 1.8999999760
C 3.1199998860 2.4559998510 1.8999999760
C 3.1909999850 2.5789999960 1.8999999760
C 3.3320000170 2.5789999960 1.8999999760
C 2.9779999260 2.7019999030 1.8999999760
C 3.1199998860 2.7019999030 1.8999999760
C 3.1909999850 2.8239998820 1.8999999760
C 3.3320000170 2.8239998820 1.8999999760
C 2.9779999260 2.9470000270 1.8999999760
C 3.1199998860 2.9470000270 1.8999999760
C 3.1909999850 3.0699999330 1.8999999760
C 3.3320000170 3.0699999330 1.8999999760
C 2.9779999260 3.1929998400 1.8999999760
C 3.1199998860 3.1929998400 1.8999999760
C 3.1909999850 3.3159999850 1.8999999760
C 3.3320000170 3.3159999850 1.8999999760
C 0.1964000020 2.2591998580 2.2421998980
C 0.1748999950 2.1998000140 2.3866000180
C 0.0313000010 2.2546999450 2.4140000340
C 0.1726000010 2.0471999650 2.3880000110
C 0.2474000010 1.9828000070 2.4565000530
C 0.0797999950 1.9881999490 2.3146998880
C 0.0683999960 1.8414999250 2.3069000240
C 0.2936999800 2.2653000350 2.4686999320
C 0.2755000000 2.3076000210 2.6276998520
C 0.1819999960 2.4299998280 2.6524000170
C 0.4217999880 2.3464999200 2.6796000000
C 0.4641999900 2.4621000290 2.6768000130
C 0.5033999680 2.2376999860 2.7029998300
C 0.6456999780 2.2523000240 2.7314000130
C 0.2199999990 2.1857998370 2.7156999110
C 0.1950999950 2.1905000210 2.8713998790
C 0.1884000000 2.0467000010 2.9265999790
C 0.3123999830 2.2604999540 2.9550998210
C 0.3986999990 2.2005000110 3.0230000020
C 0.3103999790 2.3992998600 2.9503998760
C 0.4167999920 2.4735000130 3.0055999760
C 0.0611999970 2.2642998700 2.9045999050
C -0.0185999870 2.2632000450 3.0412998200
C 0.0652999950 2.3262999060 3.1570999620
C -0.0843000410 2.1268999580 3.0688998700
C -0.1280000210 2.0525999070 2.9801998140
C -0.0810999870 2.0915999410 3.1963000300
C -0.1314001080 1.9642999170 3.2362999920
C -0.1419000630 2.3590998650 3.0282998090
C 0.1237999950 2.2123999600 2.1747999190
C 0.1900999990 2.3684999940 2.2379000190
C 0.2963999810 2.2307000160 2.2079999450
C -0.0044000150 2.2117998600 2.5081999300
C -0.0462000370 2.2244999410 2.3427000050
C 0.0281999990 2.3622999190 2.4342999460
C -0.0178999900 1.8266999720 2.2414999010
C 0.0433999970 1.7977999450 2.4038000110
C 0.1591999980 1.8104999070 2.2547998430
C 0.3795999880 2.1974999900 2.4723000530
C 0.3278999920 2.3573000430 2.4203000070
C 0.2180999960 2.4867999550 2.7388000490
C 0.1954000000 2.5060000420 2.5746998790
C 0.0726000000 2.4272999760 2.6498999600
C 0.6535999770 2.2977998260 2.8302998540
C 0.6869999770 2.3243999480 2.6605000500
C 0.7028999920 2.1596999170 2.7222998140
C 0.1280999930 2.1498999600 2.6680998800
C 0.2831999960 2.1001000400 2.6899998190
C 0.1684999910 2.0532000060 3.0339999200
C 0.2838999930 1.9933999780 2.9317998890
C 0.1153000000 1.9891999960 2.8687000270
C 0.4069999750 2.4711999890 3.1143000130
C 0.4175999760 2.5766999720 2.9698998930
C 0.5105000140 2.4277999400 2.9731998440
C 0.0846000020 2.3694000240 2.8849999900
C -0.0092999940 2.2484998700 2.8222999570
C 0.1507000030 2.2612998490 3.1785998340
C 0.1015999990 2.4270999430 3.1342999940
C -0.0027000900 2.3350000380 3.2423999310
C -0.1626999380 1.9616999630 3.3408999440
C -0.0467998980 1.8952999110 3.2394998070
C -0.2032001020 1.9093999860 3.1749999520
C -0.2228000160 2.3139998910 2.9698998930
C -0.1761999130 2.3810999390 3.1298999790
C -0.1045000550 2.4470000270 2.9747998710
