        3225
  Built with Packmol                                             
  C            0.000000        0.000000       19.000000
  C            1.418000        0.000000       19.000000
  C            2.127000        1.228024       19.000000
  C            3.545000        1.228024       19.000000
  C            0.000000        2.456048       19.000000
  C            1.418000        2.456048       19.000000
  C            2.127000        3.684072       19.000000
  C            3.545000        3.684072       19.000000
  C            0.000000        4.912096       19.000000
  C            1.418000        4.912096       19.000000
  C            2.127000        6.140120       19.000000
  C            3.545000        6.140120       19.000000
  C            0.000000        7.368144       19.000000
  C            1.418000        7.368144       19.000000
  C            2.127000        8.596168       19.000000
  C            3.545000        8.596168       19.000000
  C            0.000000        9.824192       19.000000
  C            1.418000        9.824192       19.000000
  C            2.127000       11.052216       19.000000
  C            3.545000       11.052216       19.000000
  C            0.000000       12.280240       19.000000
  C            1.418000       12.280240       19.000000
  C            2.127000       13.508264       19.000000
  C            3.545000       13.508264       19.000000
  C            0.000000       14.736288       19.000000
  C            1.418000       14.736288       19.000000
  C            2.127000       15.964312       19.000000
  C            3.545000       15.964312       19.000000
  C            0.000000       17.192336       19.000000
  C            1.418000       17.192336       19.000000
  C            2.127000       18.420360       19.000000
  C            3.545000       18.420360       19.000000
  C            0.000000       19.648384       19.000000
  C            1.418000       19.648384       19.000000
  C            2.127000       20.876408       19.000000
  C            3.545000       20.876408       19.000000
  C            0.000000       22.104432       19.000000
  C            1.418000       22.104432       19.000000
  C            2.127000       23.332456       19.000000
  C            3.545000       23.332456       19.000000
  C            0.000000       24.560480       19.000000
  C            1.418000       24.560480       19.000000
  C            2.127000       25.788504       19.000000
  C            3.545000       25.788504       19.000000
  C            0.000000       27.016528       19.000000
  C            1.418000       27.016528       19.000000
  C            2.127000       28.244553       19.000000
  C            3.545000       28.244553       19.000000
  C            0.000000       29.472577       19.000000
  C            1.418000       29.472577       19.000000
  C            2.127000       30.700601       19.000000
  C            3.545000       30.700601       19.000000
  C            0.000000       31.928625       19.000000
  C            1.418000       31.928625       19.000000
  C            2.127000       33.156649       19.000000
  C            3.545000       33.156649       19.000000
  C            4.254000        0.000000       19.000000
  C            5.672000        0.000000       19.000000
  C            6.381000        1.228024       19.000000
  C            7.799000        1.228024       19.000000
  C            4.254000        2.456048       19.000000
  C            5.672000        2.456048       19.000000
  C            6.381000        3.684072       19.000000
  C            7.799000        3.684072       19.000000
  C            4.254000        4.912096       19.000000
  C            5.672000        4.912096       19.000000
  C            6.381000        6.140120       19.000000
  C            7.799000        6.140120       19.000000
  C            4.254000        7.368144       19.000000
  C            5.672000        7.368144       19.000000
  C            6.381000        8.596168       19.000000
  C            7.799000        8.596168       19.000000
  C            4.254000        9.824192       19.000000
  C            5.672000        9.824192       19.000000
  C            6.381000       11.052216       19.000000
  C            7.799000       11.052216       19.000000
  C            4.254000       12.280240       19.000000
  C            5.672000       12.280240       19.000000
  C            6.381000       13.508264       19.000000
  C            7.799000       13.508264       19.000000
  C            4.254000       14.736288       19.000000
  C            5.672000       14.736288       19.000000
  C            6.381000       15.964312       19.000000
  C            7.799000       15.964312       19.000000
  C            4.254000       17.192336       19.000000
  C            5.672000       17.192336       19.000000
  C            6.381000       18.420360       19.000000
  C            7.799000       18.420360       19.000000
  C            4.254000       19.648384       19.000000
  C            5.672000       19.648384       19.000000
  C            6.381000       20.876408       19.000000
  C            7.799000       20.876408       19.000000
  C            4.254000       22.104432       19.000000
  C            5.672000       22.104432       19.000000
  C            6.381000       23.332456       19.000000
  C            7.799000       23.332456       19.000000
  C            4.254000       24.560480       19.000000
  C            5.672000       24.560480       19.000000
  C            6.381000       25.788504       19.000000
  C            7.799000       25.788504       19.000000
  C            4.254000       27.016528       19.000000
  C            5.672000       27.016528       19.000000
  C            6.381000       28.244553       19.000000
  C            7.799000       28.244553       19.000000
  C            4.254000       29.472577       19.000000
  C            5.672000       29.472577       19.000000
  C            6.381000       30.700601       19.000000
  C            7.799000       30.700601       19.000000
  C            4.254000       31.928625       19.000000
  C            5.672000       31.928625       19.000000
  C            6.381000       33.156649       19.000000
  C            7.799000       33.156649       19.000000
  C            8.508000        0.000000       19.000000
  C            9.926000        0.000000       19.000000
  C           10.635000        1.228024       19.000000
  C           12.053000        1.228024       19.000000
  C            8.508000        2.456048       19.000000
  C            9.926000        2.456048       19.000000
  C           10.635000        3.684072       19.000000
  C           12.053000        3.684072       19.000000
  C            8.508000        4.912096       19.000000
  C            9.926000        4.912096       19.000000
  C           10.635000        6.140120       19.000000
  C           12.053000        6.140120       19.000000
  C            8.508000        7.368144       19.000000
  C            9.926000        7.368144       19.000000
  C           10.635000        8.596168       19.000000
  C           12.053000        8.596168       19.000000
  C            8.508000        9.824192       19.000000
  C            9.926000        9.824192       19.000000
  C           10.635000       11.052216       19.000000
  C           12.053000       11.052216       19.000000
  C            8.508000       12.280240       19.000000
  C            9.926000       12.280240       19.000000
  C           10.635000       13.508264       19.000000
  C           12.053000       13.508264       19.000000
  C            8.508000       14.736288       19.000000
  C            9.926000       14.736288       19.000000
  C           10.635000       15.964312       19.000000
  C           12.053000       15.964312       19.000000
  C            8.508000       17.192336       19.000000
  C            9.926000       17.192336       19.000000
  C           10.635000       18.420360       19.000000
  C           12.053000       18.420360       19.000000
  C            8.508000       19.648384       19.000000
  C            9.926000       19.648384       19.000000
  C           10.635000       20.876408       19.000000
  C           12.053000       20.876408       19.000000
  C            8.508000       22.104432       19.000000
  C            9.926000       22.104432       19.000000
  C           10.635000       23.332456       19.000000
  C           12.053000       23.332456       19.000000
  C            8.508000       24.560480       19.000000
  C            9.926000       24.560480       19.000000
  C           10.635000       25.788504       19.000000
  C           12.053000       25.788504       19.000000
  C            8.508000       27.016528       19.000000
  C            9.926000       27.016528       19.000000
  C           10.635000       28.244553       19.000000
  C           12.053000       28.244553       19.000000
  C            8.508000       29.472577       19.000000
  C            9.926000       29.472577       19.000000
  C           10.635000       30.700601       19.000000
  C           12.053000       30.700601       19.000000
  C            8.508000       31.928625       19.000000
  C            9.926000       31.928625       19.000000
  C           10.635000       33.156649       19.000000
  C           12.053000       33.156649       19.000000
  C           12.762000        0.000000       19.000000
  C           14.180000        0.000000       19.000000
  C           14.889000        1.228024       19.000000
  C           16.307000        1.228024       19.000000
  C           12.762000        2.456048       19.000000
  C           14.180000        2.456048       19.000000
  C           14.889000        3.684072       19.000000
  C           16.307000        3.684072       19.000000
  C           12.762000        4.912096       19.000000
  C           14.180000        4.912096       19.000000
  C           14.889000        6.140120       19.000000
  C           16.307000        6.140120       19.000000
  C           12.762000        7.368144       19.000000
  C           14.180000        7.368144       19.000000
  C           14.889000        8.596168       19.000000
  C           16.307000        8.596168       19.000000
  C           12.762000        9.824192       19.000000
  C           14.180000        9.824192       19.000000
  C           14.889000       11.052216       19.000000
  C           16.307000       11.052216       19.000000
  C           12.762000       12.280240       19.000000
  C           14.180000       12.280240       19.000000
  C           14.889000       13.508264       19.000000
  C           16.307000       13.508264       19.000000
  C           12.762000       14.736288       19.000000
  C           14.180000       14.736288       19.000000
  C           14.889000       15.964312       19.000000
  C           16.307000       15.964312       19.000000
  C           12.762000       17.192336       19.000000
  C           14.180000       17.192336       19.000000
  C           14.889000       18.420360       19.000000
  C           16.307000       18.420360       19.000000
  C           12.762000       19.648384       19.000000
  C           14.180000       19.648384       19.000000
  C           14.889000       20.876408       19.000000
  C           16.307000       20.876408       19.000000
  C           12.762000       22.104432       19.000000
  C           14.180000       22.104432       19.000000
  C           14.889000       23.332456       19.000000
  C           16.307000       23.332456       19.000000
  C           12.762000       24.560480       19.000000
  C           14.180000       24.560480       19.000000
  C           14.889000       25.788504       19.000000
  C           16.307000       25.788504       19.000000
  C           12.762000       27.016528       19.000000
  C           14.180000       27.016528       19.000000
  C           14.889000       28.244553       19.000000
  C           16.307000       28.244553       19.000000
  C           12.762000       29.472577       19.000000
  C           14.180000       29.472577       19.000000
  C           14.889000       30.700601       19.000000
  C           16.307000       30.700601       19.000000
  C           12.762000       31.928625       19.000000
  C           14.180000       31.928625       19.000000
  C           14.889000       33.156649       19.000000
  C           16.307000       33.156649       19.000000
  C           17.016000        0.000000       19.000000
  C           18.434000        0.000000       19.000000
  C           19.143000        1.228024       19.000000
  C           20.561000        1.228024       19.000000
  C           17.016000        2.456048       19.000000
  C           18.434000        2.456048       19.000000
  C           19.143000        3.684072       19.000000
  C           20.561000        3.684072       19.000000
  C           17.016000        4.912096       19.000000
  C           18.434000        4.912096       19.000000
  C           19.143000        6.140120       19.000000
  C           20.561000        6.140120       19.000000
  C           17.016000        7.368144       19.000000
  C           18.434000        7.368144       19.000000
  C           19.143000        8.596168       19.000000
  C           20.561000        8.596168       19.000000
  C           17.016000        9.824192       19.000000
  C           18.434000        9.824192       19.000000
  C           19.143000       11.052216       19.000000
  C           20.561000       11.052216       19.000000
  C           17.016000       12.280240       19.000000
  C           18.434000       12.280240       19.000000
  C           19.143000       13.508264       19.000000
  C           20.561000       13.508264       19.000000
  C           17.016000       14.736288       19.000000
  C           18.434000       14.736288       19.000000
  C           19.143000       15.964312       19.000000
  C           20.561000       15.964312       19.000000
  C           17.016000       17.192336       19.000000
  C           18.434000       17.192336       19.000000
  C           19.143000       18.420360       19.000000
  C           20.561000       18.420360       19.000000
  C           17.016000       19.648384       19.000000
  C           18.434000       19.648384       19.000000
  C           19.143000       20.876408       19.000000
  C           20.561000       20.876408       19.000000
  C           17.016000       22.104432       19.000000
  C           18.434000       22.104432       19.000000
  C           19.143000       23.332456       19.000000
  C           20.561000       23.332456       19.000000
  C           17.016000       24.560480       19.000000
  C           18.434000       24.560480       19.000000
  C           19.143000       25.788504       19.000000
  C           20.561000       25.788504       19.000000
  C           17.016000       27.016528       19.000000
  C           18.434000       27.016528       19.000000
  C           19.143000       28.244553       19.000000
  C           20.561000       28.244553       19.000000
  C           17.016000       29.472577       19.000000
  C           18.434000       29.472577       19.000000
  C           19.143000       30.700601       19.000000
  C           20.561000       30.700601       19.000000
  C           17.016000       31.928625       19.000000
  C           18.434000       31.928625       19.000000
  C           19.143000       33.156649       19.000000
  C           20.561000       33.156649       19.000000
  C           21.270000        0.000000       19.000000
  C           22.688000        0.000000       19.000000
  C           23.397000        1.228024       19.000000
  C           24.815000        1.228024       19.000000
  C           21.270000        2.456048       19.000000
  C           22.688000        2.456048       19.000000
  C           23.397000        3.684072       19.000000
  C           24.815000        3.684072       19.000000
  C           21.270000        4.912096       19.000000
  C           22.688000        4.912096       19.000000
  C           23.397000        6.140120       19.000000
  C           24.815000        6.140120       19.000000
  C           21.270000        7.368144       19.000000
  C           22.688000        7.368144       19.000000
  C           23.397000        8.596168       19.000000
  C           24.815000        8.596168       19.000000
  C           21.270000        9.824192       19.000000
  C           22.688000        9.824192       19.000000
  C           23.397000       11.052216       19.000000
  C           24.815000       11.052216       19.000000
  C           21.270000       12.280240       19.000000
  C           22.688000       12.280240       19.000000
  C           23.397000       13.508264       19.000000
  C           24.815000       13.508264       19.000000
  C           21.270000       14.736288       19.000000
  C           22.688000       14.736288       19.000000
  C           23.397000       15.964312       19.000000
  C           24.815000       15.964312       19.000000
  C           21.270000       17.192336       19.000000
  C           22.688000       17.192336       19.000000
  C           23.397000       18.420360       19.000000
  C           24.815000       18.420360       19.000000
  C           21.270000       19.648384       19.000000
  C           22.688000       19.648384       19.000000
  C           23.397000       20.876408       19.000000
  C           24.815000       20.876408       19.000000
  C           21.270000       22.104432       19.000000
  C           22.688000       22.104432       19.000000
  C           23.397000       23.332456       19.000000
  C           24.815000       23.332456       19.000000
  C           21.270000       24.560480       19.000000
  C           22.688000       24.560480       19.000000
  C           23.397000       25.788504       19.000000
  C           24.815000       25.788504       19.000000
  C           21.270000       27.016528       19.000000
  C           22.688000       27.016528       19.000000
  C           23.397000       28.244553       19.000000
  C           24.815000       28.244553       19.000000
  C           21.270000       29.472577       19.000000
  C           22.688000       29.472577       19.000000
  C           23.397000       30.700601       19.000000
  C           24.815000       30.700601       19.000000
  C           21.270000       31.928625       19.000000
  C           22.688000       31.928625       19.000000
  C           23.397000       33.156649       19.000000
  C           24.815000       33.156649       19.000000
  C           25.524000        0.000000       19.000000
  C           26.942000        0.000000       19.000000
  C           27.651000        1.228024       19.000000
  C           29.069000        1.228024       19.000000
  C           25.524000        2.456048       19.000000
  C           26.942000        2.456048       19.000000
  C           27.651000        3.684072       19.000000
  C           29.069000        3.684072       19.000000
  C           25.524000        4.912096       19.000000
  C           26.942000        4.912096       19.000000
  C           27.651000        6.140120       19.000000
  C           29.069000        6.140120       19.000000
  C           25.524000        7.368144       19.000000
  C           26.942000        7.368144       19.000000
  C           27.651000        8.596168       19.000000
  C           29.069000        8.596168       19.000000
  C           25.524000        9.824192       19.000000
  C           26.942000        9.824192       19.000000
  C           27.651000       11.052216       19.000000
  C           29.069000       11.052216       19.000000
  C           25.524000       12.280240       19.000000
  C           26.942000       12.280240       19.000000
  C           27.651000       13.508264       19.000000
  C           29.069000       13.508264       19.000000
  C           25.524000       14.736288       19.000000
  C           26.942000       14.736288       19.000000
  C           27.651000       15.964312       19.000000
  C           29.069000       15.964312       19.000000
  C           25.524000       17.192336       19.000000
  C           26.942000       17.192336       19.000000
  C           27.651000       18.420360       19.000000
  C           29.069000       18.420360       19.000000
  C           25.524000       19.648384       19.000000
  C           26.942000       19.648384       19.000000
  C           27.651000       20.876408       19.000000
  C           29.069000       20.876408       19.000000
  C           25.524000       22.104432       19.000000
  C           26.942000       22.104432       19.000000
  C           27.651000       23.332456       19.000000
  C           29.069000       23.332456       19.000000
  C           25.524000       24.560480       19.000000
  C           26.942000       24.560480       19.000000
  C           27.651000       25.788504       19.000000
  C           29.069000       25.788504       19.000000
  C           25.524000       27.016528       19.000000
  C           26.942000       27.016528       19.000000
  C           27.651000       28.244553       19.000000
  C           29.069000       28.244553       19.000000
  C           25.524000       29.472577       19.000000
  C           26.942000       29.472577       19.000000
  C           27.651000       30.700601       19.000000
  C           29.069000       30.700601       19.000000
  C           25.524000       31.928625       19.000000
  C           26.942000       31.928625       19.000000
  C           27.651000       33.156649       19.000000
  C           29.069000       33.156649       19.000000
  C           29.778000        0.000000       19.000000
  C           31.196000        0.000000       19.000000
  C           31.905000        1.228024       19.000000
  C           33.323000        1.228024       19.000000
  C           29.778000        2.456048       19.000000
  C           31.196000        2.456048       19.000000
  C           31.905000        3.684072       19.000000
  C           33.323000        3.684072       19.000000
  C           29.778000        4.912096       19.000000
  C           31.196000        4.912096       19.000000
  C           31.905000        6.140120       19.000000
  C           33.323000        6.140120       19.000000
  C           29.778000        7.368144       19.000000
  C           31.196000        7.368144       19.000000
  C           31.905000        8.596168       19.000000
  C           33.323000        8.596168       19.000000
  C           29.778000        9.824192       19.000000
  C           31.196000        9.824192       19.000000
  C           31.905000       11.052216       19.000000
  C           33.323000       11.052216       19.000000
  C           29.778000       12.280240       19.000000
  C           31.196000       12.280240       19.000000
  C           31.905000       13.508264       19.000000
  C           33.323000       13.508264       19.000000
  C           29.778000       14.736288       19.000000
  C           31.196000       14.736288       19.000000
  C           31.905000       15.964312       19.000000
  C           33.323000       15.964312       19.000000
  C           29.778000       17.192336       19.000000
  C           31.196000       17.192336       19.000000
  C           31.905000       18.420360       19.000000
  C           33.323000       18.420360       19.000000
  C           29.778000       19.648384       19.000000
  C           31.196000       19.648384       19.000000
  C           31.905000       20.876408       19.000000
  C           33.323000       20.876408       19.000000
  C           29.778000       22.104432       19.000000
  C           31.196000       22.104432       19.000000
  C           31.905000       23.332456       19.000000
  C           33.323000       23.332456       19.000000
  C           29.778000       24.560480       19.000000
  C           31.196000       24.560480       19.000000
  C           31.905000       25.788504       19.000000
  C           33.323000       25.788504       19.000000
  C           29.778000       27.016528       19.000000
  C           31.196000       27.016528       19.000000
  C           31.905000       28.244553       19.000000
  C           33.323000       28.244553       19.000000
  C           29.778000       29.472577       19.000000
  C           31.196000       29.472577       19.000000
  C           31.905000       30.700601       19.000000
  C           33.323000       30.700601       19.000000
  C           29.778000       31.928625       19.000000
  C           31.196000       31.928625       19.000000
  C           31.905000       33.156649       19.000000
  C           33.323000       33.156649       19.000000
  C           12.001857       18.439189       24.913646
  C           13.540489       18.299965       24.978743
  C           14.111145       18.863438       23.670802
  C           13.959620       19.110988       26.214004
  O           13.808771       18.723511       27.366643
  O           14.493326       20.316309       25.877801
  C           14.918161       21.103143       26.991774
  C           13.875199       16.787735       25.181910
  C           15.348082       16.224805       25.076451
  C           15.768993       16.139318       23.599095
  C           15.220468       14.778702       25.610191
  O           15.163222       13.778347       24.905984
  O           15.120192       14.765677       26.967926
  C           14.941673       13.472268       27.545490
  C           16.347026       17.058269       25.941529
  C           17.901360       16.790053       25.993965
  C           18.412468       17.612266       27.205706
  C           18.183842       15.311554       26.302970
  O           18.295265       14.846450       27.429859
  O           18.271989       14.574022       25.164451
  C           18.547123       13.186393       25.367719
  C           18.594263       17.285720       24.674515
  C           20.137919       17.537103       24.608686
  C           20.955334       16.327037       25.085262
  C           20.499047       18.840791       25.334965
  O           19.852361       19.877119       25.229684
  O           21.628975       18.718003       26.081388
  C           22.008663       19.907744       26.774544
  C           20.514939       17.793100       23.130169
  H           11.525399       18.030307       25.812538
  H           11.700722       19.491022       24.840076
  H           11.590936       17.910564       24.046176
  H           15.195628       18.996172       23.720455
  H           13.690838       19.851522       23.446257
  H           13.873670       18.214452       22.821186
  H           14.066388       21.349825       27.633119
  H           15.342947       22.033998       26.606183
  H           15.693261       20.577500       27.558463
  H           13.475409       16.502159       26.166372
  H           13.260144       16.211863       24.473087
  H           14.937345       15.805637       22.967069
  H           16.115240       17.097397       23.207020
  H           16.569397       15.410779       23.441094
  H           14.015267       13.016378       27.182740
  H           14.866699       13.593407       28.629576
  H           15.799980       12.830912       27.327770
  H           16.249053       18.106933       25.639896
  H           15.974634       17.027724       26.975009
  H           18.257828       18.685465       27.052829
  H           19.470442       17.432973       27.414534
  H           17.878159       17.341372       28.125118
  H           17.760172       12.717504       25.964154
  H           19.523153       13.059478       25.846086
  H           18.574871       12.701110       24.388359
  H           18.365945       16.578998       23.870579
  H           18.099388       18.220525       24.374506
  H           22.029052       16.484264       24.925414
  H           20.824224       16.130377       26.152642
  H           20.684247       15.422762       24.530886
  H           22.230064       20.710406       26.064271
  H           22.915102       19.691498       27.346592
  H           21.222626       20.211747       27.472926
  H           20.315003       16.912318       22.509577
  H           19.946652       18.632557       22.712368
  H           21.578342       18.040937       23.029200
  O           18.282704        1.128503        6.692514
  C           17.465840        2.245272        6.665595
  C           18.275897        3.526153        6.971883
  F           19.234014        3.696898        6.060877
  F           18.879027        3.437185        8.162951
  F           17.529375        4.628422        6.974623
  C           16.287394        2.088101        7.654140
  F           16.731893        1.884413        8.899634
  F           15.546047        1.029825        7.326219
  F           15.480313        3.146575        7.677659
  H           18.675428        1.001806        7.570091
  H           17.056374        2.330171        5.651114
  O            2.366269       11.814995        5.123553
  C            2.860686       12.951228        5.739743
  C            3.047861       14.094447        4.715694
  F            1.880584       14.407941        4.153323
  F            3.870991       13.722299        3.728635
  F            3.538918       15.206650        5.258065
  C            4.186673       12.645444        6.473850
  F            5.100650       12.157703        5.627045
  F            3.992676       11.720559        7.414077
  F            4.712414       13.713518        7.069764
  H            2.982102       11.483745        4.451654
  H            2.120385       13.271861        6.483512
  O           19.324746       10.249078        7.732295
  C           20.041331       11.157483        8.491552
  C           20.364158       12.426814        7.669822
  F           19.238302       13.020949        7.274186
  F           21.053805       12.118925        6.565324
  F           21.069128       13.326196        8.352778
  C           21.334316       10.513635        9.043194
  F           22.101356       10.053123        8.048255
  F           21.037600        9.472684        9.821303
  F           22.068834       11.354751        9.767975
  H           19.835391        9.955116        6.962066
  H           19.410516       11.447551        9.341242
  O           28.212770       17.079544        3.167931
  C           26.928514       17.582279        3.282433
  C           26.920620       18.885249        4.114817
  F           27.673915       19.814755        3.526905
  F           27.433928       18.677685        5.332912
  F           25.702478       19.399884        4.268376
  C           25.978764       16.528687        3.897720
  F           26.416938       16.133130        5.098495
  F           25.927105       15.444171        3.124265
  F           24.731938       16.971553        4.044668
  H           28.579821       16.852834        4.036436
  H           26.574625       17.816931        2.270632
  O           17.972798       27.125636        4.819332
  C           17.484739       28.138316        4.012213
  C           17.257843       27.630196        2.569649
  F           16.369263       26.636487        2.563227
  F           18.391391       27.145632        2.049463
  F           16.803761       28.574444        1.748367
  C           18.435620       29.357467        4.024636
  F           19.663123       29.010694        3.620522
  F           18.553618       29.839962        5.261709
  F           18.017408       30.354319        3.247664
  H           18.832011       26.807025        4.502054
  H           16.517028       28.451150        4.424174
  O            3.898843       20.372968        6.803021
  C            3.454242       21.077007        5.697659
  C            2.432953       22.161685        6.111301
  F            2.995087       23.030352        6.951836
  F            1.389928       21.618056        6.749180
  F            1.961549       22.856673        5.078310
  C            2.847739       20.120962        4.644667
  F            1.837804       19.414536        5.165548
  F            3.764367       19.245538        4.231751
  F            2.388966       20.753800        3.567011
  H            3.168362       19.909539        7.241263
  H            4.324514       21.574572        5.251455
  O           26.857694       12.096081       13.845700
  C           27.355192       12.841071       12.790877
  C           26.852286       14.301341       12.864060
  F           27.257261       14.874188       13.997601
  F           25.515068       14.347494       12.857627
  F           27.290772       15.056045       11.858847
  C           26.979981       12.195464       11.436968
  F           25.652950       12.073623       11.316692
  F           27.494092       10.968537       11.350854
  F           27.422355       12.886034       10.388294
  H           25.889161       12.054593       13.820259
  H           28.448940       12.847890       12.878682
  O            9.263230       28.836227        1.853847
  C            9.972311       28.790012        3.041379
  C           11.235817       27.911244        2.893135
  F           12.039863       28.411078        1.954651
  F           10.912981       26.669923        2.512055
  F           11.944451       27.821159        4.016533
  C            9.078439       28.280904        4.195702
  F            8.583500       27.069073        3.918532
  F            8.038695       29.096667        4.370451
  F            9.721370       28.202076        5.358769
  H            8.955307       27.954076        1.594196
  H           10.289567       29.813834        3.276281
  O           27.312134        9.015539       10.286189
  C           26.119742        8.474762       10.734438
  C           26.199493        8.142554       12.242396
  F           26.439297        9.247913       12.947911
  F           27.202307        7.292767       12.492495
  F           25.079646        7.602564       12.718477
  C           25.741574        7.220967        9.912460
  F           26.707859        6.297662        9.976691
  F           25.590018        7.538697        8.626710
  F           24.607782        6.652909       10.317584
  H           28.043728        8.387638       10.390765
  H           25.338739        9.231597       10.588574
  O           20.899543       26.867269        7.568710
  C           21.764127       25.924440        7.040759
  C           22.788891       26.588602        6.092388
  F           23.517256       27.487716        6.754319
  F           22.170480       27.239120        5.100058
  F           23.634210       25.718322        5.544349
  C           20.981168       24.807762        6.312292
  F           20.218547       25.316216        5.337507
  F           20.164574       24.184891        7.162164
  F           21.771433       23.883247        5.770949
  H           20.385898       27.302480        6.870724
  H           22.310947       25.472754        7.878023
  O           19.309195       13.734902       11.391002
  C           19.729282       13.086227       12.539005
  C           20.883737       12.106633       12.225492
  F           21.927024       12.766486       11.722282
  F           20.510900       11.205671       11.309204
  F           21.312415       11.443903       13.297557
  C           18.550417       12.350775       13.217272
  F           17.991442       11.469290       12.380101
  F           17.599548       13.219281       13.561682
  F           18.908034       11.695478       14.319541
  H           18.965750       13.105698       10.737877
  H           20.103651       13.850541       13.231619
  O           31.227124       13.253578        3.436949
  C           29.848182       13.292161        3.326519
  C           29.313651       14.714723        3.611566
  F           29.819576       15.583429        2.736086
  F           29.680212       15.128052        4.830219
  F           27.987338       14.799803        3.534395
  C           29.192210       12.257037        4.269324
  F           29.549085       12.474307        5.540448
  F           29.594345       11.025297        3.955992
  F           27.862199       12.267270        4.212186
  H           31.513898       13.479831        4.335278
  H           29.592467       13.028094        2.292633
  O            1.003323        8.196886       13.337512
  C            1.663097        8.773246       14.408807
  C            2.546513        9.952496       13.940186
  F            1.796469       10.893309       13.366269
  F            3.436746        9.549418       13.026219
  F            3.216861       10.530625       14.934520
  C            2.504579        7.720607       15.166777
  F            3.391466        7.139482       14.350658
  F            1.718697        6.753950       15.641159
  F            3.173651        8.230764       16.198465
  H            1.630399        7.831594       12.694268
  H            0.900634        9.164261       15.094226
  O           15.953771       11.831480        7.588193
  C           15.428051       10.961605        8.527396
  C           14.316441       11.650116        9.352584
  F           13.322783       12.041622        8.554811
  F           14.783103       12.745217        9.963570
  F           13.789681       10.857494       10.283484
  C           16.540061       10.411738        9.450293
  F           17.184111       11.408049       10.069073
  F           17.446806        9.744870        8.736027
  F           16.081022        9.581403       10.384170
  H           16.363633       12.600935        8.012900
  H           14.982636       10.118929        7.983757
  O            6.840924       29.144398        7.383714
  C            6.499307       28.885786        8.699610
  C            6.087708       27.406350        8.879934
  F            7.098747       26.601379        8.552983
  F            5.063014       27.093919        8.078240
  F            5.732714       27.111162       10.128590
  C            5.372313       29.833484        9.171215
  F            4.290550       29.714675        8.392757
  F            5.771944       31.102848        9.093208
  F            4.995530       29.612212       10.428742
  H            6.089218       28.994113        6.789764
  H            7.388455       29.074076        9.314432
  O           21.371792        7.013261        9.543473
  C           20.877631        6.366603        8.424186
  C           21.970351        5.491409        7.767943
  F           22.395367        4.562207        8.624109
  F           23.034460        6.228717        7.429752
  F           21.547769        4.860492        6.674477
  C           20.302821        7.383391        7.411075
  F           21.233904        8.271631        7.044417
  F           19.302690        8.071160        7.962245
  F           19.829455        6.810096        6.306740
  H           22.099429        7.610755        9.311158
  H           20.062584        5.710657        8.755056
  O           30.969770       28.581589       11.927609
  C           29.841743       27.867674       12.292362
  C           29.594769       26.694071       11.316494
  F           30.631695       25.856379       11.327991
  F           29.462104       27.136224       10.060618
  F           28.508254       25.985396       11.615769
  C           28.605530       28.793412       12.366152
  F           28.393951       29.403040       11.194012
  F           28.797009       29.749910       13.274735
  F           27.488888       28.148673       12.697393
  H           30.867425       28.973837       11.046648
  H           30.022630       27.453061       13.292071
  O           22.992190       16.538980       14.879592
  C           23.605573       17.771636       15.019178
  C           24.980572       17.626019       15.711156
  F           25.783934       16.848081       14.985555
  F           24.853315       17.047198       16.910779
  F           25.604279       18.789342       15.884272
  C           22.697656       18.752334       15.796723
  F           22.388281       18.263362       17.003172
  F           21.549938       18.936995       15.144252
  F           23.251837       19.949958       15.972447
  H           22.823293       16.131048       15.743010
  H           23.767173       18.175707       14.011878
  O           19.861504       20.473138        2.669060
  C           19.306136       21.707163        2.958735
  C           20.401691       22.723080        3.356646
  F           21.266334       22.887405        2.355414
  F           21.100617       22.284622        4.410012
  F           19.914762       23.923867        3.662112
  C           18.239299       21.582241        4.070900
  F           18.765723       21.052773        5.181245
  F           17.255865       20.771557        3.680102
  F           17.686515       22.748284        4.398121
  H           20.313200       20.101129        3.442368
  H           18.813933       22.069572        2.047452
  O           15.549945       23.150151        1.644527
  C           14.512743       23.327155        2.543441
  C           14.457202       22.159388        3.555318
  F           15.593863       22.093121        4.248633
  F           14.313303       20.987522        2.925757
  F           13.462811       22.275168        4.432860
  C           13.164019       23.480356        1.803081
  F           12.916959       22.413869        1.033737
  F           13.195467       24.543048        0.998859
  F           12.130243       23.636364        2.627259
  H           15.429048       22.341050        1.123792
  H           14.710083       24.254057        3.096569
  O           13.165783        1.603427        8.899381
  C           12.568428        2.546934        9.716772
  C           13.634863        3.388753       10.454820
  F           14.403753        4.034067        9.577635
  F           14.441339        2.607473       11.182502
  F           13.108754        4.301434       11.268775
  C           11.605278        1.873020       10.721182
  F           12.249846        0.970823       11.470112
  F           10.639594        1.222923       10.071643
  F           11.017359        2.739539       11.543251
  H           13.699522        0.979405        9.415271
  H           11.983566        3.217171        9.074308
  O            8.849296       20.925159        8.063459
  C            7.517410       20.835065        7.698591
  C            7.380913       20.497193        6.195970
  F            7.958927       19.325651        5.930521
  F            7.993998       21.416532        5.441472
  F            6.115176       20.416379        5.791400
  C            6.764238       22.141239        8.041082
  F            7.328130       23.191730        7.433777
  F            6.815213       22.374770        9.352546
  F            5.479720       22.110495        7.692703
  H            9.298426       21.635939        7.580241
  H            7.071133       20.017178        8.278195
  O           25.680795        3.550952        9.882249
  C           25.975337        3.103834       11.158375
  C           26.346520        4.286241       12.082926
  F           25.327594        5.141087       12.172954
  F           27.388000        4.968186       11.592422
  F           26.655660        3.904932       13.320397
  C           27.108978        2.052945       11.124460
  F           28.211281        2.556731       10.557495
  F           26.741681        0.999115       10.395343
  F           27.441339        1.603621       12.332742
  H           26.446838        3.986317        9.477204
  H           25.072197        2.624548       11.556701
  O           11.440306       33.380268        9.241892
  C           10.954169       32.144205        9.630456
  C           12.027706       31.047526        9.442116
  F           13.101073       31.317968       10.184961
  F           12.436076       30.991656        8.169153
  F           11.601481       29.834339        9.786804
  C            9.663952       31.792427        8.854406
  F            9.883757       31.795983        7.534559
  F            8.717151       32.699495        9.094970
  F            9.165740       30.601926        9.181194
  H           11.675720       33.385071        8.301157
  H           10.708525       32.207022       10.698049
  O            3.819446       31.202423        6.118652
  C            2.521612       30.861745        5.779932
  C            2.231988       29.384004        6.130728
  F            2.380775       29.181222        7.439857
  F            3.089749       28.567630        5.507748
  F            0.998312       29.002243        5.807305
  C            2.254701       31.135757        4.281822
  F            3.114274       30.459129        3.511347
  F            2.422897       32.430102        4.010793
  F            1.021717       30.807345        3.902089
  H            4.462431       30.671516        5.623543
  H            1.849024       31.495220        6.371858
  O           23.334077       31.500368        5.848421
  C           22.766570       30.367063        5.292797
  C           22.562805       30.544437        3.770405
  F           23.733334       30.754326        3.168006
  F           21.792714       31.607606        3.511651
  F           22.002340       29.484845        3.191230
  C           21.431237       30.022031        5.991724
  F           20.570877       31.043527        5.910174
  F           21.634678       29.785448        7.287762
  F           20.836309       28.946530        5.480198
  H           22.758033       32.272432        5.736548
  H           23.464850       29.535939        5.453047
  O           30.373926       16.527650       14.413677
  C           30.776583       17.601657       15.187978
  C           32.021040       17.236338       16.029719
  F           33.036402       16.901313       15.233557
  F           31.774338       16.181521       16.815100
  F           32.437765       18.233964       16.806496
  C           29.622106       18.089976       16.093177
  F           29.184031       17.103257       16.883619
  F           28.587233       18.484510       15.351250
  F           29.965771       19.113599       16.871888
  H           30.119736       15.772245       14.966104
  H           31.048585       18.416774       14.505600
  O            7.693100       16.222174        4.000609
  C            7.444668       15.358252        2.948428
  C            6.062877       15.644818        2.316611
  F            6.019493       16.890347        1.843484
  F            5.088902       15.537589        3.227763
  F            5.769416       14.826463        1.308407
  C            7.545518       13.886190        3.410511
  F            6.689820       13.638669        4.408928
  F            8.769264       13.628718        3.872277
  F            7.297209       13.014276        2.435621
  H            7.039242       16.110998        4.708094
  H            8.215381       15.534753        2.187579
  O           26.018709       22.588726        6.964462
  C           26.573489       21.882006        5.911879
  C           28.038811       21.496830        6.220308
  F           28.096140       20.726552        7.306798
  F           28.776419       22.584515        6.471705
  F           28.623364       20.828586        5.228316
  C           26.480540       22.690765        4.597371
  F           27.093838       23.873694        4.719301
  F           25.206102       22.940875        4.296827
  F           27.017637       22.058882        3.555953
  H           26.494373       23.419566        7.118971
  H           25.992125       20.959238        5.791233
  O           13.961631       13.159714       15.921787
  C           15.283008       12.752728       15.980873
  C           16.235991       13.937391       15.699704
  F           16.061639       14.897444       16.607984
  F           15.984310       14.479933       14.502779
  F           17.521415       13.592185       15.728316
  C           15.544108       11.588992       14.996900
  F           15.237232       11.944194       13.743911
  F           14.778444       10.541999       15.304535
  F           16.808461       11.172267       15.004108
  H           13.735308       13.490648       15.038789
  H           15.471924       12.392122       16.999851
  O           28.014163       28.110069        8.062695
  C           27.126370       27.076513        7.820309
  C           27.253737       25.977905        8.900816
  F           26.980292       26.479327       10.105340
  F           28.501806       25.498105        8.950187
  F           26.430155       24.951089        8.701667
  C           27.341069       26.487775        6.406820
  F           28.596106       26.048650        6.257235
  F           27.142260       27.424954        5.479865
  F           26.520148       25.476485        6.131717
  H           28.932154       27.799056        8.031258
  H           26.112725       27.493749        7.870113
  O           16.815492       29.273243        7.206288
  C           16.860093       30.241151        8.194382
  C           17.796669       31.401366        7.785255
  F           17.358032       31.977775        6.666137
  F           19.032711       30.953274        7.536785
  F           17.886811       32.352087        8.712780
  C           17.298202       29.628287        9.544610
  F           18.494480       29.038749        9.436491
  F           16.433552       28.689346        9.929117
  F           17.373165       30.525009       10.525716
  H           17.690175       28.881233        7.059037
  H           15.845007       30.641437        8.310193
  O           16.777941        5.643990        9.106590
  C           16.262993        6.829275        8.611520
  C           14.793197        7.016860        9.053301
  F           14.711168        7.057956       10.383210
  F           14.036669        5.991331        8.645526
  F           14.246241        8.137340        8.586759
  C           16.387135        6.881471        7.071221
  F           15.757763        5.845141        6.505328
  F           17.667356        6.806861        6.707156
  F           15.888721        7.997828        6.544314
  H           16.288919        4.879143        8.765577
  H           16.857619        7.649169        9.033700
  O            8.653141       22.944247       15.688646
  C            8.060849       23.734032       14.718803
  C            7.347981       22.861792       13.659712
  F            6.392594       22.128327       14.230974
  F            8.205556       22.009999       13.085831
  F            6.775680       23.576568       12.693344
  C            9.102685       24.664907       14.056451
  F           10.100240       23.956955       13.514222
  F            9.646944       25.472465       14.966784
  F            8.583824       25.434596       13.102165
  H            9.332236       22.367701       15.305436
  H            7.307426       24.357807       15.216096
  O            9.901638        7.918086       14.729580
  C           10.959757        8.404255       15.477370
  C           10.636664        9.808216       16.038764
  F            9.565399        9.754998       16.830366
  F           10.351706       10.664369       15.050773
  F           11.632964       10.327406       16.752996
  C           12.258728        8.430695       14.639137
  F           12.103167        9.176956       13.539492
  F           12.573751        7.200187       14.234557
  F           13.304428        8.907934       15.310743
  H            9.722837        8.485595       13.963819
  H           11.108219        7.720358       16.322523
  O            8.626304       13.562042       16.383387
  C            7.769564       13.233505       15.347422
  C            7.740164       14.353929       14.282319
  F            8.956225       14.534843       13.767012
  F            7.366801       15.519038       14.824025
  F            6.915095       14.091962       13.270916
  C            6.348010       12.942277       15.881306
  F            5.863591       13.994773       16.550570
  F            6.374275       11.916729       16.732562
  F            5.480544       12.637319       14.918600
  H            8.333920       14.366572       16.839094
  H            8.155452       12.320278       14.877159
  O           16.712233       27.960199       16.858321
  C           17.529001       27.667762       15.780111
  C           17.199468       28.581680       14.577273
  F           17.390589       29.860521       14.901483
  F           15.916609       28.455888       14.218421
  F           17.948765       28.327012       13.506760
  C           17.409943       26.176609       15.389027
  F           16.143874       25.858955       15.094934
  F           17.780947       25.399970       16.406997
  F           18.165649       25.848695       14.343235
  H           15.779107       27.806170       16.643903
  H           18.564097       27.862260       16.087988
  O            6.722252       30.286086       11.614806
  C            6.200993       31.358577       12.317100
  C            5.473723       32.336967       11.366053
  F            4.464639       31.720365       10.750728
  F            6.301091       32.781282       10.412969
  F            4.968337       33.396877       11.993329
  C            7.309481       32.084834       13.113633
  F            8.283295       32.509034       12.299959
  F            7.869314       31.252749       13.991867
  F            6.860003       33.137067       13.794130
  H            7.380569       30.578209       10.965416
  H            5.467695       30.961056       13.030046
  O           11.069532       16.778184        2.152949
  C           12.267942       16.109025        1.976301
  C           12.449654       15.013857        3.052518
  F           11.464789       14.118963        2.973265
  F           12.403588       15.539404        4.282153
  F           13.598546       14.351573        2.935357
  C           13.456538       17.097830        1.989103
  F           13.490793       17.789624        3.133904
  F           13.332201       17.983990        1.001006
  F           14.636095       16.499013        1.839556
  H           11.042365       17.229171        3.011027
  H           12.233096       15.623935        0.992677
  O           22.167082       16.887667        6.536234
  C           22.089445       18.254297        6.739848
  C           21.683889       18.981815        5.437196
  F           20.488523       18.560197        5.024384
  F           22.552593       18.721062        4.453486
  F           21.612167       20.303731        5.577536
  C           23.426802       18.805350        7.286176
  F           24.434545       18.530519        6.449966
  F           23.721007       18.232919        8.453583
  F           23.408162       20.121892        7.482825
  H           22.844009       16.668748        5.877243
  H           21.310061       18.432139        7.491496
  O           27.973912       31.680000        5.799978
  C           26.933947       32.379722        5.213440
  C           25.803169       32.642096        6.234793
  F           26.260575       33.366860        7.255857
  F           25.343124       31.493647        6.744446
  F           24.769618       33.299083        5.712835
  C           26.395072       31.627380        3.974790
  F           25.982246       30.397982        4.304155
  F           27.358342       31.484924        3.064355
  F           25.379546       32.253462        3.384005
  H           27.679599       30.810694        6.113207
  H           27.332203       33.347408        4.883265
  O           13.840316       29.085685        5.190910
  C           13.888580       30.432883        5.503786
  C           12.629899       31.163673        4.981936
  F           11.532747       30.652124        5.540192
  F           12.503237       31.012305        3.658543
  F           12.637221       32.468921        5.243802
  C           15.175357       31.081467        4.943248
  F           15.251756       30.923539        3.616769
  F           16.253666       30.499662        5.468441
  F           15.260201       32.384212        5.203935
  H           13.821300       28.948591        4.231082
  H           13.907924       30.517069        6.597669
  O           25.496924       20.933973       14.521244
  C           24.933282       22.060935       13.949031
  C           25.625894       23.343729       14.464186
  F           26.921298       23.328523       14.149905
  F           25.547032       23.427373       15.797268
  F           25.106574       24.458616       13.954644
  C           23.411207       22.110280       14.216448
  F           23.155671       22.095526       15.529768
  F           22.813840       21.040915       13.690439
  F           22.824438       23.187603       13.699363
  H           25.387333       20.937222       15.484782
  H           25.091337       21.994830       12.865200
  O           18.051736        1.020851       12.150288
  C           17.224125        2.127171       12.071043
  C           18.042462        3.434535       12.179597
  F           18.926236        3.511478       11.184560
  F           18.735908        3.471092       13.323328
  F           17.287400        4.529656       12.125832
  C           16.126484        2.071363       13.158576
  F           16.667085        1.999173       14.380404
  F           15.372777        0.983280       13.000218
  F           15.313072        3.124969       13.134628
  H           18.511768        0.986872       13.003307
  H           16.737331        2.105309       11.087888
  O            9.054063        9.646343        0.977699
  C            9.871959        9.778194        2.086223
  C           10.036912        8.422824        2.811772
  F           10.592342        7.525999        1.996740
  F            8.849088        7.931753        3.183591
  F           10.803257        8.501174        3.897532
  C            9.323008       10.856267        3.049068
  F            8.078233       10.559321        3.439815
  F            9.268306       12.039170        2.436840
  F           10.067611       11.008726        4.142056
  H            8.162789        9.360168        1.230995
  H           10.858541       10.102204        1.731659
  O            5.494330        1.574794        6.169093
  C            4.529732        2.006002        5.275350
  C            5.017166        3.251224        4.499148
  F            6.118729        2.962798        3.806006
  F            5.331103        4.245128        5.338148
  F            4.115433        3.715562        3.636844
  C            3.196784        2.296288        6.003115
  F            3.365503        3.214012        6.962094
  F            2.742567        1.191732        6.595329
  F            2.239612        2.731545        5.186615
  H            5.686511        2.254658        6.833379
  H            4.360607        1.195071        4.555746
  O           30.644441       11.188271       13.578303
  C           31.516674       11.681207       14.532969
  C           31.323859       10.951601       15.882471
  F           31.563614        9.647788       15.742243
  F           30.064120       11.073932       16.316541
  F           32.130484       11.403039       16.840521
  C           31.341401       13.208168       14.701281
  F           30.083060       13.510513       15.041121
  F           31.596149       13.832916       13.551556
  F           32.148559       13.728329       15.623358
  H           29.721357       11.331710       13.838625
  H           32.537074       11.487877       14.178783
  O           30.364128        5.835244       15.241104
  C           30.553470        4.880746       14.257108
  C           30.216787        5.455616       12.861820
  F           31.007803        6.492330       12.585068
  F           28.956241        5.902393       12.820124
  F           30.367119        4.568252       11.880859
  C           29.714101        3.615675       14.549877
  F           28.413454        3.915674       14.642845
  F           30.075501        3.079893       15.715811
  F           29.849122        2.672276       13.620324
  H           29.438584        6.122304       15.278373
  H           31.614497        4.601220       14.268394
  O           29.684100       22.901081        3.691358
  C           31.012760       22.826760        4.071229
  C           31.724104       24.181686        3.850265
  F           31.142040       25.134370        4.578735
  F           31.641677       24.561907        2.570046
  F           33.012213       24.156441        4.185582
  C           31.738720       21.692159        3.312071
  F           31.657458       21.873781        1.988918
  F           31.169149       20.517183        3.580578
  F           33.027275       21.591096        3.630996
  H           29.599774       23.104744        2.746988
  H           31.036884       22.595093        5.143512
  O            1.154156        6.715673        8.787857
  C            1.982524        6.037128        7.911188
  C            3.347038        5.730366        8.570472
  F            3.178381        4.966317        9.649758
  F            3.945647        6.855926        8.976806
  F            4.187620        5.091932        7.759224
  C            2.169965        6.837279        6.601499
  F            2.674673        8.051141        6.850761
  F            0.995330        7.019244        5.998013
  F            2.974701        6.232557        5.730286
  H            1.535467        7.570742        9.040608
  H            1.495257        5.084751        7.667076
  O           22.357327       20.847898        2.997760
  C           23.725903       21.038985        2.922587
  C           24.055944       22.386635        2.240259
  F           23.538462       23.397792        2.938005
  F           23.524483       22.444428        1.013664
  F           25.363695       22.609330        2.128489
  C           24.404885       19.864263        2.181190
  F           23.901259       19.720836        0.949884
  F           24.185625       18.719689        2.828454
  F           25.723263       20.010140        2.067620
  H           21.958571       20.813421        2.114454
  H           24.111834       21.068330        3.949348
  O           15.376028       23.891885        5.500231
  C           15.616999       25.182446        5.937895
  C           16.989162       25.275934        6.644358
  F           17.966872       24.938960        5.803164
  F           17.053134       24.429614        7.678753
  F           17.260307       26.497136        7.099821
  C           14.482476       25.667575        6.869650
  F           14.346480       24.852496        7.922017
  F           13.317863       25.665316        6.221001
  F           14.677281       26.900703        7.331976
  H           15.345496       23.269173        6.243011
  H           15.639017       25.831966        5.053768
  O           18.493305        6.458477       13.484909
  C           18.951481        7.735841       13.756166
  C           18.035912        8.441556       14.782986
  F           18.015301        7.761301       15.929243
  F           16.775031        8.499528       14.338980
  F           18.426073        9.682819       15.064662
  C           19.066000        8.566053       12.456824
  F           17.887292        8.633955       11.827250
  F           19.925748        7.992200       11.615039
  F           19.487530        9.811108       12.667656
  H           17.606392        6.479362       13.093279
  H           19.952912        7.640998       14.194551
  O           30.447145       26.168071        7.653582
  C           31.257024       25.420700        8.490659
  C           32.283572       26.323963        9.212445
  F           31.656154       27.235653        9.955575
  F           33.038483       26.989328        8.330560
  F           33.099209       25.647536       10.018350
  C           31.968708       24.294844        7.705411
  F           32.698500       24.798339        6.703304
  F           31.072194       23.472359        7.160566
  F           32.774757       23.556621        8.465419
  H           30.966093       26.603104        6.959417
  H           30.611437       24.958407        9.247987
  O           11.915367       10.366517        5.144531
  C           12.927953       10.575895        4.224750
  C           14.313198       10.513616        4.908764
  F           14.502947        9.315650        5.461890
  F           14.402454       11.417480        5.891305
  F           15.321946       10.726545        4.066511
  C           12.734575       11.923507        3.491807
  F           12.697897       12.939843        4.361312
  F           11.575164       11.930496        2.833937
  F           13.695247       12.179375        2.606402
  H           11.914933       11.053706        5.828779
  H           12.872441        9.768754        3.483479
  O            2.898684       14.042806       16.083184
  C            2.281400       14.726653       15.050480
  C            1.953515       13.772917       13.878501
  F            1.126875       12.808752       14.283627
  F            3.060928       13.174581       13.424678
  F            1.372665       14.388313       12.850784
  C            3.157517       15.907529       14.572347
  F            4.360978       15.479479       14.173876
  F            3.359869       16.767698       15.570463
  F            2.613336       16.587934       13.565760
  H            3.742307       13.660272       15.796139
  H            1.338887       15.131681       15.439921
  O            6.529542       17.572033       15.138176
  C            7.448390       18.312372       15.861212
  C            7.483686       19.777382       15.368099
  F            6.287747       20.346165       15.520716
  F            7.782258       19.836341       14.065140
  F            8.367006       20.527993       16.022796
  C            8.853016       17.670580       15.785149
  F            9.260825       17.561470       14.515459
  F            8.827369       16.438797       16.294196
  F            9.778040       18.357029       16.452546
  H            6.766241       17.539827       14.198303
  H            7.123533       18.308704       16.909304
  O           23.822026       27.110566        3.652371
  C           23.127398       26.206794        2.867608
  C           24.059394       25.562645        1.815413
  F           25.051871       24.906039        2.416188
  F           24.620916       26.496181        1.038542
  F           23.432467       24.696163        1.022651
  C           21.915411       26.886020        2.189082
  F           22.305900       27.925127        1.442022
  F           21.075545       27.360425        3.109212
  F           21.223190       26.059841        1.407699
  H           24.177994       27.837916        3.118823
  H           22.753722       25.414736        3.528708
  O            9.166327       13.211126        8.221395
  C            8.222388       14.212515        8.367563
  C            8.555342       15.418433        7.458959
  F            8.562812       15.045631        6.179101
  F            9.772286       15.902289        7.733287
  F            7.683630       16.417728        7.576544
  C            8.110007       14.650189        9.846235
  F            9.291425       15.072757       10.311006
  F            7.736873       13.620811       10.606649
  F            7.224733       15.626088       10.036525
  H           10.047687       13.518255        8.484644
  H            7.254256       13.801556        8.054713
  O           22.194570       30.451081       15.931912
  C           21.373084       31.155976       15.069677
  C           21.642330       32.675018       15.172997
  F           22.906515       32.944348       14.846849
  F           21.459785       33.108953       16.425475
  F           20.862757       33.399503       14.373192
  C           19.885194       30.839249       15.346315
  F           19.562476       31.126736       16.612620
  F           19.647653       29.539651       15.168290
  F           19.052107       31.507826       14.551789
  H           22.028405       30.697286       16.855057
  H           21.610899       30.831951       14.048652
  O           20.182453       25.519425       10.165510
  C           19.188409       25.523765       11.128330
  C           18.276411       24.283778       10.982210
  F           18.987290       23.166038       11.131822
  F           17.724358       24.237016        9.764272
  F           17.291580       24.251013       11.877382
  C           18.361381       26.828297       11.058466
  F           17.816108       26.984521        9.846610
  F           19.144878       27.885215       11.273252
  F           17.379136       26.873024       11.955959
  H           19.806467       25.558742        9.272474
  H           19.678677       25.478006       12.108935
  O           29.878677       22.758025       16.820503
  C           29.040412       22.758563       15.719378
  C           28.527750       21.331261       15.418306
  F           27.839653       20.857754       16.457243
  F           29.547753       20.491166       15.208166
  F           27.729070       21.276405       14.354634
  C           29.753253       23.360350       14.486346
  F           30.871019       22.682124       14.201861
  F           30.112523       24.620994       14.728787
  F           28.991895       23.367290       13.394290
  H           30.664214       22.211481       16.663513
  H           28.177369       23.391267       15.962040
  O            9.519803        4.283372       12.001794
  C            9.857369        4.262331       13.343723
  C            8.910741        3.329537       14.133943
  F            8.995998        2.082683       13.670088
  F            7.636300        3.712876       13.995470
  F            9.184604        3.288537       15.436102
  C            9.845496        5.690594       13.935823
  F            8.645624        6.262284       13.781544
  F           10.729638        6.461604       13.302647
  F           10.147826        5.721501       15.231949
  H            8.622697        4.627544       11.870757
  H           10.877273        3.865046       13.421189
  O           11.730814        4.488297        6.522528
  C           11.647739        3.902418        5.271525
  C           12.156361        2.442894        5.313375
  F           11.417943        1.719260        6.154901
  F           13.418686        2.388805        5.753754
  F           12.112543        1.840015        4.127239
  C           12.429209        4.729264        4.224486
  F           13.713299        4.857568        4.578002
  F           11.923976        5.959662        4.135399
  F           12.393702        4.196016        3.005189
  H           12.649008        4.526213        6.832219
  H           10.589343        3.890933        4.982203
  O           32.230716       30.577721        3.868520
  C           31.286307       29.580068        4.035681
  C           30.086179       30.092786        4.864821
  F           29.497367       31.114902        4.243811
  F           30.487053       30.539256        6.060768
  F           29.155959       29.162397        5.068207
  C           31.917210       28.330611        4.692551
  F           32.464153       28.636506        5.874755
  F           32.893276       27.846693        3.924310
  F           31.042754       27.346556        4.890692
  H           32.589948       30.867618        4.721360
  H           30.922667       29.299646        3.039102
  O           18.861529       15.022884        2.158253
  C           19.461702       16.074372        2.828575
  C           20.044347       17.101408        1.830387
  F           19.075745       17.603111        1.064111
  F           20.931307       16.523115        1.012339
  F           20.648963       18.125924        2.427971
  C           20.555949       15.559028        3.791749
  F           21.483721       14.857693        3.130166
  F           20.024584       14.742547        4.701740
  F           21.176147       16.536571        4.449065
  H           19.503282       14.542166        1.612829
  H           18.685544       16.572732        3.422929
  O           27.319074       32.851428        9.113292
  C           28.384924       32.238779        9.748736
  C           28.726778       30.890935        9.072635
  F           29.065881       31.085180        7.798134
  F           27.668513       30.072164        9.076158
  F           29.737172       30.253219        9.659766
  C           28.088177       32.041760       11.253324
  F           26.978967       31.314796       11.430808
  F           27.881504       33.219551       11.842536
  F           29.079121       31.439091       11.906867
  H           26.518492       32.306740        9.166296
  H           29.252794       32.903254        9.652220
  O           14.366513        6.990408       15.490812
  C           14.620040        5.687832       15.098150
  C           13.465038        4.751394       15.522075
  F           12.323470        5.136789       14.951663
  F           13.275729        4.794591       16.845941
  F           13.670360        3.480989       15.181175
  C           15.968971        5.194090       15.670219
  F           15.979411        5.272605       17.005903
  F           16.967377        5.957832       15.226416
  F           16.250551        3.937167       15.333833
  H           14.297278        7.059125       16.455648
  H           14.686167        5.680336       14.002881
  O           25.013551       24.900709       10.905813
  C           24.170553       24.344427        9.959732
  C           22.700026       24.398550       10.434371
  F           22.322199       25.662240       10.627786
  F           22.550522       23.761806       11.601645
  F           21.849743       23.858506        9.563929
  C           24.592073       22.892978        9.633732
  F           24.593506       22.136130       10.737137
  F           25.831271       22.869940        9.142883
  F           23.799411       22.307081        8.738908
  H           24.976369       24.409710       11.741254
  H           24.260232       24.943630        9.044880
  O            7.875830       18.362410        1.787881
  C            7.375980       19.637779        1.984727
  C            8.385004       20.508571        2.768468
  F            9.527915       20.616178        2.090789
  F            8.680372       19.952749        3.949207
  F            7.941952       21.742683        2.998627
  C            6.011111       19.587287        2.709465
  F            6.117105       18.957969        3.885495
  F            5.125189       18.907525        1.981357
  F            5.495763       20.793341        2.937828
  H            8.029863       17.911423        2.632457
  H            7.225309       20.089334        0.996073
  O           25.540871        2.051477       14.994550
  C           24.450417        2.835208       14.660123
  C           24.356051        4.069554       15.586483
  F           25.451534        4.820248       15.470506
  F           24.268785        3.699204       16.869273
  F           23.310607        4.847841       15.315164
  C           23.144516        2.008740       14.707370
  F           22.960602        1.473990       15.920029
  F           23.204566        0.998173       13.840061
  F           22.062174        2.724266       14.409278
  H           25.464108        1.710694       15.899204
  H           24.599610        3.186378       13.631307
  O           27.365844       30.948674       14.563078
  C           26.058784       31.054148       15.005384
  C           25.067465       30.926975       13.825650
  F           25.204816       29.741687       13.231257
  F           25.306241       31.860780       12.897578
  F           23.794384       31.039285       14.198410
  C           25.842011       32.381822       15.767585
  F           26.142576       33.431685       14.994429
  F           26.641321       32.439909       16.832857
  F           24.592518       32.538440       16.199485
  H           27.584976       31.660696       13.942247
  H           25.877401       30.224005       15.699650
  O            5.774963        3.260584       15.076209
  C            5.198160        4.322035       15.751327
  C            3.659322        4.176951       15.791156
  F            3.316363        3.054242       16.422803
  F            3.153980        4.100896       14.554560
  F            3.055403        5.185046       16.416718
  C            5.609074        5.668493       15.111904
  F            5.259272        5.711423       13.821122
  F            6.932459        5.820521       15.163034
  F            5.064534        6.722012       15.716779
  H            5.478174        3.228364       14.153548
  H            5.573659        4.300617       16.782144
  O           11.794248        8.586733        9.383087
  C           10.993354        8.350050        8.279585
  C            9.988006        7.210422        8.564507
  F            9.194462        7.537383        9.584536
  F           10.625338        6.085435        8.908797
  F            9.204380        6.932764        7.524730
  C           11.853151        8.029079        7.035244
  F           12.639274        6.969400        7.257539
  F           12.653641        9.055700        6.748296
  F           11.126328        7.776351        5.948893
  H           12.321946        7.804868        9.608135
  H           10.426743        9.268307        8.080094
  O           15.384991       18.326471        7.257529
  C           16.184281       17.970001        6.185508
  C           17.306560       19.010820        5.966771
  F           18.082112       19.089562        7.048156
  F           16.794787       20.230025        5.761952
  F           18.094121       18.720746        4.933376
  C           15.337854       17.793598        4.903672
  F           14.669029       18.915700        4.614047
  F           14.430864       16.832047        5.076485
  F           16.065458       17.466455        3.837900
  H           14.944742       19.176062        7.100047
  H           16.649741       17.006151        6.427128
  O           25.591171       10.854400        5.729131
  C           25.024837       11.492401        6.818804
  C           25.060499       10.582200        8.068172
  F           26.319320       10.275126        8.381460
  F           24.421481        9.429310        7.838335
  F           24.510281       11.145999        9.141340
  C           23.578867       11.939872        6.503211
  F           22.821654       10.895289        6.148530
  F           23.571420       12.793127        5.479015
  F           22.983525       12.545018        7.528719
  H           25.099414       10.051200        5.497894
  H           25.625473       12.386970        7.026227
  O            5.987623        9.740661        5.573525
  C            6.489981        8.686666        4.830628
  C            5.856861        8.657407        3.420323
  F            6.130031        9.786673        2.766710
  F            4.524464        8.561019        3.496169
  F            6.296271        7.648524        2.671073
  C            6.268123        7.343157        5.563036
  F            4.968535        7.141927        5.809816
  F            6.892778        7.349206        6.740680
  F            6.720057        6.294249        4.879043
  H            5.030610        9.653685        5.703860
  H            7.570123        8.845665        4.720834
  O           10.050547       25.158182        5.199072
  C            9.076015       24.785481        6.108218
  C            7.795702       25.631474        5.919132
  F            7.301675       25.455988        4.693483
  F            8.060764       26.936271        6.051692
  F            6.832156       25.321625        6.783928
  C            9.603708       24.899460        7.557083
  F           10.013002       26.145861        7.820307
  F           10.654881       24.098361        7.731299
  F            8.695224       24.567319        8.471762
  H           10.311920       26.083635        5.324153
  H            8.827333       23.734703        5.913117
  O           12.034830       20.358387        7.028669
  C           11.243986       19.773660        6.055105
  C           11.397199       18.235204        6.073504
  F           11.021029       17.746603        7.255384
  F           12.674106       17.879560        5.890890
  F           10.667419       17.626184        5.141401
  C           11.579729       20.344937        4.658116
  F           12.871199       20.157596        4.362593
  F           11.359557       21.659406        4.630343
  F           10.855509       19.800168        3.682908
  H           12.974462       20.174113        6.875175
  H           10.199925       20.019339        6.286663
  O           20.885928        9.925614       14.931082
  C           22.266421        9.892582       15.022265
  C           22.737301        8.626758       15.775007
  F           22.342728        7.529897       15.128260
  F           22.202978        8.572624       17.000524
  F           24.060490        8.557433       15.904099
  C           22.802836       11.172028       15.704860
  F           22.273740       11.320940       16.924780
  F           22.464275       12.250465       14.998161
  F           24.128021       11.180218       15.831817
  H           20.476745        9.960360       15.809596
  H           22.663763        9.854182       14.000166
  O           27.845131       13.461086        7.338395
  C           27.450219       14.786714        7.294581
  C           27.916398       15.541141        8.561142
  F           29.245903       15.512225        8.654174
  F           27.433518       14.963049        9.667017
  F           27.544976       16.819489        8.574342
  C           25.918151       14.898171        7.118502
  F           25.275864       14.268785        8.109291
  F           25.539866       14.319746        5.978589
  F           25.485873       16.156937        7.087768
  H           27.447669       13.001097        8.093947
  H           27.932208       15.245911        6.422304
  O            7.731185       31.202145        2.166367
  C            6.358110       31.223621        1.994997
  C            5.687182       32.136352        3.047346
  F            6.134807       33.386406        2.928719
  F            5.980479       31.731202        4.288375
  F            4.361295       32.176826        2.934716
  C            5.774612       29.792954        2.053137
  F            6.074885       29.200861        3.214854
  F            6.296956       29.040237        1.084814
  F            4.451388       29.762059        1.910230
  H            7.971100       30.842768        3.034534
  H            6.156319       31.638484        0.999402
  O           23.466483       30.152746       11.192051
  C           23.494697       29.152692       10.235881
  C           22.148991       28.392330       10.196075
  F           21.155200       29.225873        9.888408
  F           21.862123       27.864975       11.391870
  F           22.132007       27.406584        9.301471
  C           24.670069       28.181147       10.491341
  F           24.584317       27.636946       11.710692
  F           25.830901       28.834203       10.436020
  F           24.729863       27.188968        9.605731
  H           23.331814       29.786152       12.079687
  H           23.649040       29.632420        9.261160
  O           11.818822       25.721296       14.718221
  C           12.077181       27.079822       14.771358
  C           13.556000       27.344067       15.137317
  F           14.362503       26.808850       14.220709
  F           13.866629       26.779731       16.310074
  F           13.850900       28.639765       15.217941
  C           11.127799       27.781101       15.770128
  F           11.244720       27.251627       16.993366
  F            9.859053       27.619394       15.394347
  F           11.348748       29.090109       15.870025
  H           11.967784       25.301593       15.579664
  H           11.890437       27.490558       13.771126
  O           22.265251        2.795773        6.433041
  C           23.275299        3.226750        5.590885
  C           23.536325        2.192461        4.471612
  F           22.437352        2.017263        3.737691
  F           23.857227        1.000302        4.987464
  F           24.513676        2.554315        3.643273
  C           24.568638        3.516277        6.387194
  F           24.971890        2.429724        7.055860
  F           24.351926        4.472470        7.290413
  F           25.577429        3.918445        5.617194
  H           22.506604        1.967289        6.875520
  H           22.940009        4.162043        5.125214
  O           32.268637       14.186910       10.487920
  C           31.383890       15.248736       10.417824
  C           31.894642       16.445647       11.252805
  F           33.073424       16.862945       10.790843
  F           32.076823       16.094065       12.530899
  F           31.067678       17.488701       11.231152
  C           29.971519       14.818421       10.876842
  F           30.000287       14.337028       12.124943
  F           29.506716       13.845021       10.093564
  F           29.085987       15.811918       10.843740
  H           32.361488       13.866771       11.398587
  H           31.325341       15.560622        9.367424
  O            9.956266       12.749906       11.814918
  C           10.843057       11.968689       12.534964
  C           11.328048       12.712439       13.800775
  F           10.295500       12.997945       14.594127
  F           11.908603       13.874427       13.479738
  F           12.198485       12.007182       14.519976
  C           12.039464       11.541129       11.653794
  F           12.676771       12.609677       11.161483
  F           11.614925       10.825580       10.612241
  F           12.931569       10.800200       12.307608
  H           10.377690       13.567745       11.508380
  H           10.306117       11.065095       12.850012
  O            9.932829       19.379030       11.273182
  C            8.936715       19.199065       10.329501
  C            7.813443       18.291712       10.882338
  F            7.260513       18.845018       11.961781
  F            8.299869       17.102855       11.256946
  F            6.837492       18.073938       10.003478
  C            9.519020       18.620195        9.019352
  F           10.141508       17.457542        9.245344
  F           10.423752       19.454237        8.506605
  F            8.595014       18.412422        8.083755
  H           10.351038       18.536024       11.507418
  H            8.507658       20.184968       10.110531
  O           15.371617       25.769938        9.638613
  C           14.172823       25.891903       10.319188
  C           14.184846       27.137992       11.234489
  F           14.359149       28.243143       10.509689
  F           15.195909       27.079326       12.108922
  F           13.057047       27.289815       11.925371
  C           13.870226       24.612462       11.132899
  F           14.856191       24.352324       11.999226
  F           13.775639       23.559183       10.321276
  F           12.732845       24.687370       11.820689
  H           16.113387       25.652851       10.252203
  H           13.380393       26.020709        9.571187
  O           32.464334       10.974208        6.779162
  C           32.072828       10.082374        7.762279
  C           31.886234        8.664259        7.175088
  F           33.032000        8.224131        6.654913
  F           30.984146        8.670718        6.186898
  F           31.492169        7.771426        8.080550
  C           30.779971       10.565501        8.459251
  F           29.789633       10.723630        7.573503
  F           30.980276       11.750256        9.036580
  F           30.352213        9.730569        9.403821
  H           31.790624       11.050504        6.085823
  H           32.874439       10.043380        8.510571
  O           12.543894       14.766831       11.572866
  C           12.289668       16.126556       11.531842
  C           12.971536       16.776352       10.305678
  F           12.506698       16.238100        9.178165
  F           14.292617       16.564957       10.325267
  F           12.770301       18.090216       10.231086
  C           12.743469       16.810241       12.842299
  F           14.046355       16.601549       13.064244
  F           12.083713       16.300954       13.882695
  F           12.535289       18.125138       12.844960
  H           13.493275       14.589618       11.660591
  H           11.204634       16.256495       11.432551
  O           18.750669       15.613829       10.329094
  C           17.406610       15.893594       10.154728
  C           16.708924       14.765170        9.360655
  F           16.805279       13.609107       10.017395
  F           17.291103       14.588567        8.168932
  F           15.414699       14.996530        9.151481
  C           17.215778       17.259497        9.455764
  F           17.838392       17.281876        8.271629
  F           17.745311       18.235195       10.193790
  F           15.936989       17.566821        9.249486
  H           19.210043       15.552964        9.477216
  H           16.949145       15.948580       11.150592
  O            8.284993       27.863547       12.085277
  C            9.650395       27.721686       11.910008
  C           10.366285       29.085571       12.044081
  F           10.159747       29.599616       13.256588
  F            9.887004       29.966370       11.158187
  F           11.683108       29.004296       11.866110
  C            9.964057       27.065655       10.545494
  F            9.452686       27.785316        9.540053
  F            9.413757       25.853389       10.477244
  F           11.268629       26.922865       10.321883
  H            7.902292       28.442361       11.407826
  H           10.017914       27.059443       12.703989
  O            7.122041        9.125907        9.898509
  C            7.871450        9.870403        9.004486
  C            9.104101       10.489712        9.702831
  F            9.887692        9.530362       10.195484
  F            8.733706       11.260260       10.732096
  F            9.849565       11.231301        8.886357
  C            7.005561       10.965552        8.339997
  F            6.467756       11.774059        9.260544
  F            5.995647       10.412876        7.667911
  F            7.687114       11.721634        7.482020
  H            6.780798        9.680067       10.617456
  H            8.225050        9.187668        8.221619
  O            7.203882        7.900649       14.041200
  C            6.629833        8.991750       13.412607
  C            7.716441        9.963445       12.897098
  F            8.505154        9.349969       12.014684
  F            8.499278       10.380466       13.898889
  F            7.212787       11.040484       12.298249
  C            5.645774        9.716610       14.359637
  F            6.263426       10.113938       15.478101
  F            4.664803        8.892178       14.727173
  F            5.079059       10.786132       13.805331
  H            7.718978        8.172918       14.816423
  H            6.065264        8.616185       12.549905
  O           25.620685       28.125052       15.107830
  C           26.461413       27.572401       16.058050
  C           27.896656       28.128653       15.912043
  F           27.900079       29.450979       16.080911
  F           28.380302       27.888690       14.687777
  F           28.749218       27.613213       16.795084
  C           26.455767       26.028994       15.965733
  F           26.824466       25.621534       14.745749
  F           25.227742       25.556859       16.180488
  F           27.264448       25.449610       16.850407
  H           25.911420       27.902574       14.209831
  H           26.078322       27.860537       17.045097
  O           32.884722       21.517594       11.783321
  C           31.761121       20.908751       11.252289
  C           30.732894       21.964739       10.785066
  F           31.263557       22.741342        9.840418
  F           30.376617       22.765408       11.796164
  F           29.624169       21.427260       10.280938
  C           31.127995       19.936593       12.274405
  F           30.803239       20.575469       13.404314
  F           31.996329       18.979852       12.602611
  F           30.031302       19.337348       11.815635
  H           32.661062       22.047414       12.564149
  H           32.082209       20.329062       10.377701
  O           19.547693       22.689744       16.923736
  C           19.153859       21.832410       15.911294
  C           19.799674       22.237301       14.566064
  F           21.128622       22.182957       14.655601
  F           19.479897       23.495376       14.241543
  F           19.437190       21.451057       13.554765
  C           17.612692       21.792360       15.793562
  F           17.118452       23.014941       15.566965
  F           17.072550       21.357749       16.932173
  F           17.183604       20.992567       14.819645
  H           19.262211       23.599072       16.744714
  H           19.506149       20.827110       16.174555
  O           24.521228       19.936758       10.750513
  C           25.770671       19.434974       11.070307
  C           26.877968       20.458374       10.727956
  F           26.698522       21.583488       11.420049
  F           26.841971       20.786030        9.431164
  F           28.102735       20.014424       11.002096
  C           26.022430       18.088831       10.352548
  F           25.918182       18.227459        9.025808
  F           25.111804       17.188828       10.723802
  F           27.221142       17.572717       10.615253
  H           24.446856       20.114197        9.800035
  H           25.787653       19.257313       12.152984
  O            3.219082       13.171587       10.222213
  C            3.350169       14.510364       10.547262
  C            2.281940       15.359518        9.820295
  F            1.058399       14.968815       10.177191
  F            2.370832       15.206665        8.494000
  F            2.377434       16.660150       10.087759
  C            4.773890       15.018039       10.221774
  F            5.061575       14.837944        8.927507
  F            5.680081       14.335495       10.921793
  F            4.945277       16.308272       10.501464
  H            3.352126       13.026141        9.272702
  H            3.188891       14.604685       11.628527
  O           20.051290       26.854431       14.828925
  C           21.088538       26.576616       15.701908
  C           21.853101       27.867570       16.075458
  F           21.034844       28.733665       16.673297
  F           22.333128       28.472263       14.982643
  F           22.873710       27.649825       16.902043
  C           22.046330       25.522766       15.099667
  F           22.541772       25.940404       13.929009
  F           21.393217       24.384887       14.863554
  F           23.072826       25.233611       15.896533
  H           20.382586       27.227741       13.997476
  H           20.647617       26.159805       16.616183
  O           27.743522        3.950169        6.196219
  C           29.102576        4.118404        6.395806
  C           29.689415        2.938571        7.204677
  F           29.510215        1.792454        6.547883
  F           29.072201        2.814286        8.385323
  F           30.994154        3.062790        7.438184
  C           29.392468        5.465959        7.096318
  F           28.751564        5.543294        8.268319
  F           28.959486        6.479860        6.346914
  F           30.688163        5.667149        7.326526
  H           27.264666        3.930051        7.039260
  H           29.581765        4.132386        5.408778
  O           29.333540        8.922283        4.542724
  C           27.985169        9.125966        4.306983
  C           27.140669        7.990718        4.930434
  F           27.324373        7.948267        6.250103
  F           27.508402        6.799284        4.445066
  F           25.834533        8.132599        4.715547
  C           27.705342        9.253475        2.791696
  F           28.118122        8.162777        2.135713
  F           28.371637       10.290233        2.283505
  F           26.416402        9.433813        2.511673
  H           29.640274        8.096914        4.136393
  H           27.704654       10.070227        4.790434
  O           21.602261       33.387378       11.539103
  C           20.832347       32.635439       10.669054
  C           20.303181       31.360315       11.365259
  F           19.541900       31.685394       12.410175
  F           21.312628       30.616456       11.832180
  F           19.569114       30.592939       10.562402
  C           21.633265       32.277044        9.395971
  F           22.748818       31.606317        9.705794
  F           22.008731       33.385600        8.757845
  F           20.939706       31.537586        8.533140
  H           22.381894       32.892562       11.835336
  H           19.972357       33.249883       10.374237
  O           16.048099       20.844685       12.676984
  C           17.188210       20.658235       11.915047
  C           16.834850       20.555676       10.413289
  F           16.243693       21.676453        9.999203
  F           15.975484       19.554363       10.191508
  F           17.899149       20.358240        9.638315
  C           17.965219       19.407097       12.385760
  F           17.196027       18.314158       12.321332
  F           18.340128       19.546249       13.657434
  F           19.063944       19.174680       11.670857
  H           15.440085       20.094406       12.588528
  H           17.829037       21.537147       12.059601
  O           21.990300       17.727241       12.694237
  C           22.467798       16.923260       11.674053
  C           21.306187       16.196794       10.957418
  F           20.466079       17.082728       10.422242
  F           20.599213       15.458069       11.820435
  F           21.716702       15.395801        9.976507
  C           23.504015       15.909760       12.212318
  F           22.972370       15.148139       13.175444
  F           24.542269       16.550382       12.749633
  F           23.981465       15.100024       11.269626
  H           21.535316       17.202551       13.371079
  H           22.968116       17.575170       10.946909
  O            2.463662       20.621521       11.753891
  C            3.754940       20.148127       11.907720
  C            4.363503       20.635503       13.242926
  F            3.639264       20.192667       14.270764
  F            4.362180       21.971874       13.309516
  F            5.614249       20.219567       13.429826
  C            4.640379       20.568261       10.711834
  F            4.661143       21.899268       10.576508
  F            4.152773       20.067956        9.576488
  F            5.899558       20.150279       10.821650
  H            2.445970       21.590720       11.726209
  H            3.703989       19.052275       11.931259
  O           20.561598        5.850993       11.225890
  C           21.805479        5.374521       11.601255
  C           21.764737        3.844451       11.820080
  F           21.411103        3.224981       10.693903
  F           20.857903        3.518078       12.748227
  F           22.936461        3.339526       12.200098
  C           22.312119        6.099956       12.869213
  F           21.448951        5.953515       13.881052
  F           22.426304        7.408141       12.639671
  F           23.500513        5.663722       13.281184
  H           19.900685        5.689908       11.917028
  H           22.501806        5.587365       10.780360
  O           11.426588       21.740929       13.967098
  C           11.663012       20.920578       12.877928
  C           13.163669       20.562676       12.775005
  F           13.561291       19.914935       13.870178
  F           13.913173       21.666918       12.678995
  F           13.445451       19.786992       11.730394
  C           11.162732       21.581956       11.572954
  F           11.752612       22.767510       11.381052
  F            9.850263       21.805335       11.640799
  F           11.383576       20.837315       10.491734
  H           11.904192       22.580847       13.884287
  H           11.097013       19.993587       13.034050
  O            5.812220        2.779780        9.277303
  C            6.995947        3.496415        9.297023
  C            6.781381        4.894876        9.920661
  F            6.350401        4.780372       11.176934
  F            5.850124        5.580760        9.247871
  F            7.890197        5.631185        9.946646
  C            7.592163        3.611928        7.875108
  F            6.725584        4.195465        7.039136
  F            7.854115        2.400960        7.383161
  F            8.725671        4.309166        7.838795
  H            5.142439        3.223018        8.733834
  H            7.705868        2.943636        9.925107
  O           15.177856       18.951589       16.803594
  C           15.357806       17.705332       16.229463
  C           16.384374       17.775014       15.075357
  F           17.565996       18.190912       15.531288
  F           15.994834       18.649983       14.141006
  F           16.579747       16.601344       14.478175
  C           14.011045       17.128021       15.735900
  F           13.432174       17.951377       14.854244
  F           13.164315       16.990967       16.756361
  F           14.134137       15.934647       15.158833
  H           14.825828       19.586746       16.160883
  H           15.755395       17.038954       17.005289
  O           16.866978        8.615674        2.559588
  C           17.198203        7.604042        3.443926
  C           18.718640        7.324616        3.414767
  F           19.396871        8.416500        3.768130
  F           19.120810        6.995393        2.181805
  F           19.085832        6.345079        4.238160
  C           16.395071        6.319405        3.135146
  F           16.611880        5.909993        1.879878
  F           15.087477        6.552191        3.249535
  F           16.691499        5.309253        3.950023
  H           17.083453        8.369139        1.647018
  H           16.929268        7.945419        4.451487
  O            8.327072       29.546564       15.733952
  C            7.159349       28.849910       15.991363
  C            7.398568       27.324874       15.903628
  F            8.308196       26.946526       16.801684
  F            7.871241       26.983447       14.699330
  F            6.298238       26.609599       16.127137
  C            6.033779       29.288306       15.026189
  F            6.397578       29.103510       13.751895
  F            5.776996       30.587993       15.174349
  F            4.891885       28.632827       15.222974
  H            8.650496       29.370465       14.836839
  H            6.849520       29.092318       17.015710
  O           21.519378       21.818604       10.833486
  C           20.548980       21.103710       10.153472
  C           20.997694       19.640603        9.932945
  F           21.205338       19.038535       11.104045
  F           22.151246       19.590916        9.256799
  F           20.103052       18.914496        9.266100
  C           20.206442       21.784533        8.808182
  F           21.296873       21.905877        8.042310
  F           19.737845       23.014763        9.018009
  F           19.287703       21.123719        8.107081
  H           22.345674       21.858065       10.327421
  H           19.646060       21.097571       10.776962
  O           17.401864       12.429919        2.556234
  C           18.091805       12.706257        3.723616
  C           18.496630       11.399987        4.445028
  F           19.289604       10.666391        3.663937
  F           17.421140       10.653949        4.722648
  F           19.149625       11.613560        5.585327
  C           17.255340       13.614244        4.654500
  F           16.080827       13.044846        4.948830
  F           16.987455       14.773049        4.052436
  F           17.870531       13.895250        5.801180
  H           16.578764       11.951132        2.739791
  H           19.006541       13.245261        3.446533
  O            7.262424       18.162833       24.100258
  C            7.559785       16.897127       23.626202
  C            8.591518       16.196392       24.540071
  F            8.104770       16.068040       25.774444
  F            9.714405       16.917849       24.634670
  F            8.923939       14.979178       24.115587
  C            8.068925       16.962158       22.167707
  F            9.150122       17.744704       22.073054
  F            7.135546       17.488261       21.374553
  F            8.385431       15.768266       21.670973
  H            8.050118       18.728413       24.109304
  H            6.631423       16.312373       23.641955
  O           16.641043        7.993423       26.968296
  C           15.571704        8.845449       26.754449
  C           16.041317       10.161064       26.091668
  F           16.606864        9.908581       24.911208
  F           16.962421       10.773564       26.844487
  F           15.048997       11.023040       25.880484
  C           14.823118        9.130441       28.076968
  F           15.647041        9.660723       28.988163
  F           14.347536        7.997142       28.593233
  F           13.793698        9.961030       27.926247
  H           17.289628        8.388487       27.571360
  H           14.879994        8.340952       26.068110
  O           26.769188       12.233717       22.696697
  C           27.914558       11.624727       22.214594
  C           28.014787       10.166144       22.717732
  F           26.966178        9.458386       22.297526
  F           28.008234       10.120022       24.054951
  F           29.111304        9.541355       22.293954
  C           29.173288       12.431857       22.608042
  F           29.259152       12.566480       23.936510
  F           29.114787       13.660475       22.094088
  F           30.305088       11.876069       22.180924
  H           26.775836       12.277217       23.665453
  H           27.843500       11.608055       21.119736
  O           22.809877       13.028426       21.065079
  C           23.767172       12.850439       22.048477
  C           24.043929       11.347001       22.280292
  F           24.495919       10.781498       21.160923
  F           22.922516       10.701193       22.620422
  F           24.947732       11.122639       23.231660
  C           23.339226       13.541896       23.363547
  F           22.161595       13.071184       23.790091
  F           23.188947       14.852248       23.169976
  F           24.221566       13.384378       24.347906
  H           21.964012       12.629926       21.322246
  H           24.693472       13.321626       21.696352
  O           31.788353       32.867723       26.171928
  C           31.017484       31.738044       26.383470
  C           29.710389       32.096149       27.127728
  F           28.988934       32.956111       26.408671
  F           29.973498       32.688280       28.298403
  F           28.940506       31.037569       27.370604
  C           31.816753       30.664382       27.157471
  F           32.247896       31.142296       28.330518
  F           32.895489       30.300691       26.463834
  F           31.111019       29.562198       27.401254
  H           32.052993       33.274497       27.011526
  H           30.753753       31.329617       25.399765
  O           16.269874       24.793492       32.454717
  C           17.551075       24.270883       32.478569
  C           18.482794       25.139831       33.354632
  F           18.033310       25.180942       34.608964
  F           18.518474       26.401181       32.909607
  F           19.733944       24.686794       33.395652
  C           18.114022       24.130370       31.045389
  F           18.120282       25.311191       30.416146
  F           17.349369       23.308748       30.326140
  F           19.353941       23.646591       31.016081
  H           16.260473       25.682566       32.067569
  H           17.491083       23.270514       32.925451
  O           13.566551       16.085999       32.444107
  C           12.501574       15.515530       33.119054
  C           11.329400       16.516291       33.242117
  F           10.901498       16.879061       32.032831
  F           11.716901       17.631620       33.871568
  F           10.284646       16.019002       33.900518
  C           12.941981       15.007652       34.511448
  F           13.458125       16.002631       35.242157
  F           13.892260       14.081070       34.386988
  F           11.946338       14.464419       35.208508
  H           13.912189       16.856532       32.920803
  H           12.160343       14.655044       32.529845
  O           20.820925       27.378376       31.858726
  C           21.994792       26.763276       32.257291
  C           23.200953       27.714438       32.080872
  F           23.039329       28.809678       32.823437
  F           23.311408       28.115904       30.809279
  F           24.358834       27.161388       32.435479
  C           22.214555       25.443810       31.481809
  F           22.246320       25.664139       30.162427
  F           21.209913       24.598468       31.712391
  F           23.342396       24.821608       31.818171
  H           20.849675       27.613959       30.918461
  H           21.896571       26.524570       33.323787
  O           32.300300       12.357600       24.156613
  C           32.118541       11.331263       25.066977
  C           31.347771       10.155673       24.423114
  F           32.028964        9.668113       23.386129
  F           30.160710       10.560371       23.956820
  F           31.132293        9.147999       25.266004
  C           31.390582       11.841366       26.332098
  F           30.206938       12.380539       26.018090
  F           32.108365       12.794472       26.926616
  F           31.176407       10.885029       27.233125
  H           31.450419       12.716978       23.858329
  H           33.112503       10.971987       25.361938
  O            8.584464       10.636043       34.648764
  C            7.953424       11.865615       34.720218
  C            7.885434       12.530258       33.325842
  F            7.195720       11.763892       32.480826
  F            9.109840       12.681183       32.807791
  F            7.300941       13.726211       33.344941
  C            8.662630       12.788974       35.737614
  F            9.949035       12.960536       35.411960
  F            8.637140       12.243719       36.953805
  F            8.101807       13.992807       35.830163
  H            9.500319       10.728615       34.343697
  H            6.928048       11.690426       35.069439
  O           15.297904        6.108757       24.202354
  C           15.082522        4.765992       23.945923
  C           13.898518        4.229636       24.783249
  F           12.780597        4.889460       24.479999
  F           14.117292        4.409592       26.090948
  F           13.661924        2.934758       24.584219
  C           16.364193        3.943175       24.212287
  F           16.779664        4.100280       25.474439
  F           17.353546        4.358175       23.421068
  F           16.202691        2.639572       23.995871
  H           15.530323        6.255760       25.132299
  H           14.825364        4.670088       22.883513
  O           26.049656        2.396977       27.071478
  C           25.100574        3.398370       27.179273
  C           23.976650        3.204984       26.135216
  F           23.363566        2.036734       26.325991
  F           24.475089        3.187814       24.893610
  F           23.045787        4.155286       26.187373
  C           25.753737        4.792374       27.035086
  F           26.393942        4.901835       25.865266
  F           26.659430        4.980778       27.994930
  F           24.876996        5.791020       27.114646
  H           26.477668        2.411050       26.201401
  H           24.657567        3.326681       28.180596
  O           27.497884        6.345620       32.420554
  C           26.845132        5.790797       33.507408
  C           25.348699        5.562952       33.192079
  F           25.214615        4.726751       32.162582
  F           24.752975        6.709839       32.845542
  F           24.672013        5.045308       34.215036
  C           27.015766        6.677711       34.762368
  F           26.553032        7.913527       34.541099
  F           28.306430        6.794232       35.074912
  F           26.389849        6.194019       35.833148
  H           27.129363        7.213903       32.195385
  H           27.307878        4.816278       33.707961
  O            8.824294        7.642491       28.790384
  C            9.915998        8.463409       29.012740
  C           11.201266        7.626990       29.210602
  F           11.451221        6.897975       28.122882
  F           11.063727        6.773123       30.231542
  F           12.278932        8.372505       29.445423
  C            9.668686        9.390240       30.225374
  F            9.408886        8.677033       31.327265
  F            8.608832       10.168176       30.004922
  F           10.699678       10.189453       30.491101
  H            8.660395        7.062712       29.550264
  H           10.045352        9.089205       28.120726
  O           21.284323        4.167639       33.777800
  C           21.111013        2.801452       33.914413
  C           19.642156        2.403754       33.640635
  F           19.295802        2.738753       32.397700
  F           18.810187        3.048702       34.466587
  F           19.420216        1.098172       33.776640
  C           21.558591        2.328240       35.316698
  F           20.879505        2.967164       36.276355
  F           22.850108        2.598699       35.506198
  F           21.395015        1.020358       35.503747
  H           20.743718        4.655902       34.417933
  H           21.746457        2.311767       33.165774
  O            5.899955       25.706856       21.448015
  C            6.242320       24.568622       22.156798
  C            4.982688       23.751498       22.525980
  F            4.338924       23.369517       21.422924
  F            4.127360       24.489200       23.243290
  F            5.258877       22.652879       23.225306
  C            7.054399       24.932171       23.421321
  F            6.364340       25.764061       24.210055
  F            8.181212       25.559243       23.083463
  F            7.393681       23.869509       24.147915
  H            5.337132       26.293609       21.976576
  H            6.874959       23.952306       21.505674
  O           29.135538        4.417609       34.864966
  C           28.928654        3.063484       35.061710
  C           27.599583        2.813839       35.811316
  F           26.573319        3.286942       35.104188
  F           27.588816        3.447577       36.989697
  F           27.363114        1.523905       36.040343
  C           30.117635        2.430517       35.820878
  F           30.307743        3.033678       37.000021
  F           31.243408        2.576014       35.121921
  F           29.957853        1.128909       36.050198
  H           29.204048        4.888734       35.709817
  H           28.860783        2.592973       34.072744
  O            1.356956        9.669351       26.102927
  C            2.661621       10.126047       26.169585
  C            2.716019       11.661358       25.994880
  F            2.021410       12.262147       26.961133
  F            2.168091       12.029961       24.831166
  F            3.954438       12.148244       26.034371
  C            3.545773        9.419189       25.116359
  F            3.064036        9.608926       23.882562
  F            3.560310        8.103722       25.331790
  F            4.809462        9.837791       25.129093
  H            0.961372        9.861599       25.238647
  H            3.047414        9.878218       27.166473
  O           18.968873       32.673495       24.483891
  C           18.015595       31.703965       24.226138
  C           16.853854       32.284835       23.387326
  F           17.307501       32.735083       22.217472
  F           16.284685       33.322008       24.012340
  F           15.900390       31.392966       23.126991
  C           17.490461       31.085927       25.542543
  F           16.972078       32.027459       26.339488
  F           18.488180       30.511533       26.214633
  F           16.556383       30.157546       25.347846
  H           18.595626       33.404286       25.000665
  H           18.500438       30.911563       23.642127
  O           28.043959       23.736263       27.976901
  C           27.058515       22.872895       27.531187
  C           25.842059       23.659522       26.990714
  F           26.207019       24.429470       25.965503
  F           25.340674       24.469654       27.930195
  F           24.857395       22.871304       26.564747
  C           26.631543       21.899641       28.654188
  F           26.193139       22.569380       29.726370
  F           27.671230       21.165515       29.050653
  F           25.670921       21.057826       28.278882
  H           27.724515       24.285465       28.709538
  H           27.482848       22.284846       26.707669
  O           32.718985       28.957328       23.441070
  C           31.650886       28.131886       23.136150
  C           32.070458       27.041943       22.122916
  F           33.041404       26.284454       22.633359
  F           32.550575       27.591118       21.001213
  F           31.070639       26.230965       21.783837
  C           30.456708       28.954184       22.599101
  F           30.808090       29.655908       21.515386
  F           30.048469       29.830981       23.516513
  F           29.407742       28.201444       22.274523
  H           33.038714       29.423382       22.653040
  H           31.339824       27.637997       24.065320
  O            9.765364       20.911339       35.009964
  C           10.665693       21.303544       35.985027
  C           10.727013       22.845048       36.088304
  F            9.530794       23.335183       36.413731
  F           11.067628       23.389808       34.914617
  F           11.594097       23.273419       37.003160
  C           12.067522       20.712878       35.708174
  F           12.515074       21.087547       34.504162
  F           12.016963       19.380768       35.708726
  F           12.975433       21.076316       36.611452
  H           10.031856       21.234797       34.135447
  H           10.307369       20.907381       36.943515
  O           19.012173       21.977643       34.827524
  C           20.151409       21.211967       35.003723
  C           19.833856       19.931991       35.810865
  F           18.935779       19.188204       35.164866
  F           19.306397       20.236448       37.002258
  F           20.903802       19.168534       36.022164
  C           21.265887       22.034930       35.690259
  F           20.852666       22.507148       36.872030
  F           21.591689       23.088407       34.941183
  F           22.379446       21.335517       35.897886
  H           18.651784       22.271854       35.678397
  H           20.505609       20.913716       34.008921
  O           29.068500        8.936862       25.996351
  C           29.451032        8.421436       27.222389
  C           29.036895        6.937049       27.347855
  F           29.623800        6.210675       26.396540
  F           27.715789        6.794239       27.190978
  F           29.368452        6.399266       28.519673
  C           28.859261        9.259084       28.379460
  F           27.523986        9.301513       28.304877
  F           29.294355       10.517224       28.309803
  F           29.185407        8.792018       29.582697
  H           28.104998        8.910584       25.889592
  H           30.545317        8.480371       27.278159
  O           20.124861       27.991626       36.972542
  C           19.464877       28.497805       35.866482
  C           17.954826       28.171809       35.930765
  F           17.409517       28.716477       37.018446
  F           17.753618       26.851418       36.010809
  F           17.277301       28.624016       34.877784
  C           20.090478       27.959197       34.559124
  F           20.059641       26.621845       34.529748
  F           21.370392       28.322159       34.474540
  F           19.477994       28.404928       33.464370
  H           20.053952       27.025269       37.011929
  H           19.583476       29.588553       35.882070
  O           25.993045       13.212279       26.851838
  C           25.536261       12.002073       27.343686
  C           26.191976       10.820683       26.592012
  F           27.515844       10.852129       26.745174
  F           25.947573       10.894825       25.278584
  F           25.770905        9.631848       27.018241
  C           23.994442       11.921647       27.260096
  F           23.574734       12.083619       25.999964
  F           23.440202       12.894024       27.984234
  F           23.506446       10.766342       27.706671
  H           25.762727       13.320410       25.916057
  H           25.828169       11.943838       28.399830
  O           14.519716       24.295209       36.890078
  C           14.393265       25.136660       35.798687
  C           13.092662       25.967430       35.893080
  F           13.103414       26.720937       36.992710
  F           12.020981       25.170450       35.974617
  F           12.916444       26.782081       34.855008
  C           14.440901       24.334379       34.477803
  F           13.476776       23.407124       34.446439
  F           15.603919       23.692211       34.367875
  F           14.305743       25.099295       33.396630
  H           13.789327       23.658466       36.929007
  H           15.245831       25.827268       35.813995
  O           12.898335        4.877984       30.881274
  C           13.168661        5.388598       32.138797
  C           14.226085        4.526480       32.866304
  F           15.366301        4.512042       32.175816
  F           13.816735        3.257118       32.973433
  F           14.508331        4.968131       34.090061
  C           11.874243        5.498141       32.977332
  F           11.277278        4.306293       33.093317
  F           11.004473        6.314130       32.381735
  F           12.084864        5.969383       34.204471
  H           12.530936        3.982285       30.937542
  H           13.579047        6.397300       32.004090
  O            4.534796       31.082995       26.433079
  C            4.706709       31.733335       25.223671
  C            4.583098       30.741537       24.043960
  F            3.375325       30.177335       24.038082
  F            5.477190       29.752314       24.155147
  F            4.758305       31.317422       22.856543
  C            6.065110       32.470812       25.184513
  F            7.077427       31.619541       25.386687
  F            6.123928       33.384527       26.153399
  F            6.285452       33.099361       24.031831
  H            5.217737       30.408057       26.569000
  H            3.906558       32.478733       25.133218
  O            3.390543        9.915798       30.780494
  C            4.394000       10.843221       30.561115
  C            3.878999       12.015404       29.694270
  F            2.872501       12.637752       30.308045
  F            3.409604       11.573042       28.521961
  F            4.814487       12.927910       29.440311
  C            5.626833       10.175203       29.909555
  F            5.296869        9.586040       28.754421
  F            6.114113        9.224835       30.707323
  F            6.615551       11.031665       29.662151
  H            3.083619        9.526760       29.946905
  H            4.693813       11.242307       31.538297
  O            3.767179       12.770286       23.491135
  C            5.085633       12.357334       23.411677
  C            6.035430       13.571411       23.291003
  F            5.916471       14.360220       24.359040
  F            5.729834       14.313079       22.220085
  F            7.317086       13.224628       23.194064
  C            5.285368       11.380872       22.229608
  F            4.919936       11.947792       21.074019
  F            4.525374       10.297550       22.390531
  F            6.544181       10.967378       22.100344
  H            3.500427       13.249221       22.691203
  H            5.321515       11.825717       24.342153
  O           33.038406       23.613028       28.537272
  C           32.081664       24.220009       29.331869
  C           30.741392       23.452287       29.261639
  F           30.900949       22.201729       29.694908
  F           30.298960       23.376848       28.001129
  F           29.781493       24.008274       29.997691
  C           31.891278       25.700524       28.928773
  F           31.540578       25.804436       27.641708
  F           33.033578       26.371411       29.077561
  F           30.966398       26.324981       29.654686
  H           32.771203       23.611669       27.605056
  H           32.443930       24.188002       30.367137
  O            8.873166       23.258363       22.109336
  C            9.379120       22.229048       22.883729
  C           10.894549       22.417351       23.125961
  F           11.121883       23.563343       23.767908
  F           11.560122       22.478778       21.966839
  F           11.432757       21.440963       23.853489
  C            9.090935       20.857402       22.230894
  F            9.612626       20.794386       21.000369
  F            7.776821       20.670190       22.107880
  F            9.574215       19.833505       22.931162
  H            9.290859       23.277474       21.234355
  H            8.867568       22.263866       23.853855
  O           31.396021       13.845801       32.448416
  C           30.547354       12.797864       32.137358
  C           30.375835       12.665481       30.606438
  F           31.552585       12.425751       30.027765
  F           29.903376       13.800430       30.078238
  F           29.552710       11.679554       30.256133
  C           29.177783       12.974877       32.832771
  F           28.609751       14.134509       32.482174
  F           29.330624       12.999568       34.156819
  F           28.318171       11.998373       32.550268
  H           31.037714       14.691793       32.138032
  H           31.009114       11.876430       32.513896
  O           18.217551       16.199100       36.927139
  C           18.165182       15.211004       35.959623
  C           18.666387       15.747272       34.598789
  F           19.931314       16.155761       34.699642
  F           17.944002       16.802540       34.205223
  F           18.619153       14.836671       33.628802
  C           16.733818       14.639905       35.834315
  F           15.857265       15.606833       35.539314
  F           16.347087       14.101986       36.991103
  F           16.627727       13.695580       34.901955
  H           17.643001       16.945901       36.697782
  H           18.833236       14.401094       36.278671
  O           21.843445       33.335868       23.962744
  C           22.483576       32.175793       24.362275
  C           22.628037       31.192129       23.178132
  F           23.350458       31.744146       22.203216
  F           21.432611       30.891262       22.657787
  F           23.223915       30.050783       23.516598
  C           21.734842       31.513292       25.541745
  F           20.468161       31.238047       25.209955
  F           21.693899       32.339788       26.586878
  F           22.303516       30.381727       25.952194
  H           20.944948       33.150672       23.648371
  H           23.488353       32.454369       24.704122
  O            7.409582        8.841261       33.778100
  C            6.581463        8.725199       34.880785
  C            6.511616        7.257994       35.363577
  F            7.723708        6.827721       35.713969
  F            6.077348        6.453276       34.386764
  F            5.711702        7.091214       36.414587
  C            5.169116        9.270727       34.567206
  F            4.627751        8.626573       33.526862
  F            5.233846       10.560626       34.236985
  F            4.328315        9.165244       35.593962
  H            7.074229        8.321945       33.030923
  H            7.015513        9.332830       35.684792
  O           27.266614       32.632482       21.776531
  C           27.044750       31.661124       22.736950
  C           27.818012       31.985898       24.035890
  F           27.415404       33.154880       24.534350
  F           29.130248       32.092721       23.797253
  F           27.650196       31.069575       24.986937
  C           27.427666       30.261868       22.202052
  F           28.708763       30.231159       21.817122
  F           26.691452       29.957417       21.133234
  F           27.247965       29.293039       23.097250
  H           28.204351       32.678454       21.533709
  H           25.971407       31.661638       22.964935
  O            7.130496        8.640600       26.411878
  C            6.033865        7.809167       26.557776
  C            6.245541        6.820572       27.727619
  F            6.411192        7.485253       28.871224
  F            7.347188        6.085023       27.538763
  F            5.222600        5.985777       27.897939
  C            5.739234        7.052229       25.242141
  F            6.800491        6.335161       24.855009
  F            5.472171        7.914893       24.261548
  F            4.700875        6.224488       25.336766
  H            7.930021        8.133615       26.201758
  H            5.168921        8.442097       26.792962
  O           30.254227       30.831621       32.777284
  C           30.990187       31.996828       32.651505
  C           31.311065       32.286584       31.167006
  F           30.184326       32.436065       30.470451
  F           31.980893       31.268311       30.614943
  F           32.034154       33.390989       30.994585
  C           32.286019       31.921724       33.491647
  F           33.033622       30.874344       33.125029
  F           31.992519       31.759383       34.781832
  F           33.038801       33.015018       33.390021
  H           30.750372       30.065792       32.449000
  H           30.375087       32.818970       33.038516
  O           23.492721       23.833393       36.624347
  C           23.990591       25.066625       36.241689
  C           23.184737       25.639828       35.053120
  F           21.906655       25.801946       35.395609
  F           23.207785       24.801064       34.010878
  F           23.637037       26.820394       34.636001
  C           25.493703       24.968253       35.892925
  F           25.700946       24.075914       34.917679
  F           26.188966       24.556416       36.953149
  F           26.016323       26.128366       35.501381
  H           23.566095       23.186687       35.905450
  H           23.878103       25.747095       37.095123
  O            1.690627       20.925474       34.856144
  C            2.737113       20.638174       33.997371
  C            2.535653       19.259213       33.327641
  F            1.407782       19.250005       32.617080
  F            2.427870       18.292506       34.246435
  F            3.527294       18.928839       32.503140
  C            4.090997       20.697527       34.741773
  F            4.107289       19.845560       35.773379
  F            4.292393       21.917565       35.239790
  F            5.130006       20.410955       33.960341
  H            1.637684       20.276319       35.574628
  H            2.740513       21.405593       33.213089
  O           21.790238       11.840837       34.499543
  C           23.143847       12.128768       34.497614
  C           23.562642       12.792272       33.165311
  F           22.900005       13.935483       32.989084
  F           23.267765       12.004050       32.125081
  F           24.862565       13.073638       33.107590
  C           23.977184       10.854156       34.765146
  F           23.715376        9.911323       33.852542
  F           23.668835       10.340969       35.956211
  F           25.289733       11.076497       34.756147
  H           21.563973       11.212224       33.796639
  H           23.330913       12.840586       35.311471
  O           22.743285        9.011933       26.307818
  C           22.834609        9.208976       24.941071
  C           21.499399        8.858078       24.244837
  F           20.518688        9.634137       24.706371
  F           21.147797        7.591616       24.495386
  F           21.541923        9.015252       22.923555
  C           24.000684        8.387630       24.344145
  F           23.848619        7.083639       24.602618
  F           25.157682        8.761624       24.890550
  F           24.119384        8.530475       23.025887
  H           22.560239        8.082908       26.517178
  H           23.041469       10.273607       24.774303
  O           11.130882       11.184291       26.582094
  C           10.001423       11.927444       26.286778
  C           10.292413       13.441155       26.407870
  F           11.252537       13.797724       25.554585
  F           10.725805       13.748077       27.635996
  F            9.229487       14.199935       26.149529
  C            8.820652       11.517990       27.197154
  F            9.136637       11.671493       28.488245
  F            8.522943       10.230940       27.018426
  F            7.712904       12.218202       26.962852
  H           11.422224       11.335817       27.494555
  H            9.726620       11.710913       25.246759
  O           24.984536       24.259961       23.415565
  C           23.929478       24.146236       22.527261
  C           23.611989       25.510958       21.873509
  F           24.670566       25.958029       21.197774
  F           23.322852       26.430192       22.801805
  F           22.590532       25.457204       21.021431
  C           22.679811       23.566805       23.229578
  F           22.316312       24.330945       24.266054
  F           22.941706       22.352316       23.712798
  F           21.629964       23.453843       22.418800
  H           24.769788       24.868082       24.139786
  H           24.236458       23.448507       21.737970
  O           26.715575        1.481736       29.411393
  C           27.424883        2.617592       29.760503
  C           28.790419        2.243442       30.381777
  F           29.523796        1.554696       29.507213
  F           28.629007        1.464184       31.457429
  F           29.504888        3.304385       30.750874
  C           26.603630        3.503299       30.725764
  F           26.267769        2.824544       31.828856
  F           25.468082        3.891284       30.145185
  F           27.251501        4.602611       31.105338
  H           26.523016        0.935192       30.188976
  H           27.608571        3.187490       28.840983
  O           27.652420       14.824309       27.061427
  C           28.382078       14.587705       25.909566
  C           29.860602       14.997179       26.101810
  F           30.412007       14.290889       27.088816
  F           29.959190       16.287748       26.440979
  F           30.602058       14.804331       25.013070
  C           27.757798       15.325075       24.702413
  F           27.688636       16.641801       24.929948
  F           26.512055       14.899018       24.493432
  F           28.435213       15.142214       23.571055
  H           27.649062       15.767353       27.287442
  H           28.345603       13.509034       25.711630
  O           25.786875       19.764145       31.341472
  C           24.669809       19.997361       32.124375
  C           24.404880       21.514078       32.265940
  F           24.188056       22.059848       31.069195
  F           25.464280       22.137285       32.794721
  F           23.347841       21.791195       33.026317
  C           24.822431       19.332035       33.511713
  F           25.915141       19.781172       34.139873
  F           24.962463       18.012934       33.379661
  F           23.778109       19.542699       34.310031
  H           26.582905       20.145687       31.742953
  H           23.810041       19.542751       31.616270
  O           28.567330       27.975466       31.298753
  C           28.086902       29.261674       31.472025
  C           26.541077       29.271308       31.503464
  F           26.093952       28.526866       32.514879
  F           26.036630       28.749070       30.379575
  F           26.028997       30.491219       31.651420
  C           28.622196       30.201714       30.367287
  F           28.283770       29.753697       29.152761
  F           29.953688       30.252440       30.407677
  F           28.173496       31.449960       30.480639
  H           28.273116       27.601621       30.453707
  H           28.454090       29.623322       32.440748
  O           11.927026        8.314878       21.319610
  C           13.131822        8.755483       21.838742
  C           13.732059        7.705392       22.801906
  F           13.957637        6.560883       22.156703
  F           12.883954        7.431977       23.800047
  F           14.886106        8.091033       23.342050
  C           12.959187       10.118969       22.547094
  F           12.049426       10.038094       23.524907
  F           12.524238       11.037209       21.684117
  F           14.089696       10.578115       23.079479
  H           11.271231        8.178922       22.020946
  H           13.824388        8.888503       20.998087
  O           22.849330        1.492165       21.408138
  C           23.716500        2.465777       21.872100
  C           24.880495        1.831041       22.667641
  F           25.574712        1.000822       21.889263
  F           24.419578        1.110300       23.696433
  F           25.734923        2.730422       23.150721
  C           22.963943        3.507440       22.731900
  F           22.350135        2.920431       23.765817
  F           22.020193        4.109947       22.008439
  F           23.760003        4.457875       23.216938
  H           22.445893        1.002811       22.141757
  H           24.135588        2.978440       20.997124
  O           12.406097       11.220958       32.030796
  C           13.459789       10.829393       31.223593
  C           14.504365       10.027610       32.033941
  F           13.949375        8.928797       32.545478
  F           14.967395       10.747826       33.062151
  F           15.548559        9.642140       31.303619
  C           14.112566       12.053012       30.540002
  F           14.544340       12.934803       31.449035
  F           13.222728       12.685196       29.774752
  F           15.144829       11.729226       29.764183
  H           12.708043       11.805100       32.743559
  H           13.051937       10.174792       30.443083
  O            4.300417       20.446614       29.038935
  C            3.014330       20.226097       29.499932
  C            2.251645       19.262942       28.561155
  F            2.873480       18.085291       28.501710
  F            2.207101       19.745956       27.314144
  F            1.000613       19.032213       28.953561
  C            2.251058       21.561310       29.658933
  F            2.206468       22.227674       28.499496
  F            2.872389       22.347945       30.537698
  F            1.000007       21.400578       30.084770
  H            4.292923       20.864558       28.163897
  H            3.094152       19.754441       30.487460
  O            5.294103       22.812023       32.071054
  C            5.280896       23.987847       32.800731
  C            3.831450       24.470774       33.038528
  F            3.145016       23.555700       33.723015
  F            3.191642       24.653229       31.877632
  F            3.766106       25.610623       33.723198
  C            6.118174       25.080734       32.097011
  F            5.660788       25.311846       30.861006
  F            7.386076       24.686959       31.976838
  F            6.122471       26.239160       32.753006
  H            4.899410       22.938407       31.194316
  H            5.738562       23.776485       33.775364
  O           14.434048       29.981198       28.909305
  C           14.599939       31.354923       28.886359
  C           14.175797       31.936889       27.518120
  F           12.890152       31.675131       27.282166
  F           14.877760       31.381202       26.523744
  F           14.333344       33.256503       27.440033
  C           16.060345       31.737739       29.220010
  F           16.912646       31.166164       28.361400
  F           16.385318       31.305781       30.438566
  F           16.275287       33.051288       29.193753
  H           14.990346       29.549164       28.242744
  H           13.946735       31.779095       29.659304
  O           16.922074       10.983746       34.158138
  C           17.385286        9.690062       33.993878
  C           16.848259        8.767862       35.112720
  F           15.515946        8.733055       35.084312
  F           17.202703        9.223944       36.319651
  F           17.280729        7.513129       35.008258
  C           18.930547        9.661167       33.949236
  F           19.451103       10.188512       35.063350
  F           19.377849       10.389815       32.926461
  F           19.426434        8.433639       33.809341
  H           17.228181       11.362475       34.996761
  H           17.005281        9.323174       33.032093
  O           13.678075       18.389058       31.360206
  C           13.292181       17.721171       30.211216
  C           14.524504       17.326312       29.364975
  F           15.323845       16.517433       30.060564
  F           15.246151       18.404826       29.038852
  F           14.203761       16.694715       28.237806
  C           12.305535       18.576692       29.383404
  F           12.850167       19.754954       29.058752
  F           11.208447       18.836442       30.094742
  F           11.917215       17.983177       28.256795
  H           14.141264       19.214175       31.147923
  H           12.777297       16.802881       30.520537
  O            6.160915        1.735458       24.066557
  C            6.480489        2.406630       22.899267
  C            7.697057        3.336126       23.115271
  F            8.762773        2.625542       23.484586
  F            7.457048        4.218842       24.091762
  F            8.033743        4.018579       22.022934
  C            5.264271        3.202984       22.372681
  F            4.830190        4.075077       23.289933
  F            4.250822        2.378610       22.107344
  F            5.526867        3.881383       21.257730
  H            5.912161        2.354284       24.770546
  H            6.750794        1.653087       22.148834
  O           26.948558        9.688793       32.078558
  C           26.391654        9.810043       30.817479
  C           25.079098       10.625416       30.872459
  F           25.315580       11.852724       31.335998
  F           24.197009       10.056366       31.702173
  F           24.494604       10.755639       29.683465
  C           26.151062        8.418938       30.186923
  F           25.354489        7.673869       30.961950
  F           27.303691        7.760493       30.064570
  F           25.599213        8.481963       28.977051
  H           26.354956        9.213447       32.680312
  H           27.109673       10.353645       30.190592
  O           16.723824       20.207908       36.351626
  C           16.059665       19.690410       35.253331
  C           15.414029       20.820614       34.418792
  F           16.349357       21.660061       33.974310
  F           14.564480       21.538649       35.162442
  F           14.747091       20.371169       33.357900
  C           14.999840       18.652998       35.690602
  F           14.117251       19.198115       36.535710
  F           15.581184       17.639905       36.333064
  F           14.320286       18.137539       34.668444
  H           16.113024       20.672488       36.944513
  H           16.803528       19.181197       34.627702
  O            2.950457       21.964611       26.417972
  C            1.960983       22.685660       25.772841
  C            1.926549       22.344234       24.265226
  F            1.669730       21.047944       24.089868
  F            3.110286       22.590247       23.692018
  F            1.000103       23.026837       23.595860
  C            2.156872       24.203863       25.990434
  F            3.358983       24.598225       25.554853
  F            2.096896       24.496894       27.289515
  F            1.237442       24.943101       25.373608
  H            3.828184       22.181331       26.067184
  H            0.999577       22.394874       26.214636
  O            5.297313       28.508551       32.084864
  C            4.446461       29.470979       32.599595
  C            3.161020       29.580542       31.747364
  F            2.509060       28.417793       31.741332
  F            3.454314       29.871966       30.474818
  F            2.315888       30.507524       32.193183
  C            5.160393       30.838803       32.699677
  F            5.613186       31.230603       31.503100
  F            6.217184       30.751420       33.507534
  F            4.376151       31.804106       33.174497
  H            5.582141       28.736081       31.186239
  H            4.163783       29.154327       33.611458
  O            7.441233       32.330819       34.877348
  C            8.504045       31.464737       35.065756
  C            8.049429       30.192249       35.817260
  F            7.115768       29.549142       35.115999
  F            7.506296       30.503591       36.999799
  F            9.042147       29.333247       36.038452
  C            9.658413       32.166782       35.817571
  F            9.243635       32.635641       37.000134
  F           10.099864       33.211197       35.116576
  F           10.700133       31.367914       36.038774
  H            7.076102       32.628218       35.725085
  H            8.867962       31.168349       34.073910
  O           13.658581       25.696203       24.250799
  C           14.626424       25.249737       23.368125
  C           14.115240       25.319830       21.910580
  F           13.812813       26.576913       21.585997
  F           12.999449       24.596912       21.759835
  F           15.006241       24.883702       21.022769
  C           15.076988       23.814721       23.726427
  F           14.037919       22.971736       23.720540
  F           15.596515       23.785472       24.953746
  F           15.997278       23.332754       22.893916
  H           12.864413       25.141079       24.211294
  H           15.492290       25.917102       23.462688
  O           23.781175        7.347252       34.713019
  C           22.467568        7.126228       35.088187
  C           21.892401        8.356990       35.826473
  F           21.917370        9.426975       35.031750
  F           22.625874        8.653194       36.905641
  F           20.633304        8.186665       36.223919
  C           22.351781        5.855300       35.961110
  F           23.121902        5.951934       37.051018
  F           22.769354        4.787230       35.281453
  F           21.106675        5.608786       36.362658
  H           24.347524        7.492885       35.486625
  H           21.884575        6.969858       34.171831
  O            9.591115       28.412842       30.789883
  C           10.880753       28.531835       30.302195
  C           11.734198       27.305587       30.700450
  F           11.206210       26.190452       30.195697
  F           11.766690       27.156946       32.029801
  F           12.991070       27.381034       30.268152
  C           11.535582       29.843173       30.794385
  F           11.552227       29.896964       32.131230
  F           10.837848       30.896769       30.369913
  F           12.786405       29.995901       30.364950
  H            9.584144       28.376423       31.758929
  H           10.817481       28.567413       29.207310
  O           17.941621       28.181193       21.492036
  C           18.966081       27.341183       21.892073
  C           18.448914       26.281313       22.892010
  F           17.502654       25.532807       22.325084
  F           17.898481       26.863357       23.963724
  F           19.403068       25.457839       23.320708
  C           20.134313       28.150576       22.500987
  F           19.718329       28.881739       23.541508
  F           20.628469       28.999624       21.599876
  F           21.139794       27.384031       22.917779
  H           17.574161       28.669954       22.244706
  H           19.334815       26.821813       20.998580
  O           29.519270       27.917765       25.263553
  C           29.623361       26.655855       25.822045
  C           28.697881       25.654328       25.093287
  F           29.036338       25.562707       23.807158
  F           27.424287       26.062400       25.135233
  F           28.749432       24.426836       25.606031
  C           29.308998       26.697030       27.335366
  F           28.084156       27.188284       27.556171
  F           30.169744       27.496547       27.965418
  F           29.379159       25.501294       27.916393
  H           28.617945       28.265613       25.347453
  H           30.661065       26.322958       25.694018
  O           23.498275       17.093486       35.071030
  C           23.635276       16.120218       36.045271
  C           24.903854       15.271182       35.799295
  F           25.990837       16.042110       35.834149
  F           24.868667       14.697813       34.590852
  F           25.071075       14.307675       36.702617
  C           22.376073       15.225218       36.108842
  F           22.139235       14.648184       34.925092
  F           21.302702       15.956863       36.408250
  F           22.466311       14.260310       37.021590
  H           23.397739       16.697998       34.191310
  H           23.744089       16.631915       37.009826
  O           12.425179       29.149869       23.778553
  C           12.576242       30.255817       22.960491
  C           13.615750       29.979811       21.849680
  F           13.220854       28.958387       21.089531
  F           14.799141       29.642612       22.375234
  F           13.809689       31.022299       21.044754
  C           12.970035       31.501437       23.787544
  F           14.101913       31.285623       24.467691
  F           12.023282       31.780463       24.683579
  F           13.144310       32.590265       23.041636
  H           13.255692       28.929660       24.228197
  H           11.606400       30.449571       22.485193
  O            9.377342        2.542405       26.129729
  C           10.491392        3.302657       26.439688
  C           10.841615        3.177882       27.940499
  F           11.112043        1.909481       28.248885
  F            9.810722        3.555857       28.705169
  F           11.898727        3.906396       28.292752
  C           10.274541        4.781744       26.044803
  F            9.198409        5.287664       26.658244
  F           10.060325        4.884075       24.733042
  F           11.314382        5.559104       26.339324
  H            8.597598        2.846034       26.619866
  H           11.332471        2.909089       25.855110
  O           13.098639        9.775952       35.041872
  C           13.158120       10.726379       36.046020
  C           11.966848       11.706937       35.945842
  F           10.814105       11.049309       36.071470
  F           11.944693       12.312211       34.752747
  F           11.988560       12.652990       36.882225
  C           14.503730       11.486788       36.003939
  F           14.683952       12.074498       34.815478
  F           15.519118       10.641011       36.179222
  F           14.602703       12.426138       36.942090
  H           13.154398       10.187205       34.165409
  H           13.090276       10.197695       37.005151
  O            8.103942       22.070926       32.078350
  C            8.074501       21.374715       30.882697
  C            6.940529       20.323643       30.886591
  F            5.758120       20.918872       31.043704
  F            7.086167       19.466795       31.903904
  F            6.881750       19.614161       29.761656
  C            9.441702       20.710324       30.599846
  F            9.786869       19.884324       31.594285
  F           10.396905       21.636027       30.511891
  F            9.459096       20.012616       29.466179
  H            8.281173       21.478482       32.825360
  H            7.870948       22.099101       30.084027
  O           18.770639       33.218626       32.981646
  C           18.020607       32.113931       32.617962
  C           16.515049       32.367190       32.862527
  F           16.096177       33.404112       32.136983
  F           16.282844       32.667381       34.145606
  F           15.751162       31.324628       32.543401
  C           18.497906       30.852524       33.374069
  F           18.423882       31.031885       34.697955
  F           19.773671       30.594943       33.085709
  F           17.794406       29.763833       33.070523
  H           18.674749       33.412368       33.927000
  H           18.173109       31.950748       31.543645
  O           29.734083        3.694476       28.598366
  C           31.108084        3.581582       28.718951
  C           31.747055        4.954662       29.030444
  F           31.272769        5.436004       30.179547
  F           31.449675        5.847370       28.079150
  F           33.072828        4.901511       29.139081
  C           31.722904        2.963861       27.441816
  F           31.423596        3.697755       26.363791
  F           31.227979        1.743776       27.233207
  F           33.047941        2.850081       27.502070
  H           29.493028        4.282146       27.865590
  H           31.311144        2.907484       29.560616
  O            9.492347        9.267194       24.249247
  C            8.645520        9.726200       23.255586
  C            8.085458        8.549245       22.423863
  F            7.391250        7.720347       23.203656
  F            9.076583        7.835436       21.877538
  F            7.276746        8.941543       21.441831
  C            9.366930       10.749172       22.347977
  F           10.460284       10.210860       21.795600
  F            9.767923       11.800430       23.062915
  F            8.597246       11.208469       21.363633
  H           10.258866        8.807704       23.872759
  H            7.804968       10.232758       23.746415
  O           10.670575       26.710181       27.556797
  C           11.937708       26.185333       27.372211
  C           12.793834       27.116136       26.482652
  F           12.925044       28.312427       27.056015
  F           12.209738       27.312742       25.295007
  F           14.019192       26.645316       26.261004
  C           11.861159       24.763414       26.769761
  F           11.202659       24.772335       25.605020
  F           11.195265       23.948966       27.588500
  F           13.058112       24.220943       26.556854
  H           10.199063       26.794199       26.713563
  H           12.413481       26.117101       28.358632
  O           29.604122       21.823095       26.349404
  C           29.743782       20.613560       27.007191
  C           31.159063       20.030084       26.789952
  F           32.082296       20.865152       27.266793
  F           31.414125       19.866735       25.486654
  F           31.337856       18.855426       27.390378
  C           28.657942       19.611596       26.551472
  F           28.713479       19.414864       25.229149
  F           27.443606       20.089005       26.824500
  F           28.760564       18.424192       27.144634
  H           29.713255       21.716609       25.391711
  H           29.609713       20.803750       28.079522
  O           10.169032       21.486259       27.995377
  C            8.930982       21.530911       27.378608
  C            8.890931       20.583467       26.157378
  F            9.113511       19.325907       26.539575
  F            9.845921       20.899781       25.275186
  F            7.723209       20.603672       25.518379
  C            8.574253       22.977798       26.966392
  F            9.503982       23.485117       26.148740
  F            8.526185       23.766539       28.040009
  F            7.396888       23.070923       26.352031
  H           10.871126       21.781878       27.395295
  H            8.186657       21.186202       28.107441
  O           19.170730       31.055407       29.427602
  C           19.119052       29.712736       29.096348
  C           18.516956       28.883806       30.254370
  F           17.274548       29.289478       30.516911
  F           19.227066       29.044323       31.377002
  F           18.461695       27.580171       29.990208
  C           20.521545       29.187043       28.712526
  F           21.391568       29.371752       29.712159
  F           20.992346       29.851873       27.657338
  F           20.527334       27.892643       28.401409
  H           19.740501       31.205347       30.197865
  H           18.462287       29.613428       28.222941
  O           25.412188       31.643025       29.664893
  C           24.166641       32.164362       29.968182
  C           23.640743       31.589673       31.303781
  F           24.469506       31.901561       32.300252
  F           23.571104       30.254333       31.255408
  F           22.434912       32.048861       31.631527
  C           23.165228       31.898212       28.820578
  F           23.057657       30.587485       28.574109
  F           23.587593       32.473792       27.694793
  F           21.944915       32.366795       29.072698
  H           25.372215       30.680581       29.552965
  H           24.281820       33.249742       30.080985
  O           18.048286       14.161624       30.226850
  C           19.022951       13.181138       30.164875
  C           18.525231       11.961957       29.354608
  F           18.229049       12.325155       28.106634
  F           17.408976       11.454966       29.890573
  F           19.423131       10.981856       29.280593
  C           19.466492       12.756715       31.583957
  F           18.425324       12.313127       32.297766
  F           19.974755       13.799148       32.241284
  F           20.393057       11.800817       31.577837
  H           17.253066       13.838201       30.677901
  H           19.889658       13.609803       29.646121
  O           15.875062        2.966750       27.129961
  C           15.658640        1.951182       28.044809
  C           14.189760        1.950244       28.527562
  F           13.364385        1.757931       27.498559
  F           13.865619        3.127225       29.075258
  F           13.934975        0.999746       29.424188
  C           16.632172        2.071512       29.239972
  F           16.502873        3.258168       29.844499
  F           17.894191        1.982838       28.819827
  F           16.451770        1.124708       30.158296
  H           15.715979        3.836981       27.527221
  H           15.854781        0.999898       27.534292
  O           24.378009       29.753579       26.325184
  C           24.156710       28.387881       26.357778
  C           25.466556       27.626121       26.665485
  F           25.946721       27.992178       27.853980
  F           26.408580       27.908801       25.758289
  F           25.308855       26.304457       26.690713
  C           23.533876       27.900243       25.029265
  F           24.321723       28.204793       23.991542
  F           22.362287       28.500576       24.819374
  F           23.317316       26.586928       25.004661
  H           25.004924       29.991070       25.624470
  H           23.443174       28.188487       27.167191
  O           23.493573       15.627448       30.288900
  C           24.803242       16.033917       30.102576
  C           24.894028       17.101287       28.987615
  F           24.174145       18.174597       29.314496
  F           24.398934       16.633227       27.836040
  F           26.139151       17.512863       28.758328
  C           25.713818       14.825360       29.784930
  F           25.284121       14.175740       28.696960
  F           25.694566       13.953562       30.793232
  F           26.983908       15.167622       29.579923
  H           23.135644       15.217359       29.486318
  H           25.145164       16.486193       31.042032
  O            5.617428        3.184386       32.088694
  C            5.608156        4.251721       31.207857
  C            6.890802        5.101500       31.360678
  F            7.969308        4.363060       31.098750
  F            7.019379        5.552177       32.613946
  F            6.921442        6.152842       30.544565
  C            4.344245        5.119306       31.409059
  F            4.269673        5.571403       32.666187
  F            3.246351        4.396086       31.188477
  F            4.297330        6.171192       30.594420
  H            5.637046        3.488939       33.009176
  H            5.585958        3.840095       30.190943
  O            3.290892       16.022453       30.411006
  C            4.674672       16.004610       30.410299
  C            5.225463       16.041438       31.854575
  F            4.802038       14.978582       32.538769
  F            4.788772       17.125882       32.505426
  F            6.555720       16.043243       31.906663
  C            5.238938       17.176670       29.574514
  F            4.803321       18.351675       30.043475
  F            4.827031       17.084032       28.310067
  F            6.569606       17.213049       29.557164
  H            2.950438       16.836103       30.814107
  H            4.992265       15.063635       29.943670
  O           23.505298        5.445095       30.590460
  C           22.130429        5.327462       30.485289
  C           21.740845        3.961099       29.875422
  F           22.179498        2.967285       30.648075
  F           22.300865        3.797735       28.671257
  F           20.425816        3.806269       29.737488
  C           21.541324        6.490709       29.654344
  F           22.085429        6.529142       28.432544
  F           21.809456        7.658812       30.238054
  F           20.220219        6.412918       29.509675
  H           23.929026        5.402372       29.719223
  H           21.715936        5.383428       31.499737
  O           28.992121       19.578543       30.770081
  C           29.332435       18.346849       31.301382
  C           30.740447       17.915251       30.830337
  F           31.653726       18.800486       31.229531
  F           30.802800       17.863071       29.494780
  F           31.107473       16.725682       31.302057
  C           28.276270       17.279079       30.933903
  F           28.142045       17.176151       29.606607
  F           27.083554       17.620612       31.421610
  F           28.568249       16.070135       31.408775
  H           28.959744       19.546262       29.801405
  H           29.351093       18.452358       32.393427
  O           18.080719       18.451855       30.327929
  C           18.628634       19.681367       30.649260
  C           18.019420       20.228633       31.960754
  F           18.266432       19.393307       32.969857
  F           16.689784       20.339763       31.860541
  F           18.503074       21.420455       32.304176
  C           18.438552       20.687413       29.490641
  F           17.142353       20.835141       29.193376
  F           19.043776       20.244182       28.388677
  F           18.934970       21.893208       29.758836
  H           17.125049       18.521524       30.178710
  H           19.704701       19.532696       30.804236
  O            2.978632        2.610780       24.952020
  C            1.942545        3.510614       25.130867
  C            1.979411        4.613478       24.047820
  F            1.850631        4.075667       22.834869
  F            3.149069        5.263003       24.066322
  F            1.010302        5.515510       24.187335
  C            1.988663        4.127198       26.548032
  F            3.159060        4.737930       26.765986
  F            1.867788        3.173792       27.471872
  F            1.019836        5.014422       26.763690
  H            3.840766        3.047216       25.033713
  H            1.001769        2.955575       25.026396
  O            2.712990       18.253385       23.226341
  C            3.992377       18.550625       23.662209
  C            3.980539       18.983589       25.146480
  F            3.504627       18.001106       25.911535
  F            3.184290       20.043272       25.329190
  F            5.188822       19.297404       25.608944
  C            4.635930       19.640825       22.774537
  F            3.891962       20.752937       22.768027
  F            4.720146       19.220044       21.512425
  F            5.864172       19.974658       23.164764
  H            2.134111       19.029458       23.281432
  H            4.591768       17.635722       23.574318
  O           28.862451       21.444645       33.012358
  C           29.355114       21.460415       34.305494
  C           30.682867       20.673462       34.397342
  F           31.601654       21.221209       33.601807
  F           30.518123       19.408702       33.992910
  F           31.189307       20.644858       35.628196
  C           28.311107       20.898935       35.298192
  F           27.957158       19.652163       34.965622
  F           27.202885       21.639383       35.272564
  F           28.745316       20.877197       36.556480
  H           28.666325       20.540295       32.722341
  H           29.554917       22.506508       34.569709
  O           14.810507       28.169304       34.533831
  C           14.258271       29.409025       34.263109
  C           14.949006       30.512362       35.097489
  F           16.248215       30.569381       34.804436
  F           14.853607       30.252311       36.406533
  F           14.440252       31.724060       34.884750
  C           12.733128       29.398545       34.517055
  F           12.460959       29.049639       35.779795
  F           12.138549       28.503648       33.727935
  F           12.156889       30.576321       34.286640
  H           14.688757       27.926401       35.464744
  H           14.429770       29.621654       33.200368
  O            6.017305       26.787143       29.095426
  C            4.903504       26.138916       28.591032
  C            5.269760       24.719893       28.098195
  F            5.748414       23.989250       29.105234
  F            6.224597       24.770337       27.162211
  F            4.232523       24.060372       27.586853
  C            4.252633       26.965627       27.458082
  F            5.126331       27.195223       26.471035
  F            3.862004       28.154286       27.918052
  F            3.184421       26.374499       26.927244
  H            6.696800       26.900340       28.412858
  H            4.178469       26.043727       29.409143
  O            9.613257       14.546417       31.580613
  C            9.428828       14.456215       30.212032
  C            9.547461       15.847798       29.548644
  F           10.757650       16.362742       29.766244
  F            8.658697       16.702546       30.068093
  F            9.360246       15.816233       28.230975
  C            8.066888       13.802379       29.882977
  F            7.060014       14.493956       30.429098
  F            8.011715       12.569218       30.386310
  F            7.834581       13.708522       28.575489
  H            8.934432       15.104757       31.990342
  H           10.224906       13.814817       29.813397
  O           31.123325       26.267990       31.918624
  C           32.058094       26.413729       32.928639
  C           31.724628       25.490695       34.123405
  F           31.732316       24.214385       33.738635
  F           30.501423       25.748847       34.600325
  F           32.587467       25.607185       35.130500
  C           32.152899       27.889225       33.380947
  F           30.963860       28.338718       33.798636
  F           32.526610       28.662806       32.361638
  F           33.028780       28.078763       34.365430
  H           30.237142       26.519925       32.221335
  H           33.032315       26.114000       32.522318
  O           18.179738        8.046145       31.679737
  C           17.461293        6.869758       31.556792
  C           18.291349        5.664263       32.055238
  F           18.606986        5.819478       33.341068
  F           19.441401        5.563106       31.378873
  F           17.648351        4.504148       31.941286
  C           17.001403        6.656819       30.096033
  F           18.048552        6.634842       29.263374
  F           16.214595        7.660313       29.707439
  F           16.319122        5.526930       29.922412
  H           18.984378        8.024314       31.138902
  H           16.569507        6.960108       32.189719
  O           22.918980       16.819012       32.046629
  C           21.608194       16.732011       32.481869
  C           20.667980       16.339005       31.319026
  F           21.015394       15.150979       30.824079
  F           20.752679       17.221139       30.316535
  F           19.390305       16.258927       31.684311
  C           21.155925       18.059712       33.132501
  F           21.279550       19.079113       32.274677
  F           21.920356       18.342277       34.187430
  F           19.893109       18.032038       33.553014
  H           23.019032       17.505150       31.368669
  H           21.564876       15.942482       33.242665
  O           30.434487        9.256600       31.428948
  C           31.232041        8.182075       31.781748
  C           31.976743        8.462344       33.107466
  F           31.104176        8.666798       34.094330
  F           32.725349        9.567166       33.011129
  F           32.772293        7.462562       33.481414
  C           32.229174        7.842786       30.649817
  F           32.997916        8.898185       30.357424
  F           31.572346        7.517737       29.536266
  F           33.032413        6.824137       30.948918
  H           30.965420       10.054737       31.282277
  H           30.573261        7.317515       31.932033
  O           25.543428       24.334278       32.739850
  C           26.833832       24.355921       32.240296
  C           27.847192       24.716076       33.351173
  F           27.801585       23.812384       34.330119
  F           27.555532       25.901716       33.898455
  F           29.104145       24.766669       32.915502
  C           26.946401       25.337854       31.051265
  F           26.582880       26.573094       31.415074
  F           26.130940       24.965559       30.064606
  F           28.175920       25.407384       30.545550
  H           25.282917       25.205281       33.077358
  H           27.064041       23.346364       31.877199
  O           28.425579        5.315784       24.485047
  C           28.215414        4.690289       23.268597
  C           29.457213        4.828465       22.357827
  F           30.518157        4.261655       22.932457
  F           29.761665        6.115728       22.156366
  F           29.297713        4.256306       21.166401
  C           26.954873        5.252786       22.571968
  F           27.059703        6.573899       22.387592
  F           25.877206        5.048618       23.329612
  F           26.719165        4.693551       21.387064
  H           28.576924        6.266652       24.369421
  H           28.051830        3.624072       23.469751
  O           15.005554       22.051081       31.307290
  C           14.020225       22.472894       30.431867
  C           14.540237       23.614403       29.527874
  F           15.579133       23.195760       28.805027
  F           14.965007       24.649630       30.261493
  F           13.621473       24.067423       28.677612
  C           12.752930       22.912031       31.201140
  F           13.035121       23.891227       32.068243
  F           12.264313       21.893110       31.908338
  F           11.779734       23.343662       30.401838
  H           15.278872       22.768126       31.900222
  H           13.758313       21.619437       29.793857
  O            8.233829       26.766225       33.075289
  C            8.541757       26.814031       34.423644
  C            9.945840       27.422320       34.645440
  F            9.991553       28.666897       34.170031
  F           10.879807       26.719521       33.994209
  F           10.296108       27.474184       35.928765
  C            8.442530       25.408448       35.060158
  F            9.256571       24.544994       34.442009
  F            7.203448       24.931882       34.939186
  F            8.747016       25.398979       36.356113
  H            8.857153       26.201525       32.592583
  H            7.803101       27.465140       34.907882
  O           26.042504       30.201234       36.165613
  C           26.972864       30.149293       35.142433
  C           28.054668       29.084559       35.436883
  F           27.498755       27.877970       35.547243
  F           28.672830       29.338723       36.596020
  F           28.984721       29.008090       34.487434
  C           27.613401       31.537409       34.911127
  F           28.196361       31.987247       36.028324
  F           26.680364       32.427135       34.572153
  F           28.530017       31.535642       33.945668
  H           26.457070       30.455638       37.004564
  H           26.441455       29.857642       34.227782
  O            0.999501       13.624055       34.552398
  C            1.736222       12.915454       33.619504
  C            2.146972       11.533552       34.178335
  F            1.064802       10.815003       34.477783
  F            2.854577       11.664952       35.306321
  F            2.874027       10.818789       33.322295
  C            2.977914       13.721263       33.172814
  F            3.751805       14.027186       34.220587
  F            2.605903       14.872427       32.612899
  F            3.730276       13.073125       32.286153
  H            1.518692       13.795021       35.353420
  H            1.094400       12.756725       32.743769
  O            9.785064       17.867890       35.336664
  C            8.495311       18.204434       34.964590
  C            7.588256       18.361443       36.206869
  F            8.051795       19.327958       36.999369
  F            7.569718       17.236289       36.930753
  F            6.329940       18.668946       35.899650
  C            7.914692       17.157370       33.986226
  F            7.922197       15.936162       34.532960
  F            8.657216       17.094830       32.880865
  F            6.666317       17.428201       33.611378
  H            9.805753       17.016862       35.801151
  H            8.542707       19.171052       34.447439
  O           23.623572       23.354385       28.752610
  C           22.566966       23.364802       27.858944
  C           22.491485       24.717013       27.112963
  F           23.613049       24.929082       26.424344
  F           22.363037       25.732240       27.975018
  F           21.478237       24.783010       26.251992
  C           21.234265       23.057307       28.580064
  F           21.005524       23.940133       29.559155
  F           21.281351       21.850918       29.145291
  F           20.182727       23.072759       27.763773
  H           23.515202       24.037408       29.432434
  H           22.750877       22.573492       27.121349
  O            7.266412       28.498474       23.320093
  C            8.186251       28.862917       24.287689
  C            9.608382       28.399137       23.896395
  F            9.978677       28.961781       22.746009
  F            9.646163       27.074057       23.714572
  F           10.528800       28.711909       24.805958
  C            7.782703       28.299048       25.669665
  F            7.674841       26.965983       25.629302
  F            6.592692       28.776153       26.034795
  F            8.647520       28.608770       26.633233
  H            7.223599       27.534683       23.221613
  H            8.184932       29.958536       24.348170
  O           16.953998       25.991939       27.729876
  C           17.878305       26.701499       26.983319
  C           17.184793       27.813624       26.163028
  F           16.568153       28.671977       26.975469
  F           16.250945       27.299636       25.354283
  F           18.031888       28.515171       25.412986
  C           18.682436       25.755868       26.061467
  F           17.868060       25.077723       25.244621
  F           19.345749       24.855572       26.787109
  F           19.575141       26.394745       25.308331
  H           16.307035       25.549254       27.159005
  H           18.576160       27.174744       27.685515
