65
Properties=species:S:1:pos:R:3 pbc="F F F"
C       12.00185662      18.43918892      24.91364650
C       13.54048930      18.29996550      24.97874315
C       14.11114460      18.86343792      23.67080151
C       13.95962041      19.11098843      26.21400401
O       13.80877092      18.72351086      27.36664253
O       14.49332607      20.31630880      25.87780079
C       14.91816134      21.10314307      26.99177424
C       13.87519866      16.78773457      25.18191021
C       15.34808236      16.22480526      25.07645051
C       15.76899258      16.13931815      23.59909513
C       15.22046831      14.77870206      25.61019142
O       15.16322188      13.77834667      24.90598371
O       15.12019246      14.76567748      26.96792625
C       14.94167260      13.47226798      27.54548983
C       16.34702641      17.05826943      25.94152917
C       17.90135972      16.79005311      25.99396540
C       18.41246806      17.61226562      27.20570610
C       18.18384230      15.31155435      26.30297033
O       18.29526485      14.84644958      27.42985874
O       18.27198919      14.57402224      25.16445127
C       18.54712322      13.18639253      25.36771912
C       18.59426286      17.28572003      24.67451464
C       20.13791880      17.53710316      24.60868633
C       20.95533413      16.32703711      25.08526210
C       20.49904670      18.84079092      25.33496464
O       19.85236125      19.87711925      25.22968407
O       21.62897493      18.71800315      26.08138760
C       22.00866258      19.90774352      26.77454394
C       20.51493933      17.79309962      23.13016934
H       11.52539880      18.03030710      25.81253822
H       11.70072154      19.49102212      24.84007647
H       11.59093577      17.91056404      24.04617626
H       15.19562850      18.99617246      23.72045499
H       13.69083839      19.85152167      23.44625672
H       13.87366968      18.21445187      22.82118572
H       14.06638802      21.34982499      27.63311921
H       15.34294686      22.03399771      26.60618347
H       15.69326072      20.57749998      27.55846273
H       13.47540854      16.50215927      26.16637188
H       13.26014406      16.21186290      24.47308654
H       14.93734546      15.80563683      22.96706892
H       16.11524005      17.09739667      23.20701977
H       16.56939670      15.41077862      23.44109389
H       14.01526738      13.01637750      27.18274010
H       14.86669858      13.59340659      28.62957586
H       15.79997972      12.83091210      27.32777012
H       16.24905271      18.10693278      25.63989554
H       15.97463447      17.02772415      26.97500882
H       18.25782834      18.68546504      27.05282927
H       19.47044194      17.43297309      27.41453369
H       17.87815939      17.34137152      28.12511801
H       17.76017205      12.71750382      25.96415391
H       19.52315274      13.05947845      25.84608641
H       18.57487132      12.70111038      24.38835925
H       18.36594471      16.57899823      23.87057934
H       18.09938800      18.22052502      24.37450612
H       22.02905234      16.48426410      24.92541359
H       20.82422393      16.13037731      26.15264249
H       20.68424730      15.42276152      24.53088616
H       22.23006439      20.71040626      26.06427114
H       22.91510232      19.69149817      27.34659165
H       21.22262571      20.21174737      27.47292558
H       20.31500321      16.91231787      22.50957712
H       19.94665168      18.63255653      22.71236821
H       21.57834225      18.04093721      23.02920025
