         768
  Built with Packmol                                             
  O           22.837230        9.760926       28.137974
  C           23.249068       10.872804       27.424335
  C           22.042008       11.763609       27.049995
  F           21.421868       12.189341       28.150566
  F           21.143808       11.076188       26.335143
  F           22.385366       12.840032       26.345923
  C           24.038468       10.454437       26.162402
  F           23.299534        9.662577       25.376744
  F           25.124594        9.761293       26.504395
  F           24.442628       11.490989       25.431296
  H           22.240054        9.207187       27.611498
  H           23.917635       11.452360       28.073314
  O           18.156342       18.692644       26.061329
  C           19.503577       18.947995       25.874466
  C           20.328095       17.643232       25.966247
  F           19.939446       16.782823       25.025118
  F           20.142555       17.042352       27.147281
  F           21.635550       17.839187       25.809840
  C           20.011098       19.994264       26.893486
  F           19.800268       19.580935       28.148490
  F           19.351529       21.143151       26.744817
  F           21.308899       20.261819       26.765320
  H           17.987905       18.322687       26.941775
  H           19.624048       19.362167       24.865511
  O            5.958922       16.585355       19.575461
  C            4.866952       16.894908       18.783663
  C            4.251120       15.615247       18.172208
  F            3.838088       14.793535       19.137230
  F            5.157217       14.946720       17.449446
  F            3.205305       15.862581       17.386463
  C            5.258065       17.901935       17.677505
  F            6.244490       17.415826       16.915280
  F            5.705610       19.034528       18.219733
  F            4.242916       18.218910       16.876693
  H            6.661031       16.163814       19.056066
  H            4.114528       17.365800       19.428768
  O            9.282032        3.085208       20.252218
  C           10.165519        2.714373       21.250766
  C           10.626029        3.947001       22.062689
  F            9.579929        4.538500       22.639645
  F           11.200689        4.856332       21.266946
  F           11.492501        3.643723       23.026819
  C           11.377954        1.958990       20.659110
  F           12.012597        2.709730       19.751397
  F           10.974483        0.851447       20.036508
  F           12.267328        1.595169       21.580494
  H            9.700438        3.689857       19.619952
  H            9.632256        2.034887       21.927502
  O           22.295521       14.322021       23.829112
  C           23.188239       14.807068       22.889459
  C           24.397728       13.855805       22.738156
  F           23.992051       12.651644       22.335045
  F           25.022828       13.687045       23.909093
  F           25.295673       14.288479       21.855667
  C           23.652190       16.235186       23.258090
  F           24.217814       16.256238       24.470505
  F           22.609344       17.064550       23.299336
  F           24.527431       16.740324       22.391436
  H           22.707064       14.259576       24.704988
  H           22.662412       14.852526       21.927440
  O           20.736409       19.192638       15.877854
  C           19.477492       18.716853       16.200227
  C           18.499748       18.903934       15.017148
  F           18.930975       18.232177       13.949505
  F           18.418159       20.191722       14.663217
  F           17.267785       18.476166       15.284694
  C           18.939284       19.406397       17.475186
  F           18.892760       20.734269       17.317342
  F           19.746157       19.164066       18.508291
  F           17.720706       18.993933       17.817591
  H           20.714364       20.143266       15.687471
  H           19.572655       17.642633       16.402798
  O            4.773242       22.723171        4.307656
  C            4.641367       23.932313        3.647543
  C            3.157190       24.224720        3.327584
  F            2.445600       24.292125        4.452827
  F            2.625986       23.245808        2.586047
  F            2.979299       25.371801        2.675771
  C            5.497567       23.951854        2.360220
  F            5.153064       22.951173        1.541514
  F            6.786166       23.786057        2.658711
  F            5.390951       25.090625        1.678945
  H            4.460543       21.987479        3.758655
  H            5.010672       24.717133        4.319638
  O           23.328380       22.796363       11.221460
  C           22.440095       22.588759       12.262140
  C           22.490589       21.120137       12.743033
  F           23.712947       20.818137       13.180882
  F           22.214645       20.278713       11.739945
  F           21.639324       20.865302       13.734350
  C           21.004341       22.984140       11.846277
  F           20.609835       22.291416       10.771651
  F           20.956485       24.275199       11.517720
  F           20.107812       22.786072       12.810282
  H           23.104032       22.248101       10.453670
  H           22.748964       23.234964       13.093440
  O           10.605365       18.597363       19.820997
  C           11.742156       18.290455       20.548099
  C           12.031320       19.383122       21.603145
  F           11.012766       19.482986       22.457340
  F           12.175998       20.580659       21.024095
  F           13.127631       19.141530       22.318712
  C           12.956540       18.092366       19.611781
  F           13.175024       19.186934       18.873872
  F           12.728719       17.089092       18.764070
  F           14.081028       17.811465       20.266701
  H           10.714352       19.428296       19.333044
  H           11.553094       17.345464       21.072780
  O           10.233019       17.475522       25.610302
  C           10.671981       16.208886       25.266631
  C           11.816709       15.751910       26.200135
  F           11.394906       15.710795       27.464044
  F           12.841210       16.611464       26.156687
  F           12.286023       14.543175       25.898465
  C           11.116000       16.164019       23.786262
  F           12.084602       17.056450       23.550250
  F           10.095339       16.475109       22.987168
  F           11.563975       14.967836       23.411078
  H           10.942062       18.130384       25.516280
  H            9.826840       15.520823       25.394492
  O           14.196305       14.883511        8.341006
  C           13.983587       16.223196        8.615158
  C           13.220806       16.906773        7.456907
  F           12.031687       16.330239        7.281754
  F           13.889865       16.782922        6.304802
  F           13.006414       18.203921        7.666054
  C           15.321251       16.945559        8.897129
  F           16.157870       16.824800        7.859916
  F           15.927263       16.402174        9.952855
  F           15.170828       18.243888        9.150136
  H           14.742353       14.769846        7.547698
  H           13.363194       16.280675        9.518403
  O            2.285645       17.896471        7.180512
  C            2.429146       16.520433        7.213573
  C            1.220561       15.858575        7.914947
  F            0.094436       16.137740        7.258454
  F            1.074781       16.326828        9.159862
  F            1.319972       14.532991        7.987360
  C            3.753906       16.122515        7.904465
  F            3.810221       16.611824        9.148542
  F            4.792890       16.627252        7.239011
  F            3.930470       14.804969        7.976559
  H            2.250696       18.267464        8.075815
  H            2.461666       16.167056        6.175253
  O            9.740948       27.377547       18.175112
  C           10.559668       26.358616       17.720534
  C           10.188283       25.959310       16.273714
  F           10.335421       27.000170       15.453937
  F            8.908166       25.577635       16.196581
  F           10.938270       24.968450       15.796206
  C           10.491726       25.136304       18.664989
  F            9.235816       24.688976       18.778617
  F           10.898202       25.473786       19.888900
  F           11.250953       24.120378       18.260307
  H            8.812428       27.098623       18.196939
  H           11.589324       26.737893       17.720410
  O           13.122523        5.953992        9.149637
  C           13.884090        4.851495        8.803687
  C           15.343571        5.264148        8.503203
  F           15.897285        5.823757        9.578987
  F           15.391438        6.171494        7.520983
  F           16.114110        4.238280        8.148005
  C           13.261200        4.109568        7.598609
  F           13.142947        4.924810        6.544228
  F           12.035229        3.682421        7.901289
  F           13.968321        3.048538        7.215861
  H           13.082626        6.595134        8.423160
  H           13.888150        4.170235        9.663868
  O           27.480303       16.795586       15.649885
  C           26.329879       16.041300       15.800688
  C           25.237952       16.846685       16.542112
  F           24.922171       17.942632       15.851999
  F           25.672886       17.250484       17.741322
  F           24.114722       16.156517       16.727374
  C           26.634099       14.716342       16.537300
  F           27.180410       14.950196       17.736124
  F           27.511526       13.991603       15.843072
  F           25.553389       13.961295       16.722416
  H           27.855507       17.039538       16.510196
  H           25.959146       15.800605       14.796365
  O            7.189299       21.097875       15.151351
  C            7.075488       21.805546       16.335164
  C            6.879905       23.313885       16.057103
  F            5.766956       23.513993       15.351145
  F            7.895006       23.802672       15.335313
  F            6.782160       24.041608       17.167583
  C            8.306917       21.566229       17.239027
  F            9.435857       21.915597       16.611522
  F            8.413555       20.272712       17.543195
  F            8.252633       22.240728       18.385501
  H            7.963241       21.386046       14.643024
  H            6.185792       21.432783       16.858164
  O           25.894094        4.140619        8.999552
  C           25.384150        4.303435       10.275723
  C           23.921794        4.802891       10.223581
  F           23.153686        3.920405        9.584594
  F           23.834286        5.957051        9.552327
  F           23.390795        4.991832       11.429665
  C           26.267259        5.267152       11.101572
  F           26.366858        6.458348       10.500359
  F           27.503688        4.781444       11.212958
  F           25.807690        5.470234       12.334396
  H           25.908196        4.981738        8.517114
  H           25.396033        3.320666       10.763643
  O           16.706432       10.644472        9.345130
  C           15.550202       10.568092        8.588518
  C           15.761193        9.663786        7.352244
  F           16.084734        8.427768        7.732580
  F           16.766838       10.116530        6.594599
  F           14.679748        9.571910        6.581312
  C           15.075530       11.977775        8.166452
  F           16.026478       12.615114        7.473760
  F           14.813071       12.719393        9.242645
  F           13.973204       11.956372        7.420316
  H           17.432833       11.038317        8.837535
  H           14.773210       10.116362        9.218015
  O           10.503925       10.833609       17.813172
  C            9.271057       11.044535       18.405380
  C            8.758808        9.752732       19.083246
  F            9.608052        9.360163       20.032851
  F            8.669315        8.752082       18.199495
  F            7.565157        9.900093       19.654017
  C            8.247398       11.568544       17.371844
  F            8.117108       10.712749       16.351568
  F            8.659566       12.727849       16.858811
  F            7.038170       11.771205       17.890494
  H           10.448386       10.161331       17.116478
  H            9.403557       11.811161       19.179182
  O           25.059383       11.893727       19.589988
  C           24.781711       10.673358       20.180550
  C           25.688970        9.563424       19.601251
  F           26.971235        9.847299       19.829909
  F           25.539377        9.467109       18.275103
  F           25.447816        8.364175       20.126557
  C           23.288478       10.308875       20.013020
  F           22.947389       10.272029       18.719720
  F           22.519177       11.229845       20.593595
  F           22.974218        9.132328       20.550865
  H           24.888069       11.869128       18.635802
  H           24.995403       10.769347       21.252540
  O            5.055825        5.985332       22.939416
  C            6.256833        5.492915       22.459551
  C            6.500119        5.958885       21.005473
  F            6.550389        7.289771       20.948103
  F            5.501062        5.569604       20.205055
  F            7.637671        5.495884       20.491756
  C            6.297270        3.950455       22.558751
  F            5.282031        3.400954       21.882245
  F            6.174180        3.564847       23.828881
  F            7.428644        3.426287       22.092338
  H            4.307797        5.656825       22.416958
  H            7.056385        5.900469       23.090945
  O           18.042842        4.837853       14.572876
  C           19.382830        5.181389       14.533158
  C           20.242149        3.988056       14.055472
  F           19.877456        3.616895       12.828152
  F           20.072082        2.926896       14.852555
  F           21.543953        4.263924       14.016683
  C           19.861291        5.688410       15.913254
  F           19.660840        4.762894       16.858539
  F           19.171100        6.770449       16.273676
  F           21.151495        6.016061       15.931044
  H           17.883849        4.116161       15.200815
  H           19.492769        5.997885       13.808389
  O           27.172940       21.939910       13.483380
  C           26.445221       22.650675       14.421678
  C           26.818041       24.150781       14.384996
  F           26.551604       24.664804       13.184219
  F           28.126680       24.323807       14.603740
  F           26.155459       24.876044       15.283483
  C           26.653332       22.064846       15.837359
  F           27.948833       22.071468       16.171962
  F           26.246127       20.796138       15.877836
  F           25.985736       22.726583       16.780078
  H           28.124238       21.990987       13.664621
  H           25.384161       22.552225       14.159949
  O            3.183105       11.802795       11.500247
  C            4.004401       11.233505       10.542882
  C            5.425246       11.839946       10.606804
  F            5.971349       11.614836       11.801866
  F            5.387050       13.166612       10.437032
  F            6.250282       11.335752        9.691707
  C            3.397478       11.397564        9.130300
  F            3.197517       12.688940        8.842743
  F            2.210561       10.794374        9.063475
  F            4.160759       10.879899        8.170235
  H            3.081676       12.756068       11.353934
  H            4.076393       10.161395       10.765231
  O           12.336977       22.590411       23.951215
  C           11.222660       23.303219       24.357869
  C           11.586148       24.780306       24.634905
  F           12.060035       25.355588       23.529664
  F           12.543601       24.870808       25.565183
  F           10.548381       25.505497       25.046534
  C           10.577166       22.651072       25.602337
  F           11.454129       22.571714       26.609790
  F           10.188731       21.406616       25.323907
  F            9.508672       23.311417       26.043430
  H           13.018598       22.580795       24.640943
  H           10.495191       23.274922       23.536876
  O           16.079349       10.732220        3.275329
  C           15.825445       12.081281        3.100021
  C           17.103984       12.916872        3.340401
  F           18.056957       12.563515        2.477814
  F           17.589562       12.705319        4.569133
  F           16.906758       14.225967        3.200141
  C           14.678349       12.549323        4.025097
  F           14.970424       12.308448        5.308450
  F           13.558265       11.881844        3.747681
  F           14.407250       13.847224        3.905692
  H           16.364128       10.543570        4.182929
  H           15.509803       12.225051        2.058992
  O            6.995674        7.119537       27.797753
  C            5.879339        6.494951       27.269686
  C            6.290131        5.368465       26.293501
  F            7.013813        4.446537       26.928645
  F            7.049745        5.848289       25.301996
  F            5.248575        4.747081       25.744554
  C            4.954764        7.519428       26.572359
  F            5.607850        8.170843       25.603102
  F            4.537179        8.435807       27.445829
  F            3.872539        6.963552       26.031905
  H            7.525534        7.538677       27.102056
  H            5.327677        6.044262       28.104306
  O           26.938772       21.551772       22.407099
  C           26.397240       21.293884       23.654257
  C           25.362326       20.147698       23.577659
  F           25.942095       19.028750       23.143034
  F           24.384314       20.443386       22.713723
  F           24.799032       19.872879       24.752169
  C           25.763150       22.570756       24.252743
  F           24.817114       23.059742       23.442661
  F           26.685480       23.522661       24.395077
  F           25.212061       22.369732       25.447812
  H           26.256547       21.839152       21.780674
  H           27.217008       20.975450       24.310475
  O           11.588473        5.657473       18.943249
  C           11.967065        6.919210       18.519159
  C           12.644733        6.852036       17.131026
  F           11.801431        6.351780       16.227887
  F           13.712586        6.046276       17.158658
  F           13.043497        8.041695       16.686058
  C           12.897347        7.591107       19.555396
  F           13.985352        6.844305       19.776430
  F           12.269940        7.722497       20.724230
  F           13.303806        8.803275       19.184262
  H           12.357254        5.074489       19.040866
  H           11.056103        7.524331       18.429607
  O           11.954607       13.303988       21.685414
  C           11.900132       12.173829       22.482244
  C           12.994690       11.160717       22.074560
  F           14.203897       11.703886       22.215485
  F           12.868969       10.812444       20.788782
  F           12.972516       10.046302       22.802493
  C           10.497802       11.525447       22.421165
  F           10.172894       11.206272       21.163037
  F            9.573059       12.380330       22.858315
  F           10.399586       10.422139       23.159653
  H           11.793442       13.085343       20.754476
  H           12.089728       12.489473       23.515909
  O            6.565245        6.371216       14.412924
  C            7.838497        6.394676       14.954630
  C            8.301353        7.848085       15.207659
  F            7.479572        8.452946       16.065501
  F            8.279757        8.560820       14.075463
  F            9.530306        7.924530       15.713752
  C            8.838152        5.648347       14.041207
  F            8.859377        6.185599       12.815959
  F            8.475144        4.373214       13.902149
  F           10.083454        5.657800       14.511775
  H            6.540766        6.820712       13.553983
  H            7.796400        5.872997       15.919058
  O           18.812306        2.494416       10.841704
  C           17.780912        1.698483       11.308482
  C           18.247629        0.841630       12.507914
  F           18.646162        1.625635       13.509704
  F           19.291474        0.075410       12.170839
  F           17.293469        0.044070       12.983073
  C           17.220683        0.805588       10.177314
  F           18.182605        0.036494        9.654318
  F           16.741540        1.558790        9.187272
  F           16.235248        0.006930       10.581496
  H           19.554021        1.956985       10.523190
  H           16.979286        2.364698       11.651405
  O           19.632513       23.387411       21.414866
  C           19.914325       24.507674       22.176940
  C           18.970801       25.675438       21.807148
  F           17.701931       25.334634       22.032753
  F           19.070296       25.977450       20.507450
  F           19.214029       26.784153       22.502770
  C           21.395097       24.922859       22.016957
  F           21.687988       25.164833       20.733997
  F           22.198139       23.938867       22.421877
  F           21.712158       26.008655       22.718968
  H           19.768366       23.561804       20.470644
  H           19.741457       24.243807       23.227908
  O            2.743250        8.652647        7.179923
  C            2.142420        9.384893        6.170971
  C            0.641667        9.605157        6.470775
  F            0.491401       10.278567        7.611395
  F            0.007086        8.436557        6.619114
  F            0.013798       10.291643        5.518505
  C            2.335916        8.694617        4.801030
  F            1.836493        7.453380        4.816168
  F            3.633629        8.589842        4.514610
  F            1.759644        9.353372        3.797908
  H            2.346542        7.771204        7.258061
  H            2.634925       10.364832        6.136326
  O            8.481124       11.711926        5.249202
  C            7.233957       12.302059        5.142055
  C            7.233620       13.707180        5.787264
  F            8.115309       14.497840        5.175255
  F            7.592779       13.642394        7.074560
  F            6.048586       14.310587        5.724850
  C            6.145144       11.404430        5.774042
  F            6.417472       11.155944        7.060283
  F            6.096572       10.227059        5.150733
  F            4.926961       11.937708        5.711228
  H            8.732281       11.587878        6.177619
  H            7.012186       12.413024        4.073156
  O           21.560489       13.934140       18.678309
  C           20.631186       14.125958       17.670952
  C           21.007127       15.348323       16.801957
  F           22.197588       15.162324       16.231622
  F           21.098639       16.455371       17.547875
  F           20.132203       15.585258       15.826935
  C           19.209205       14.282400       18.257599
  F           19.157290       15.304414       19.119640
  F           18.863080       13.185415       18.931318
  F           18.279524       14.486874       17.326909
  H           21.592511       14.696848       19.276368
  H           20.645523       13.232361       17.034305
  O           13.412907       15.332625       15.039843
  C           14.085714       14.134666       14.874346
  C           15.376785       14.339031       14.048495
  F           16.195653       15.186522       14.671623
  F           15.100033       14.869878       12.851861
  F           16.052340       13.209767       13.846783
  C           13.170639       13.076981       14.215105
  F           12.717893       13.507150       13.031763
  F           12.104037       12.845867       14.980626
  F           13.779005       11.909281       14.018466
  H           13.137454       15.701458       14.186313
  H           14.367387       13.773940       15.871631
  O            6.780170       12.724291        1.905264
  C            7.254549       14.023684        1.946596
  C            6.257803       14.994302        1.272017
  F            5.084354       14.965901        1.903908
  F            6.028163       14.638213        0.002848
  F            6.677967       16.257536        1.271026
  C            8.650207       14.120374        1.288229
  F            8.611418       13.694566        0.020354
  F            9.521413       13.345077        1.933976
  F            9.143231       15.356993        1.287730
  H            6.674475       12.417996        0.991242
  H            7.350668       14.306401        3.002472
  O           26.187457        5.497174       19.704243
  C           27.141343        5.507196       20.706823
  C           26.853602        4.402977       21.750166
  F           26.878862        3.202004       21.172152
  F           25.636308        4.555264       22.284327
  F           27.736125        4.382857       22.746684
  C           27.215955        6.896899       21.380483
  F           26.027567        7.248135       21.885152
  F           27.550899        7.827341       20.486522
  F           28.109512        6.952731       22.365743
  H           25.303271        5.678229       20.059010
  H           28.112195        5.297034       20.240648
  O           22.286161        5.320827       25.543440
  C           23.292689        6.263910       25.655954
  C           24.409507        6.002038       24.619228
  F           23.918325        6.072186       23.381935
  F           24.922304        4.775197       24.768308
  F           25.411587        6.874843       24.698891
  C           23.866645        6.286471       27.091476
  F           24.336135        5.082320       27.437777
  F           22.911510        6.599710       27.967075
  F           24.852194        7.167937       27.246431
  H           22.620498        4.427737       25.719604
  H           22.849946        7.245668       25.445784
  O           15.417621       10.803662       25.451818
  C           16.033015       11.906861       26.016979
  C           16.010333       11.818164       27.560442
  F           16.661673       10.730013       27.971246
  F           14.755923       11.719131       28.015383
  F           16.576751       12.867390       28.152552
  C           15.369786       13.215811       25.529704
  F           14.064277       13.228273       25.822645
  F           15.473688       13.322152       24.204951
  F           15.916695       14.307603       26.059970
  H           14.484389       10.751405       25.710219
  H           17.079374       11.906329       25.686564
  O           19.384485        8.448100       11.231732
  C           19.550395        8.331259        9.862795
  C           18.615565        7.242651        9.286874
  F           17.341060        7.556156        9.520167
  F           18.841540        6.060294        9.871075
  F           18.750445        7.079976        7.972475
  C           21.026375        8.033295        9.511572
  F           21.444670        6.914011       10.113699
  F           21.812254        9.022519        9.936899
  F           21.234676        7.894697        8.204017
  H           19.613222        7.621837       11.684936
  H           19.276406        9.294286        9.413850
  O           21.417289       24.042823       16.241583
  C           21.960229       22.931625       16.862567
  C           21.293259       22.689004       18.236228
  F           19.985965       22.476412       18.085025
  F           21.427236       23.758878       19.028530
  F           21.794461       21.638390       18.882221
  C           23.492171       23.078881       17.011323
  F           23.801563       24.179858       17.705908
  F           24.064165       23.199495       15.813262
  F           24.060341       22.040142       17.620013
  H           21.566501       24.845487       16.764929
  H           21.757449       22.063852       16.222338
  O           22.742649       19.384094        8.743439
  C           21.954821       18.247846        8.684844
  C           20.560202       18.513938        9.297127
  F           19.936038       19.480806        8.624327
  F           20.665536       18.924719       10.566177
  F           19.768988       17.443432        9.279817
  C           22.649707       17.060356        9.390296
  F           22.921730       17.355180       10.666778
  F           23.811326       16.784928        8.797121
  F           21.922129       15.945583        9.375825
  H           22.893545       19.659809        9.660847
  H           21.823710       17.991508        7.626004
  O           15.335293       19.581101       21.740819
  C           16.237294       20.300189       22.505326
  C           15.501295       21.291745       23.435800
  F           14.692601       20.633784       24.266569
  F           14.737258       22.133063       22.729575
  F           16.328635       22.021083       24.181369
  C           17.254159       21.039305       21.605130
  F           16.629954       21.860485       20.752864
  F           17.943542       20.165599       20.871329
  F           18.134882       21.760957       22.294946
  H           14.818335       20.165783       21.165209
  H           16.785877       19.583524       23.129417
  O           20.781050       23.432565       26.552504
  C           21.199396       24.523241       25.810495
  C           22.540665       25.072436       26.349049
  F           23.487694       24.137312       26.273193
  F           22.433278       25.417818       27.637266
  F           22.977475       26.135580       25.677318
  C           20.116646       25.626936       25.797440
  F           19.815885       26.016551       27.041653
  F           18.992002       25.165713       25.250152
  F           20.479633       26.706967       25.108911
  H           20.626136       23.676279       27.478263
  H           21.355598       24.180758       24.779793
  O           15.877915       26.254296       21.238647
  C           14.596969       25.908239       20.845472
  C           14.607817       24.591839       20.034528
  F           15.092474       23.595459       20.775750
  F           15.396183       24.699334       18.958773
  F           13.397888       24.224783       19.617824
  C           13.943655       27.050802       20.034059
  F           14.679039       27.354459       18.958268
  F           13.860687       28.155960       20.774881
  F           12.713499       26.758634       19.617340
  H           16.450896       26.408910       20.471697
  H           14.004492       25.748386       21.755120
  O            7.286621       15.272895       15.277570
  C            7.338111       15.269308       13.894638
  C            6.618916       16.509116       13.314729
  F            7.204675       17.627026       13.743959
  F            5.344058       16.554815       13.718427
  F            6.626230       16.542578       11.983892
  C            6.734134       13.964668       13.325618
  F            5.468468       13.807386       13.730186
  F            7.418365       12.907979       13.764153
  F            6.744956       13.920639       11.995112
  H            6.371152       15.232800       15.594955
  H            8.395100       15.315926       13.603704
  O            8.057999        4.668611        9.095959
  C            9.247718        4.006579        9.343843
  C            9.062614        2.476944        9.214955
  F            8.666640        2.160800        7.981938
  F            8.118307        2.037065       10.054666
  F           10.177796        1.792982        9.461660
  C            9.804148        4.379570       10.737372
  F            8.918995        4.091472       11.698532
  F           10.041923        5.689493       10.805479
  F           10.941913        3.753551       11.030443
  H            7.376720        4.419227        9.739458
  H            9.970618        4.331914        8.585151
  O            8.694107        8.944746        6.495820
  C            9.867703        8.833031        7.220635
  C           11.064108        8.536919        6.287045
  F           11.219057        9.524856        5.405543
  F           10.858116        7.415571        5.586709
  F           12.216261        8.403238        6.940475
  C            9.737792        7.746212        8.312700
  F            9.425993        6.561787        7.773959
  F            8.759214        8.058377        9.162414
  F           10.849553        7.588449        9.027821
  H            8.485284        8.116899        6.035943
  H           10.044535        9.797609        7.712936
  O           20.663422       12.731435       11.195399
  C           20.405379       13.360185       12.400907
  C           19.281504       14.410319       12.243477
  F           18.154861       13.825221       11.836771
  F           19.605149       15.322279       11.319407
  F           19.007646       15.056259       13.374876
  C           21.689531       14.007279       12.969135
  F           22.205273       14.887086       12.102952
  F           22.620893       13.077726       13.182609
  F           21.489009       14.640946       14.122632
  H           20.970500       13.364376       10.527930
  H           20.064149       12.592648       13.106946
  O            7.657575       18.203934        3.765913
  C            8.814770       18.954736        3.654726
  C            8.582006       20.193860        2.759713
  F            7.636467       20.973172        3.284787
  F            8.160405       19.832163        1.542441
  F            9.673308       20.940985        2.607508
  C            9.978752       18.093353        3.112672
  F            9.668574       17.564090        1.923557
  F           10.226936       17.077480        3.939401
  F           11.112592       18.776507        2.971215
  H            7.372037       17.868870        2.901838
  H            9.081320       19.301106        4.661215
  O           19.912580        4.892751        8.345781
  C           19.642004        4.021819        7.304902
  C           20.603623        2.811482        7.337022
  F           20.464619        2.139972        8.480187
  F           21.878623        3.211782        7.270228
  F           20.394174        1.951118        6.342938
  C           19.718609        4.751447        5.943860
  F           20.923007        5.306506        5.765929
  F           18.823231        5.737914        5.896367
  F           19.482208        3.950163        4.907347
  H           20.810236        5.253293        8.277593
  H           18.617758        3.652599        7.441425
  O           18.257149       10.495025       15.192888
  C           18.093755        9.770497       16.360589
  C           16.716631       10.062234       17.000182
  F           15.736150        9.719678       16.164488
  F           16.575148       11.367925       17.256068
  F           16.518149        9.400288       18.138045
  C           19.238676       10.067529       17.356373
  F           19.298387       11.373643       17.640672
  F           20.413646        9.729497       16.825095
  F           19.117002        9.405746       18.505084
  H           18.230837       11.449021       15.365004
  H           18.133254        8.706138       16.096733
  O            6.869004       16.278755        9.626214
  C            8.135361       16.834590        9.575689
  C            8.141976       18.108013        8.698757
  F            7.312896       19.021874        9.203294
  F            7.718657       17.836940        7.458739
  F            9.344464       18.671451        8.604632
  C            9.167383       15.804751        9.060887
  F            8.825863       15.349937        7.849759
  F            9.214662       14.750145        9.874917
  F           10.401100       16.298043        8.977789
  H            6.569480       16.006839        8.744868
  H            8.412066       17.118640       10.598818
  O           20.707657       20.522903        5.177699
  C           21.817289       20.577488        4.352531
  C           21.673078       19.589876        3.171648
  F           20.602166       19.896852        2.439536
  F           21.500444       18.338603        3.613052
  F           22.725623       19.592708        2.356515
  C           23.110788       20.296835        5.151752
  F           23.052845       19.101959        5.751117
  F           23.268608       21.208010        6.111922
  F           24.207118       20.321196        4.396923
  H           20.603441       19.641346        5.568110
  H           21.876555       21.595046        3.946199
  O            9.820918        4.570370       25.982007
  C           10.968444        5.335747       26.094020
  C           12.058147        4.579328       26.888398
  F           12.380850        3.445084       26.266766
  F           11.617285        4.246546       28.107095
  F           13.178447        5.282679       27.038482
  C           10.656424        6.701403       26.748456
  F           10.103741        6.537907       27.955989
  F            9.781155        7.380778       26.007222
  F           11.734035        7.469381       26.894280
  H            9.441342        4.377094       26.853209
  H           11.344399        5.517161       25.079235
  O           20.024592        6.553407        3.476616
  C           18.916600        7.188683        2.943753
  C           18.031316        6.188496        2.164934
  F           17.599611        5.223025        2.976458
  F           18.725783        5.596513        1.186367
  F           16.958880        6.756261        1.617373
  C           19.341627        8.369119        2.040104
  F           20.140623        7.951092        1.051579
  F           20.029769        9.267305        2.744942
  F           18.309097        9.003294        1.488739
  H           20.583362        6.177697        2.778732
  H           18.331005        7.588498        3.781170
  O            5.127908       12.243103       24.195453
  C            5.842905       13.107664       25.005686
  C            5.116888       14.466661       25.134859
  F            3.911479       14.297738       25.678485
  F            4.930148       15.025191       23.933403
  F            5.775410       15.340987       25.892621
  C            7.281034       13.298997       24.471049
  F            7.266935       13.764376       23.216638
  F            7.925200       12.132136       24.447355
  F            8.005465       14.137762       25.208593
  H            5.041942       12.595138       23.295950
  H            5.902874       12.652287       26.002218
  O           20.062088       13.718258       22.171734
  C           19.231356       12.971412       22.988600
  C           20.054843       12.020532       23.887686
  F           20.877963       12.719597       24.669259
  F           20.815003       11.203373       23.149625
  F           19.298043       11.266270       24.681816
  C           18.200243       12.182079       22.149304
  F           18.812454       11.377809       21.272565
  F           17.438339       13.019209       21.445180
  F           17.386963       11.432735       22.890491
  H           20.571971       13.148890       21.574854
  H           18.687022       13.671883       23.634419
  O           23.813807        3.038445       17.149314
  C           24.768028        3.904563       17.653763
  C           24.938198        5.132965       16.730330
  F           23.788867        5.801168       16.632257
  F           25.279784        4.757033       15.492462
  F           25.859931        5.989658       17.164823
  C           26.116951        3.177169       17.858610
  F           26.552570        2.645215       16.710749
  F           25.975036        2.173864       18.724816
  F           27.074584        3.974299       18.327463
  H           24.075323        2.695084       16.280904
  H           24.412483        4.254160       18.631215
  O           23.804254        0.397484        4.874050
  C           23.852801        1.388031        5.839257
  C           23.905778        2.788849        5.186907
  F           22.819021        2.994384        4.442736
  F           24.963396        2.898440        4.374653
  F           23.971009        3.777340        6.076250
  C           25.056460        1.174335        6.785934
  F           26.205872        1.155129        6.101239
  F           24.953126        0.000035        7.408363
  F           25.156736        2.113657        7.723974
  H           24.597765        0.411079        4.316754
  H           22.931467        1.317495        6.431043
  O           25.817535       17.438287        1.468518
  C           25.386291       17.263903        2.771892
  C           26.402250       16.423055        3.579023
  F           27.584827       17.037170        3.617097
  F           26.598429       15.230195        3.005505
  F           26.023287       16.212482        4.837731
  C           23.983413       16.614643        2.804342
  F           23.986632       15.437068        2.169023
  F           23.098744       17.392499        2.180341
  F           23.530784       16.409904        4.039457
  H           25.897557       16.588362        1.008466
  H           25.317507       18.257508        3.232393
  O           11.069655        1.501387       12.330046
  C           12.389145        1.091921       12.249735
  C           12.998826        0.922605       13.660508
  F           12.324704        0.001125       14.348628
  F           12.922267        2.063906       14.354693
  F           14.275311        0.545376       13.636315
  C           13.221653        2.083204       11.404190
  F           13.162868        3.317091       11.918380
  F           12.737971        2.153622       10.163961
  F           14.504924        1.741322       11.311283
  H           10.995707        2.364186       12.766549
  H           12.401761        0.115710       11.748840
