192
Lattice="15.122244263204388 0.0 0.0 0.0 15.122244263204388 0.0 0.0 0.0 15.122244263204388" Properties=species:S:1:pos:R:3:momenta:R:3 Built=T with=T Packmol=T charge=0 spin=1 external_field="_JSON [0.0, 0.0, 0.0]" pbc="T T T"
O       12.72615988       6.14854581       6.93264411      -0.10113407       1.41728851       0.58730523
C       12.65573673       4.76838738       7.10670422      -0.28224193      -0.82184358       0.19902256
C       11.24302664       4.29779196       7.40703467      -0.57177952       0.71271978       0.02579548
F       10.39604313       4.76111818       6.45801148      -0.13797974      -0.89164225       1.21582881
F       10.70924434       4.70405155       8.63384138       0.50345700      -0.69089514      -0.48230681
F       11.16223413       2.99145092       7.43488052      -0.86060552       0.62124193      -0.74834431
C       13.80103843       4.34814837       8.03387032       0.31734163       0.46958865       0.03002510
F       13.87811384       5.13520421       9.08785537      -0.96979293      -0.03730728      -0.38569617
F       14.98663265       4.48313670       7.40616850      -1.22824125       0.55060406       0.57891300
F       13.70981632       3.00954557       8.36373096      -0.08930183      -0.53843371      -0.18829820
H       12.60281801       6.59381086       7.80086734      -0.02907099       0.00762481       0.04864867
H       12.76019992       4.28016216       6.10506856      -0.26305471      -0.19035295      -0.21301989
O        3.66056526       8.88311886       1.99995874       0.86548956      -0.57288108      -0.00636308
C        3.55220989      10.30409700       2.08352501      -0.08117245      -0.01167870       0.05217616
C        2.13646426      10.68459771       1.85286609       0.64402688      -0.15051096       0.22534314
F        1.32977740       9.95504714       2.67446126      -0.07150878       0.63217858       0.88662693
F        1.67423304      10.56907264       0.59442872      -0.52398084      -1.01821483      -0.72208889
F        1.89894545      11.95397401       2.21222332       0.29288871      -0.33626178       0.18252599
C        4.60289509      10.96417996       1.15234897      -0.08553343       0.26326565      -0.59920227
F        4.66362648      10.44928698      -0.11012275       0.74546343      -0.29029267      -0.76625515
F        5.82820086      10.75035238       1.71268728      -0.44167658      -0.42404965       0.22666004
F        4.33132571      12.26892976       0.99748511       0.08379026      -0.48819852       0.09123116
H        3.50994135       8.57436717       1.05574519       0.19190226       0.15050350      -0.05452057
H        3.81830832      10.76112426       3.03941015      -0.38714735      -0.13353407       0.07269820
O        7.54163994      12.91605923      13.96174874      -0.05877468       0.50607508       0.26633249
C        8.04225938      13.37816911      12.73998266      -0.62821410      -0.26787426      -0.69767131
C        9.40399616      14.02947664      12.86904953      -0.71840933       0.07366682      -0.40011236
F       10.21544148      13.35603002      13.70525616       0.04738803       0.61351640      -0.20616798
F        9.34360001      15.27845337      13.32584709       0.29801757       1.89002728       1.34724049
F       10.01280985      13.99582663      11.66387999       0.56821359       0.16980122      -0.53767073
C        6.93170741      14.29612174      12.18289755       0.20480048      -0.18940192       0.01698323
F        6.61267994      15.22024536      13.09339788       0.86152974      -0.97998527       0.20265466
F        5.84585880      13.55284496      11.98009746       0.12766406       1.10031449       0.06502671
F        7.25802638      14.91992872      11.07663658      -0.70071511       0.44840022      -0.09071689
H        8.25799403      12.52416345      14.54658002      -0.14034768      -0.22838642      -0.30937058
H        8.07717875      12.49828339      12.06833544       0.15484993       0.09269722       0.23111058
O       13.26529057       9.31607192       1.71263504       0.73139029      -0.43127260      -0.48302585
C       12.71292527       9.15407037       2.95893598      -0.65814819      -0.60979176      -0.28056787
C       13.53693637       9.80649767       4.12836827      -1.70208937      -0.17437439       0.36224197
F       13.97333674      10.97010139       3.75801932       0.94058273       0.42730131       0.38558713
F       14.57943622       8.99621668       4.60557314       0.77136486       0.86732537      -0.71651010
F       12.63139881       9.85636739       5.15342222      -0.62968952       1.08306357       0.81055272
C       12.35688833       7.67027584       3.15748597      -0.08966968       0.61944040      -0.67776282
F       13.40731734       6.97360330       3.53967820      -0.72377280       1.24063127      -0.20394944
F       11.99717968       7.17881883       1.92048756       0.02324499      -0.62936065      -0.13591111
F       11.35519916       7.48155827       4.01532126      -0.07666158       1.53844388       0.55799561
H       14.23684585       9.33723285       1.72400228       0.12497653       0.27807343       0.06595755
H       11.72689442       9.64038428       2.90151417      -0.10802528       0.15478085       0.03974927
O       10.82000791       5.00752939       0.91817702      -0.14404958      -0.51867173      -0.52994233
C       10.66450269       3.86527798       1.74238723      -0.34685470      -0.20320832       0.29232991
C        9.47663106       4.24556571       2.70077406      -0.47699801      -0.98131984       0.04729618
F        8.45255217       4.68363593       1.93570249      -1.12680872      -0.83702764      -0.76795423
F        9.75502256       5.29734299       3.43484434       0.72087520      -0.91120364      -0.22682940
F        9.03122565       3.21534854       3.49471687      -0.88186629      -0.26590507      -0.84153399
C       11.91173857       3.37223143       2.37669234       1.37461151       0.11116229      -0.01973024
F       12.67621109       4.34243113       2.95027530       0.26935377       0.43472994       0.08940697
F       12.74967943       2.80788916       1.50494422       0.23036294      -0.43759830      -0.54093816
F       11.67093639       2.49799198       3.34724307      -0.96526370      -0.34484487      -0.55682379
H       11.48840753       5.58187458       1.30303256      -0.32383777       0.26579693       0.11305537
H       10.20296903       3.05939936       1.18057851      -0.00646029       0.14896424      -0.17321058
O       10.29144664       7.65126323      13.29965655       1.30529415      -1.29956101       0.30619567
C        9.71076356       8.92933506      13.30222942       0.53399114      -0.51076188      -0.22519157
C        9.54388734       9.46414722      14.69357086      -1.17511583       0.03569714       0.13911741
F       10.73012684       9.44150742      15.27556087      -0.19096547       0.69871970      -0.47357209
F        8.57191283       8.80912879      15.39703305      -0.47601228       0.17806642      -0.25408841
F        9.18524308      10.78236686      14.73155596       0.05025282      -0.97307410       0.11605895
C        8.35099103       8.86672793      12.54872023      -0.87510626      -0.60851154      -0.11537070
F        7.58559886       7.96813211      13.10445119      -0.32653435       0.06969604      -0.73025851
F        8.62963646       8.50765692      11.23682020      -0.49840961       0.21460350      -0.62396474
F        7.68516047      10.09876083      12.47070002      -0.92299260       0.23685999       0.55908921
H        9.70271060       7.02462145      13.72687036      -0.00367003       0.02545649       0.03140286
H       10.31295254       9.60189269      12.63767192      -0.09699648      -0.21512321      -0.12739803
O        4.80819456       1.69349548      11.92291126      -0.13671819      -1.04494437       0.13812215
C        3.40484854       1.50173599      11.84590059      -0.05042525       0.20536606       0.72745845
C        3.04435080       1.48084261      10.39040010      -0.37086146      -0.22620726      -0.11510416
F        3.93221390       0.63500621       9.69130560      -0.59873825       0.31652740       0.67143614
F        3.04667374       2.70310100       9.77325043      -1.08200489      -0.48417295       0.94004295
F        1.78557331       1.01587074      10.20139910       0.14730810       0.50060086      -0.85687377
C        2.67545036       2.60679828      12.65608286      -0.37633126       0.22637477       0.04886358
F        2.50091242       3.72839356      11.96358171      -1.55698327       0.06502825       1.26942505
F        3.48318609       2.95743107      13.65555741       0.87781922      -0.73097299       0.88681234
F        1.44640987       2.23000103      13.09016929      -0.08840583      -0.84538914      -1.83165144
H        5.14628601       1.73880087      12.81357744      -0.20666391       0.11082215       0.11145184
H        3.15425196       0.50495995      12.22701252      -0.08328720       0.10760756      -0.12243471
O        2.76927225       6.40874390      11.69267391       0.95170859       0.02101902       0.46998614
C        2.29999879       7.56096501      12.32001827       0.34822902      -0.52792717      -0.12652669
C        3.43760652       8.55110846      12.36905754      -0.25981885       0.41966354      -0.70996554
F        3.86632715       8.76291163      11.16058731       0.28324560       0.40228841       0.61725091
F        4.50198082       8.09389952      13.02386536       0.36093236      -0.07041517      -0.14596351
F        3.07737069       9.76936751      12.84032761      -1.16483767      -0.81774056      -1.48353450
C        1.78178073       7.34315793      13.77630375       0.99179728       0.78003784       0.09725442
F        2.60092222       6.54811527      14.47525043      -0.00888587       0.59593497       0.61298720
F        0.59483863       6.80864803      13.71515561      -0.23692770      -0.17666493      -0.25309422
F        1.64922595       8.45636034      14.44488514       0.89317634       0.31254866      -0.63115506
H        2.95895999       5.66048925      12.32126707      -0.16308465       0.19951476      -0.01814442
H        1.41550021       8.01655445      11.81090348      -0.26115796       0.01312083       0.45774493
O        4.03877278      15.26117995       6.60519217       0.10391781       0.36619865      -0.90889457
C        4.90127534      14.16325795       6.58973984       0.05807999      -1.16739049       0.75677952
C        6.37503862      14.75039966       6.89595493       0.35311234      -0.54455981       0.40688739
F        6.46533734      15.07077518       8.22054340      -0.95362591       0.30940445       0.90538729
F        6.50926284      15.83613177       6.11594186      -0.34876825      -0.31399024      -0.39352256
F        7.41511866      13.88355351       6.70108142      -0.98016145      -0.38292415      -0.00897759
C        4.80862374      13.30708187       5.33675659       0.09255937       0.39324604       0.45655596
F        5.34942819      13.97544907       4.32706818      -0.90962584       0.50864817       0.12903569
F        3.55882906      12.96261539       5.07881120      -0.72154975       0.40009218      -0.77078212
F        5.49536179      12.14743808       5.57306013       0.60505912      -0.78213617      -0.67754140
H        3.36035737      15.13071963       7.28398656       0.21886292      -0.04748765       0.21839827
H        4.76450546      13.47414267       7.43327396       0.17852501       0.21010098       0.04497956
O       13.03477915      14.72683933       8.28761733      -0.21825445       0.72471548      -0.05840719
C       12.09601591      13.75274600       7.88896299      -0.80002349      -0.46045633       0.82507886
C       12.56609794      12.75743376       6.84625938      -1.08906944      -0.49121867       0.82742058
F       13.54560806      11.95401659       7.27101323       0.23077474      -1.04478838      -0.86191133
F       13.04439226      13.36800487       5.80764077       0.99913669       0.46695489       1.12359947
F       11.53393065      12.03234609       6.49410623       0.16952267       0.64565520      -0.18941873
C       10.72858537      14.38240616       7.39198970      -1.08932161      -0.75817582       0.15965186
F       10.68618213      14.38798795       6.03766149      -0.99306305      -0.20968067      -0.62932547
F       10.61454070      15.60880148       7.85793341      -0.65090584       0.00806743      -0.05299574
F        9.66369164      13.67878705       7.83501529      -0.85905751       0.22498203       0.53413499
H       12.87435169      15.52802605       7.72644673       0.10719557      -0.12796937       0.17006326
H       11.88649296      13.11964939       8.75921846      -0.04253076       0.09731283       0.05252412
O       14.56235352       7.73998762      10.88267170      -0.04400015       0.33009348       0.23837563
C       13.30820041       8.15850554      11.40240682       1.17597268      -0.19738011       0.09437931
C       12.29180079       7.81409962      10.29666223      -0.16252498       0.19885048       0.39239858
F       12.18473308       6.47933403      10.26772437       0.22181563       0.45255921      -0.60709779
F       12.77390627       8.22513909       9.12604699       0.57896300      -0.57696080       0.53320589
F       11.09177034       8.38119620      10.40872447      -0.26669737      -0.45091781      -0.22920309
C       13.55318727       9.54940422      11.99604543       0.37890516      -0.22494682      -0.21362206
F       13.84141280      10.46616562      11.05492981       0.82460678       0.58655445      -0.99035655
F       14.59273244       9.48713856      12.77254337      -0.63925732      -0.31960084       1.67289721
F       12.52240849       9.94811692      12.72627702       0.79046170      -0.44095985       0.05002900
H       14.57253005       6.80641651      10.65076283       0.14502057      -0.18096250      -0.09963301
H       13.06206513       7.50717932      12.26959773      -0.06681758      -0.14301739      -0.21686808
O        1.70107019      13.60962254       8.43849982       0.05363876      -0.36517136       1.61122794
C        1.92603928      12.62266248       9.39706866       0.21868016       0.33917540      -0.25684410
C        2.10135294      11.23944540       8.70632880       0.41905280       1.05241624      -0.11280872
F        3.06128876      11.44677734       7.78041891      -0.38618537       0.28018663      -1.20526405
F        1.02871966      10.77661535       8.00300152      -0.82154541      -0.08688464      -1.08115359
F        2.53536054      10.29194030       9.50104591       1.21338974      -0.49347347       0.80995944
C        0.90322630      12.70740481      10.51146076       0.00210784      -0.06676212      -0.38325251
F       -0.32027212      12.79988516       9.96518622       0.65640674      -0.06580765      -1.41231289
F        1.07916541      13.80498382      11.24344579      -0.78398193       0.85712974      -0.39628150
F        1.01566315      11.65467400      11.33444413       0.53708671      -1.07648289       0.70973724
H        0.76794971      13.48771811       8.11473507       0.05261823       0.15382113      -0.22344730
H        2.90878463      12.74102740       9.85532812      -0.03201046       0.06985989      -0.24771837
O        8.62578921      13.07368705       4.44900389       0.18009469      -0.32472102      -0.05605034
C        9.36780648      13.62788480       3.44914954      -0.65354126       0.51071159      -0.16297712
C        8.44657855      14.28099844       2.41719826      -0.08650524      -0.27423166       0.38761449
F        7.63211753      15.20138939       3.00240146       0.19602332       0.96294915       1.41995199
F        7.57719854      13.38037053       1.84126767       0.06690721      -1.30416130      -0.11848879
F        9.05039450      14.98527408       1.40042383       0.02523284       0.33109648       0.32980108
C       10.26159608      12.58367565       2.69957152       0.36197821       0.06854294       0.21420478
F        9.62777095      11.47740522       2.42683572      -0.43358186       0.78086420      -0.11031911
F       11.21879595      12.26458943       3.52088237      -0.50469860      -1.10223624       0.81285508
F       10.75469526      13.05347583       1.53144127       0.37732217      -0.01416839       1.77319742
H        8.76509175      13.50689625       5.30569542      -0.02294123      -0.06753328      -0.11465715
H       10.07238530      14.42536264       3.77422063       0.06921285      -0.12172373       0.01188914
O        7.24344119       4.65361495       9.10145624       0.71341989      -0.20106474       0.10212616
C        6.78874781       4.35452067      10.36735372       0.22359151      -0.94524504       0.33416506
C        5.85963046       5.44233914      10.86968216       0.00748907      -0.07256711       0.14602797
F        4.74117632       5.46121127      10.14351060       0.07603003      -1.21095143      -0.17793649
F        6.45728562       6.61670556      10.72348474      -0.22275327       1.23507197       0.27719678
F        5.47594858       5.39884268      12.15749134      -0.49683019       1.20184534      -0.08852542
C        8.00758331       4.31518916      11.34938437       0.56504997       0.34966017      -0.79940783
F        8.73229242       5.50868972      11.34439337      -0.74984384      -0.08884395       0.95074532
F        8.93106828       3.45095448      10.87512880       0.17425067       0.04258297       0.44480411
F        7.75525410       4.05913918      12.61395445      -0.00995582       0.88300288       0.63582299
H        7.63798649       5.51805110       9.12422292       0.29254139      -0.07788844       0.03952241
H        6.24037927       3.44260698      10.53497314      -0.25844997       0.00272826      -0.19135687
O       12.15653601       3.64938436      10.95296212       0.37604689      -0.14342841      -0.02667173
C       12.53668468       3.16878487      12.20719634       0.01022575       1.51024248       0.67152540
C       13.24934611       4.23805570      12.99465773       0.27395483       0.62079127      -0.69361283
F       12.52231790       5.36371979      13.14086173      -0.89091634      -0.96431008      -0.50211228
F       14.46006924       4.64872716      12.59852274      -1.35306037      -0.05657168       0.12643077
F       13.43604773       3.81398912      14.24868710       1.34116751       0.09387586       0.31181669
C       13.29737828       1.85436619      11.95957885       0.09924340      -0.40495891       0.71432240
F       14.43947436       2.12476984      11.38930844      -1.35419065       0.19220343      -0.80686286
F       12.57057973       1.04995799      11.21093764       0.80761735       0.23454156       0.36905349
F       13.49241183       1.18457264      13.04521145      -0.24010911      -0.30715867      -0.40770674
H       11.32545305       4.18616507      11.08723693      -0.02089421      -0.14003115       0.04004655
H       11.66822071       2.94526405      12.76889106      -0.21792491      -0.13382742      -0.02865801
O        7.98058644       8.05921105       7.78972729      -0.34824778       0.25872491       0.14183509
C        8.37084313       8.15987857       6.45175958      -0.40853324      -0.26394083       0.50016932
C        8.32425673       9.55464272       5.97312343      -0.07276408       0.54482103       0.20059432
F        9.08611583      10.42546115       6.65150835       0.99744756      -1.15115411       0.87992480
F        7.09754572      10.04741321       6.03187975       0.42276405      -0.57415274      -0.25881400
F        8.72117345       9.52714010       4.67706114      -0.56970591      -0.89165023       0.42502606
C        7.40926950       7.12399814       5.76406452      -0.37834453      -0.22939951       0.23504711
F        6.13386612       7.30008161       6.09360858      -0.66622366       0.28957082       0.42481470
F        7.79598895       5.93808323       6.21949949       0.32069524      -0.36425070       0.49850330
F        7.46862996       7.01116101       4.43634112      -0.45191472       0.03830517       0.03117756
H        7.04917347       8.28838752       7.78482712      -0.03667875       0.09576666       0.04711723
H        9.37264793       7.74200959       6.43554270       0.17717496      -0.11683670       0.20053610
192
Lattice="15.122244263204388 0.0 0.0 0.0 15.122244263204388 0.0 0.0 0.0 15.122244263204388" Properties=species:S:1:pos:R:3:momenta:R:3 Built=T with=T Packmol=T charge=0 spin=1 external_field="_JSON [0.0, 0.0, 0.0]" pbc="T T T"
O       12.71402367       6.08827827       6.89820484      -0.66378085       0.22087596      -0.14417939
C       12.63243187       4.65445250       7.06685121      -0.26065208       0.94436712       0.05708439
C       11.18716019       4.26076258       7.37686424       0.75645196      -0.53994566      -0.56711675
F       10.38132974       4.68781696       6.40528912      -0.83431066       0.39941183       0.36396120
F       10.66786550       4.65434498       8.56624872       0.19108711      -0.60092838       1.26374167
F       11.14483843       2.91038669       7.37745229      -0.60602664       0.77811060       0.67190431
C       13.79515911       4.27370291       8.00209997      -0.68989650       0.74575373       0.17803736
F       13.84455545       5.07423663       9.02663913       0.02562698      -0.07508215       0.45350350
F       14.97460880       4.40568463       7.36798446      -0.73784067       0.60764796      -0.13727960
F       13.66986363       2.94316702       8.31316177       0.23367441      -0.18100704       0.24757232
H       12.52980262       6.41099347       7.78043562       0.08568683       0.12205748      -0.11866183
H       12.78922992       4.13097749       6.14217633      -0.26069092       0.10027078      -0.13144594
O        3.66507045       8.89794102       1.97814473      -0.29306012      -0.86176842       0.24184771
C        3.58817225      10.31568472       2.04107212      -1.02290387      -0.01979491       0.91738874
C        2.13742752      10.71823528       1.88273734       0.38811228      -0.93055382      -0.61081613
F        1.33757279       9.96768812       2.67392882      -0.42602625      -0.47148349       0.12557973
F        1.68136172      10.54901985       0.59925676      -0.39722155       0.81805456      -0.37885466
F        1.89554251      11.96304042       2.22380783       0.07827722      -0.53844978      -0.48429295
C        4.60366877      10.96668289       1.13822959      -0.13631659      -0.05453092       0.51472062
F        4.61557500      10.45550638      -0.10396483       1.97081393      -0.24898078      -0.42350993
F        5.84365540      10.74917018       1.67843419      -0.35530769      -0.12463653       1.53899961
F        4.31730676      12.27711606       1.00520060       0.40285751      -0.25676569      -0.40320128
H        3.49961596       8.59011920       1.09780871       0.08701343       0.03587635       0.29787356
H        3.82285732      10.66414432       3.07724410      -0.00080293       0.42823404       0.08129417
O        7.52103862      12.89244250      13.98381693       0.74981713       0.57160268      -0.54412020
C        8.08042170      13.37522881      12.76037078      -0.44787151       0.49602200      -0.47713920
C        9.42092064      14.01193395      12.87401248      -0.67642582       0.30748578       0.06050284
F       10.21667229      13.35559977      13.71124651      -0.01831975       0.06448401      -0.27188041
F        9.35873645      15.28773999      13.29867992      -0.65419698      -0.35443251       1.17390916
F       10.02551510      13.97868322      11.63358239      -0.42418921       0.60403570       1.03447663
C        6.92439766      14.29232469      12.20493609      -0.08938929       0.25196637      -0.57902785
F        6.62987766      15.21991153      13.07087332      -0.62269356      -0.16979146       0.65876060
F        5.82378367      13.56390103      11.98113767       0.89301098      -0.43185352       0.01059796
F        7.26617404      14.93538304      11.07622605      -0.36442565      -0.56571903       0.11787705
H        8.20853941      12.59052054      14.52864402      -0.03576856      -0.06046397      -0.07663957
H        8.19824596      12.54307945      12.04864565      -0.30118857      -0.27337643      -0.02511906
O       13.27854848       9.28932075       1.69713234      -0.43119410       0.79533088       0.66948666
C       12.70789491       9.16438766       2.94407850       0.33648739      -0.23282077       0.18366670
C       13.51217667       9.80412050       4.15602023       0.83720601       0.87818488      -0.56287981
F       13.97041334      10.95881291       3.74638408       0.03061743       0.25566214       0.31974602
F       14.57561361       9.00709390       4.58879429       0.49098799      -0.84277795       0.85019064
F       12.61939039       9.86538975       5.15220946       0.29033201      -0.53624837       0.02717220
C       12.34541512       7.69080127       3.18055483      -0.09654408      -0.36006811      -0.33200767
F       13.41404950       6.95274517       3.55154428      -0.20688997       0.87829446      -0.52426135
F       12.00857475       7.15548297       1.92744726      -0.39862060       0.81517150      -0.56303055
F       11.36902683       7.48266854       4.02670296      -0.49632869      -0.05167077      -0.47472401
H       14.23544059       9.34736940       1.67662037      -0.06509736      -0.00826112       0.00590668
H       11.67099349       9.56927481       2.99952764      -0.13786522       0.04507083      -0.16434590
O       10.39537570       4.83715612       0.84244966       0.37533510       1.01621717       0.04465201
C       10.43533878       3.79263193       1.80527940       0.67262770       0.23138187       0.18650813
C        9.36259042       4.25095088       2.84932189       0.09604795       0.21401840       0.45036254
F        8.24936523       4.54747241       2.20240985      -0.95754408       0.81894013       0.57204484
F        9.69068692       5.42644151       3.44306373      -0.33399994      -0.63974453      -0.71752156
F        9.07516328       3.32039741       3.79781863       0.52610520      -0.48624344       1.63485007
C       11.77160544       3.45214989       2.30632028      -0.44143645       0.14092264      -0.29075317
F       12.55487546       4.47188103       2.66312182       0.57309932       1.66540213      -0.57221822
F       12.52199115       2.82677662       1.38900650       0.08593360       0.00645027       0.03322884
F       11.73970478       2.68721560       3.36831776      -0.41970546       0.54385930       0.60005896
H       11.00746950       5.58144716       1.03762159       0.10646931      -0.20544824      -0.05951249
H        9.97710706       2.90716100       1.32605272      -0.22521202       0.00419734       0.12700787
O       10.28716628       7.65737892      13.29191204       0.27643267      -0.42029567       0.20971064
C        9.65341093       8.95278849      13.28943330       1.56074820      -0.32202222       0.51599236
C        9.48483193       9.48230617      14.70152848       1.34952879      -0.65003171      -0.31934223
F       10.71047901       9.44123297      15.27335375       0.91311852       0.17956652      -0.04631472
F        8.56253884       8.80019163      15.40105676       0.13759444       0.28840099      -0.12823905
F        9.18205436      10.78151995      14.71920546       0.24920161       0.06457725       0.56274769
C        8.35419284       8.85905516      12.53998204      -0.10912977      -0.10719781       0.60738756
F        7.58295581       7.93607894      13.10932898       0.26465037       1.27336953      -0.08977403
F        8.62667222       8.52976743      11.24149756       0.29634302      -0.93742465      -0.53768987
F        7.70943625      10.10615195      12.46136813      -1.16577408       0.18670349       0.27192905
H        9.69168141       7.05192646      13.77961967      -0.01550739      -0.03990063      -0.10291483
H       10.28163279       9.58282232      12.72209889      -0.03907806      -0.05962244      -0.23628473
O        4.79275113       1.70184332      11.88216897       0.45084248      -0.39819603       1.30203810
C        3.42056698       1.51472402      11.84260617      -0.45754299      -0.37155274       0.05395495
C        3.04837544       1.49173839      10.35146932       0.03793606      -0.23546632       1.29730625
F        3.90510900       0.62361487       9.69296974       1.40565258       0.14329843      -0.25390194
F        3.02891687       2.69455312       9.78341792       0.48907888       0.52491972      -0.41816768
F        1.78958691       1.04534782      10.19140597      -0.32156504      -1.14915761       0.34313267
C        2.66500444       2.60825961      12.67733728       0.21018765      -0.04757615      -0.20159452
F        2.48923204       3.73844864      11.99482894       0.53453600      -0.54825977      -1.09648625
F        3.47966273       2.96996086      13.64541350       0.12950907      -0.44068733       0.02695616
F        1.46865988       2.26498504      13.08901497      -0.98193981      -1.30530461      -0.08114510
H        5.09572031       1.75972455      12.80086842       0.22081956      -0.00883958       0.20670010
H        3.11898608       0.53851581      12.21819846       0.14007948       0.01590629      -0.06714831
O        2.70535392       6.48061692      11.72960801       0.55688034      -0.35263041      -0.19509375
C        2.27374201       7.64886258      12.35940905      -0.35731274      -0.52307491      -0.47788868
C        3.37580792       8.62538149      12.37938863      -0.01041617      -0.59581514       0.34812899
F        3.82880003       8.82506661      11.18689390      -0.68155543      -0.08428395       0.76073353
F        4.44719838       8.15083759      13.05439493       0.16247277       0.22295224      -0.19097598
F        3.04395271       9.84359513      12.88830636      -0.74870691      -0.32115289      -0.67528626
C        1.73362961       7.39944412      13.79336792      -0.23970696       0.18298489       0.64291050
F        2.54910811       6.60605769      14.51493254      -0.00313738       0.28766119      -0.32444763
F        0.51728322       6.88170716      13.76304420       1.25797641      -0.17277926      -0.65127150
F        1.60858439       8.51541417      14.46730995      -0.48552895      -0.16777374       0.18739851
H        3.30534110       6.03889020      12.29364890      -0.08500116      -0.28195701      -0.07723934
H        1.44961054       8.06530791      11.80606468      -0.26582098       0.03947121       0.09125487
O        4.03159168      15.23218829       6.59961589       0.24613034       1.26072867       0.04525269
C        4.94001119      14.10913568       6.62582734      -1.07539934       0.90950483      -1.04249796
C        6.32944800      14.75293282       6.87121288       1.21188268      -0.05494876       0.48601292
F        6.46839441      15.05954487       8.20046720       0.03495404       0.36441402       1.05498843
F        6.50363079      15.86885525       6.14277129       0.12554289      -1.11621340      -1.24818519
F        7.37501192      13.89988648       6.72754576       1.78580573      -0.74086979      -0.87646861
C        4.81019628      13.32817871       5.32187833      -0.35647987      -0.60017652       0.02576166
F        5.35115534      13.99200443       4.27825898       0.03096672      -0.49221063       1.97318729
F        3.56274685      12.99561276       5.09125370      -0.01733307      -1.35279402      -0.35447163
F        5.48528596      12.19057887       5.59895037       0.39155326      -1.77293179      -0.82214314
H        3.45221320      15.12480659       7.36108458      -0.27883510      -0.01021743      -0.03727360
H        4.78736200      13.45546526       7.47439876       0.04424616       0.12274223      -0.11625770
O       13.03727903      14.73244821       8.27428986      -0.01806373       0.35671475       0.33856401
C       12.07692773      13.72829914       7.92760976       0.51332120       0.18368071      -0.96342080
C       12.56032714      12.75322750       6.88095498      -0.07560198      -0.26744251      -0.84141507
F       13.52219613      11.96293807       7.29059905       0.80916915      -0.22631220      -0.95897328
F       13.02854639      13.38973731       5.77738219       0.54801585      -0.97729867       1.35190313
F       11.54425122      12.05541804       6.50951252      -0.03878359      -0.51177290      -0.50361612
C       10.72169210      14.39214863       7.41285555      -0.11234623       0.22219460      -0.61593067
F       10.69339575      14.37051797       6.04692280      -0.19771605       0.51731223      -0.50353332
F       10.62125072      15.59913362       7.87025757      -0.23031652       0.12142261      -0.47095855
F        9.66814749      13.70214861       7.83547161      -0.20808153      -0.92381596      -0.00142693
H       12.94117326      15.53830438       7.75801701      -0.09737575      -0.31868910       0.14695442
H       11.85167568      13.16502156       8.82232589       0.13640941      -0.03803897      -0.30845422
O       14.55899808       7.72597230      10.86509670       0.12608987       0.23480852       0.49693061
C       13.32575462       8.14283717      11.42374099      -0.48151633       0.76733562      -0.31583553
C       12.26254154       7.82963856      10.29417678       0.48923176      -0.92412058      -0.14525181
F       12.19768342       6.50251102      10.29682031      -0.34070001      -0.91027864      -1.12287139
F       12.78149982       8.25073728       9.12467797      -0.27315486      -0.94937365       0.16857000
F       11.06802508       8.41007507      10.39069540       0.94495353      -1.04028337       0.64934201
C       13.58158428       9.50377569      11.97088315      -0.26192937       0.75241458       0.78689240
F       13.81474458      10.47155031      11.05259575       1.22330551      -0.07212313       0.05242394
F       14.58080127       9.49047467      12.78458293       0.13187462      -0.08353033      -0.76473266
F       12.47666827       9.94546271      12.74648140       1.68570605       0.20473973      -0.58334982
H       14.55539318       6.74412728      10.73709679       0.05176823       0.32391022      -0.18200675
H       13.02388748       7.55446406      12.26830666       0.13185535      -0.04524836      -0.11366597
O        1.70249365      13.64760258       8.43458123      -0.34985799      -1.16033101      -0.08145129
C        1.91115012      12.62217937       9.38185245       0.22172182       0.15108856       0.41344500
C        2.11273654      11.23510343       8.71134883      -0.17237729       0.12653290       0.10478256
F        3.08161587      11.44591071       7.80729402      -0.88178603       0.08215865      -1.07321939
F        1.04247351      10.76901169       8.02387045      -0.65280211       0.20312898      -1.02942779
F        2.53385427      10.25296448       9.53683651       0.14271217       1.46814060      -1.45477967
C        0.90453534      12.70499280      10.51735271      -0.03028090       0.06152442      -0.03907899
F       -0.32359351      12.82712588       9.94644516       0.12312539      -0.97183140       0.60436620
F        1.10231191      13.81156112      11.22730875      -0.95046296      -0.29822000       0.59263958
F        1.01997557      11.66077596      11.35449069      -0.06414524      -0.33310215      -0.71646622
H        0.79045319      13.51647969       8.15533851       0.30158029      -0.11343719       0.09390071
H        2.89596090      12.74939743       9.83064987      -0.04257708      -0.14037205       0.00734483
O        8.74587417      12.98368432       4.38842450      -1.10421585       0.30731627      -0.07709516
C        9.45198451      13.50468238       3.36602052      -0.22586977       0.18752990       0.97856199
C        8.49431561      14.21507756       2.29866432       1.14677085      -0.65527937       1.14464859
F        7.70017283      15.08571584       2.94030952       0.45276730       0.90629268      -0.06456846
F        7.67325408      13.31035354       1.77631629      -0.70112758      -0.93255313       0.18651691
F        9.10849739      14.88019895       1.35146764       0.84901202       0.52419703      -0.50240867
C       10.36059845      12.49846528       2.62734414       0.02598822      -0.36980347       0.17800011
F        9.67377388      11.38475318       2.37468980       1.57263139       0.19094635      -0.33895206
F       11.32430422      12.19520172       3.43099439      -1.52695302      -0.83417770       0.86557461
F       10.84234670      12.92540782       1.46385429      -0.32016529       1.34777985       0.18400765
H        8.75301900      13.44912324       5.22280482       0.13078889      -0.16883453       0.07392329
H       10.06138764      14.30851006       3.75780547       0.15706069       0.08011263      -0.00329727
O        7.40153935       4.67914193       9.16376286      -0.94301030       0.16462938      -0.51579652
C        6.94023670       4.41231911      10.44386428      -0.82588884      -0.73127855      -1.10332716
C        5.97162629       5.50011177      10.88081950       0.48191364      -0.74748023       0.60354339
F        4.89245644       5.48968430      10.17252282      -0.72105108       0.15442003       0.91602923
F        6.60594230       6.66922179      10.77227210      -0.77861002      -1.04201144       0.05337987
F        5.60122671       5.45318012      12.20791070       0.12135062      -0.74096542      -0.00466442
C        8.16007714       4.36523852      11.39448310      -0.91834883      -0.61712219       0.29841457
F        8.86753941       5.53721804      11.40332111      -0.06137405       0.25784760      -0.48585841
F        9.06694420       3.45511920      10.93689902      -0.08779606       1.15945076      -0.70236655
F        7.84013790       4.08891523      12.64355293       1.86029882       0.19134686       0.62775104
H        7.78063615       5.59475336       9.22119712      -0.01804467      -0.01807989      -0.00361199
H        6.48013916       3.40877131      10.51700249      -0.16836924       0.27107008       0.25543671
O       12.12911370       3.49469156      10.96436087       0.32625879      -0.64376732      -1.39907987
C       12.55446385       3.03303567      12.15685416       0.36479178       0.30313540       0.15217486
C       13.01668649       4.23962575      13.03051356      -0.00576415      -0.47458884      -0.99329158
F       12.09960452       5.18015197      13.12557539       1.37748528       0.66384464       0.13963770
F       14.19821890       4.80469201      12.67425647      -0.63308091       1.12174254      -0.36282281
F       13.20748607       3.81849153      14.26951073       1.23408690      -0.27498284      -0.60475444
C       13.49387103       1.90735838      11.95962808       0.70675860      -0.44968463      -0.17491570
F       14.63019180       2.30993216      11.44842094      -0.23155023       1.70825554      -0.34146506
F       12.97979337       0.96219827      11.17710505      -0.08853750       0.96241378      -0.00085685
F       13.78385309       1.25410846      13.07213383      -0.26648726      -0.26159240      -1.62965315
H       11.28409439       3.88102604      10.99971419      -0.12628174       0.21335940       0.09235215
H       11.66508505       2.66481441      12.78268504      -0.13350664       0.08071020      -0.08438019
O        8.03864450       8.14265184       7.69261154      -0.11721150      -0.25935353      -0.27337410
C        8.37561927       8.22640838       6.32862377       1.39260052       0.56536889       0.14566188
C        8.37709201       9.65205327       5.86347909       0.06143612      -0.55652904       0.51482948
F        9.12905639      10.49735196       6.54713817       0.31823603       0.35626417       0.10456765
F        7.12823283      10.12248554       5.93738917       1.04691883       0.10211335      -0.18780570
F        8.80410659       9.63251692       4.59353771      -1.18863079      -1.20940678      -0.68331745
C        7.48549896       7.19636568       5.66997765      -0.48371487       0.10677829       0.05925143
F        6.17987967       7.37185262       5.98787922       0.31133171       0.20027665       0.11918399
F        7.84935966       6.02132628       6.10202599      -0.06635594       0.09737852       0.46181877
F        7.51442474       7.11131884       4.36391394       0.23720617      -1.04292094      -0.89778310
H        7.08912835       8.35644306       7.81721068       0.02233507       0.01058480      -0.31902642
H        9.37064000       7.79358807       6.30617498      -0.13244253       0.06877336       0.20127197
192
Lattice="15.122244263204388 0.0 0.0 0.0 15.122244263204388 0.0 0.0 0.0 15.122244263204388" Properties=species:S:1:pos:R:3:momenta:R:3 Built=T with=T Packmol=T charge=0 spin=1 external_field="_JSON [0.0, 0.0, 0.0]" pbc="T T T"
O       12.71402367       6.08827827       6.89820484      -0.66378085       0.22087596      -0.14417939
C       12.63243187       4.65445250       7.06685121      -0.26065208       0.94436712       0.05708439
C       11.18716019       4.26076258       7.37686424       0.75645196      -0.53994566      -0.56711675
F       10.38132974       4.68781696       6.40528912      -0.83431066       0.39941183       0.36396120
F       10.66786550       4.65434498       8.56624872       0.19108711      -0.60092838       1.26374167
F       11.14483843       2.91038669       7.37745229      -0.60602664       0.77811060       0.67190431
C       13.79515911       4.27370291       8.00209997      -0.68989650       0.74575373       0.17803736
F       13.84455545       5.07423663       9.02663913       0.02562698      -0.07508215       0.45350350
F       14.97460880       4.40568463       7.36798446      -0.73784067       0.60764796      -0.13727960
F       13.66986363       2.94316702       8.31316177       0.23367441      -0.18100704       0.24757232
H       12.17918535       6.23541035       6.11800374       0.08568683       0.12205748      -0.11866183
H       12.78922992       4.13097749       6.14217633      -0.26069092       0.10027078      -0.13144594
O        3.57875664       8.92467716       2.10609205      -0.29306012      -0.86176842       0.24184771
C        3.51960609      10.34448721       2.08348607      -1.02290387      -0.01979491       0.91738874
C        2.10196338      10.75355472       1.74476783       0.38811228      -0.93055382      -0.61081613
F        1.20767822      10.05697489       2.48240134      -0.42602625      -0.47148349       0.12557973
F        1.78623462      10.51831241       0.42988051      -0.39722155       0.81805456      -0.37885466
F        1.84546381      12.01797398       1.98936787       0.07827722      -0.53844978      -0.48429295
C        4.63872570      10.93310154       1.26418094      -0.13631659      -0.05453092       0.51472062
F        4.77774755      10.35359261       0.06029870       1.97081393      -0.24898078      -0.42350993
F        5.80828169      10.73231203       1.94866760      -0.35530769      -0.12463653       1.53899961
F        4.39100878      12.23718961       1.02981876       0.40285751      -0.25676569      -0.40320128
H        3.50538525       8.57025429       1.23080808       0.08701343       0.03587635       0.29787356
H        3.64542598      10.74737992       3.11886058      -0.00080293       0.42823404       0.08129417
O        7.52103862      12.89244250      13.98381693       0.74981713       0.57160268      -0.54412020
C        8.08042170      13.37522881      12.76037078      -0.44787151       0.49602200      -0.47713920
C        9.42092064      14.01193395      12.87401248      -0.67642582       0.30748578       0.06050284
F       10.21667229      13.35559977      13.71124651      -0.01831975       0.06448401      -0.27188041
F        9.35873645      15.28773999      13.29867992      -0.65419698      -0.35443251       1.17390916
F       10.02551510      13.97868322      11.63358239      -0.42418921       0.60403570       1.03447663
C        6.92439766      14.29232469      12.20493609      -0.08938929       0.25196637      -0.57902785
F        6.62987766      15.21991153      13.07087332      -0.62269356      -0.16979146       0.65876060
F        5.82378367      13.56390103      11.98113767       0.89301098      -0.43185352       0.01059796
F        7.26617404      14.93538304      11.07622605      -0.36442565      -0.56571903       0.11787705
H        8.20853941      12.59052054      14.52864402      -0.03576856      -0.06046397      -0.07663957
H        8.19824596      12.54307945      12.04864565      -0.30118857      -0.27337643      -0.02511906
O       13.27854848       9.28932075       1.69713234      -0.43119410       0.79533088       0.66948666
C       12.70789491       9.16438766       2.94407850       0.33648739      -0.23282077       0.18366670
C       13.51217667       9.80412050       4.15602023       0.83720601       0.87818488      -0.56287981
F       13.97041334      10.95881291       3.74638408       0.03061743       0.25566214       0.31974602
F       14.57561361       9.00709390       4.58879429       0.49098799      -0.84277795       0.85019064
F       12.61939039       9.86538975       5.15220946       0.29033201      -0.53624837       0.02717220
C       12.34541512       7.69080127       3.18055483      -0.09654408      -0.36006811      -0.33200767
F       13.41404950       6.95274517       3.55154428      -0.20688997       0.87829446      -0.52426135
F       12.00857475       7.15548297       1.92744726      -0.39862060       0.81517150      -0.56303055
F       11.36902683       7.48266854       4.02670296      -0.49632869      -0.05167077      -0.47472401
H       14.23544059       9.34736940       1.67662037      -0.06509736      -0.00826112       0.00590668
H       11.67099349       9.56927481       2.99952764      -0.13786522       0.04507083      -0.16434590
O       10.39537570       4.83715612       0.84244966       0.37533510       1.01621717       0.04465201
C       10.43533878       3.79263193       1.80527940       0.67262770       0.23138187       0.18650813
C        9.36259042       4.25095088       2.84932189       0.09604795       0.21401840       0.45036254
F        8.24936523       4.54747241       2.20240985      -0.95754408       0.81894013       0.57204484
F        9.69068692       5.42644151       3.44306373      -0.33399994      -0.63974453      -0.71752156
F        9.07516328       3.32039741       3.79781863       0.52610520      -0.48624344       1.63485007
C       11.77160544       3.45214989       2.30632028      -0.44143645       0.14092264      -0.29075317
F       12.55487546       4.47188103       2.66312182       0.57309932       1.66540213      -0.57221822
F       12.52199115       2.82677662       1.38900650       0.08593360       0.00645027       0.03322884
F       11.73970478       2.68721560       3.36831776      -0.41970546       0.54385930       0.60005896
H       11.00746950       5.58144716       1.03762159       0.10646931      -0.20544824      -0.05951249
H        9.97710706       2.90716100       1.32605272      -0.22521202       0.00419734       0.12700787
O       10.26459535       7.74391013      13.43803575       0.27643267      -0.42029567       0.20971064
C        9.63084000       9.03931970      13.43555700       1.56074820      -0.32202222       0.51599236
C        9.46226100       9.56883738      14.84765218       1.34952879      -0.65003171      -0.31934223
F       10.68790808       9.52776417      15.41947745       0.91311852       0.17956652      -0.04631472
F        8.53996792       8.88672284      15.54718046       0.13759444       0.28840099      -0.12823905
F        9.15948343      10.86805116      14.86532916       0.24920161       0.06457725       0.56274769
C        8.33162191       8.94558637      12.68610574      -0.10912977      -0.10719781       0.60738756
F        7.56038489       8.02261015      13.25545268       0.26465037       1.27336953      -0.08977403
F        8.60410129       8.61629864      11.38762126       0.29634302      -0.93742465      -0.53768987
F        7.68686532      10.19268316      12.60749183      -1.16577408       0.18670349       0.27192905
H        9.66911048       7.13845767      13.92574337      -0.01550739      -0.03990063      -0.10291483
H       10.25906187       9.66935353      12.86822260      -0.03907806      -0.05962244      -0.23628473
O        4.79275113       1.70184332      11.88216897       0.45084248      -0.39819603       1.30203810
C        3.42056698       1.51472402      11.84260617      -0.45754299      -0.37155274       0.05395495
C        3.04837544       1.49173839      10.35146932       0.03793606      -0.23546632       1.29730625
F        3.90510900       0.62361487       9.69296974       1.40565258       0.14329843      -0.25390194
F        3.02891687       2.69455312       9.78341792       0.48907888       0.52491972      -0.41816768
F        1.78958691       1.04534782      10.19140597      -0.32156504      -1.14915761       0.34313267
C        2.66500444       2.60825961      12.67733728       0.21018765      -0.04757615      -0.20159452
F        2.48923204       3.73844864      11.99482894       0.53453600      -0.54825977      -1.09648625
F        3.47966273       2.96996086      13.64541350       0.12950907      -0.44068733       0.02695616
F        1.46865988       2.26498504      13.08901497      -0.98193981      -1.30530461      -0.08114510
H        5.09572031       1.75972455      12.80086842       0.22081956      -0.00883958       0.20670010
H        3.11898608       0.53851581      12.21819846       0.14007948       0.01590629      -0.06714831
O        2.70535392       6.48061692      11.72960801       0.55688034      -0.35263041      -0.19509375
C        2.27374201       7.64886258      12.35940905      -0.35731274      -0.52307491      -0.47788868
C        3.37580792       8.62538149      12.37938863      -0.01041617      -0.59581514       0.34812899
F        3.82880003       8.82506661      11.18689390      -0.68155543      -0.08428395       0.76073353
F        4.44719838       8.15083759      13.05439493       0.16247277       0.22295224      -0.19097598
F        3.04395271       9.84359513      12.88830636      -0.74870691      -0.32115289      -0.67528626
C        1.73362961       7.39944412      13.79336792      -0.23970696       0.18298489       0.64291050
F        2.54910811       6.60605769      14.51493254      -0.00313738       0.28766119      -0.32444763
F        0.51728322       6.88170716      13.76304420       1.25797641      -0.17277926      -0.65127150
F        1.60858439       8.51541417      14.46730995      -0.48552895      -0.16777374       0.18739851
H        3.30534110       6.03889020      12.29364890      -0.08500116      -0.28195701      -0.07723934
H        1.44961054       8.06530791      11.80606468      -0.26582098       0.03947121       0.09125487
O        4.03159168      15.23218829       6.59961589       0.24613034       1.26072867       0.04525269
C        4.94001119      14.10913568       6.62582734      -1.07539934       0.90950483      -1.04249796
C        6.32944800      14.75293282       6.87121288       1.21188268      -0.05494876       0.48601292
F        6.46839441      15.05954487       8.20046720       0.03495404       0.36441402       1.05498843
F        6.50363079      15.86885525       6.14277129       0.12554289      -1.11621340      -1.24818519
F        7.37501192      13.89988648       6.72754576       1.78580573      -0.74086979      -0.87646861
C        4.81019628      13.32817871       5.32187833      -0.35647987      -0.60017652       0.02576166
F        5.35115534      13.99200443       4.27825898       0.03096672      -0.49221063       1.97318729
F        3.56274685      12.99561276       5.09125370      -0.01733307      -1.35279402      -0.35447163
F        5.48528596      12.19057887       5.59895037       0.39155326      -1.77293179      -0.82214314
H        3.45221320      15.12480659       7.36108458      -0.27883510      -0.01021743      -0.03727360
H        4.78736200      13.45546526       7.47439876       0.04424616       0.12274223      -0.11625770
O       13.10461354      14.83271792       8.28440599      -0.01806373       0.35671475       0.33856401
C       12.14426224      13.82856886       7.93772589       0.51332120       0.18368071      -0.96342080
C       12.62766165      12.85349721       6.89107111      -0.07560198      -0.26744251      -0.84141507
F       13.58953063      12.06320778       7.30071518       0.80916915      -0.22631220      -0.95897328
F       13.09588090      13.49000702       5.78749832       0.54801585      -0.97729867       1.35190313
F       11.61158573      12.15568775       6.51962864      -0.03878359      -0.51177290      -0.50361612
C       10.78902660      14.49241834       7.42297167      -0.11234623       0.22219460      -0.61593067
F       10.76073026      14.47078768       6.05703892      -0.19771605       0.51731223      -0.50353332
F       10.68858523      15.69940333       7.88037369      -0.23031652       0.12142261      -0.47095855
F        9.73548200      13.80241832       7.84558773      -0.20808153      -0.92381596      -0.00142693
H       13.41867110      15.33067139       7.52375605      -0.09737575      -0.31868910       0.14695442
H       11.91901019      13.26529127       8.83244201       0.13640941      -0.03803897      -0.30845422
O       14.55899808       7.72597230      10.86509670       0.12608987       0.23480852       0.49693061
C       13.32575462       8.14283717      11.42374099      -0.48151633       0.76733562      -0.31583553
C       12.26254154       7.82963856      10.29417678       0.48923176      -0.92412058      -0.14525181
F       12.19768342       6.50251102      10.29682031      -0.34070001      -0.91027864      -1.12287139
F       12.78149982       8.25073728       9.12467797      -0.27315486      -0.94937365       0.16857000
F       11.06802508       8.41007507      10.39069540       0.94495353      -1.04028337       0.64934201
C       13.58158428       9.50377569      11.97088315      -0.26192937       0.75241458       0.78689240
F       13.81474458      10.47155031      11.05259575       1.22330551      -0.07212313       0.05242394
F       14.58080127       9.49047467      12.78458293       0.13187462      -0.08353033      -0.76473266
F       12.47666827       9.94546271      12.74648140       1.68570605       0.20473973      -0.58334982
H       14.55539318       6.74412728      10.73709679       0.05176823       0.32391022      -0.18200675
H       13.02388748       7.55446406      12.26830666       0.13185535      -0.04524836      -0.11366597
O        1.70249365      13.64760258       8.43458123      -0.34985799      -1.16033101      -0.08145129
C        1.91115012      12.62217937       9.38185245       0.22172182       0.15108856       0.41344500
C        2.11273654      11.23510343       8.71134883      -0.17237729       0.12653290       0.10478256
F        3.08161587      11.44591071       7.80729402      -0.88178603       0.08215865      -1.07321939
F        1.04247351      10.76901169       8.02387045      -0.65280211       0.20312898      -1.02942779
F        2.53385427      10.25296448       9.53683651       0.14271217       1.46814060      -1.45477967
C        0.90453534      12.70499280      10.51735271      -0.03028090       0.06152442      -0.03907899
F       -0.32359351      12.82712588       9.94644516       0.12312539      -0.97183140       0.60436620
F        1.10231191      13.81156112      11.22730875      -0.95046296      -0.29822000       0.59263958
F        1.01997557      11.66077596      11.35449069      -0.06414524      -0.33310215      -0.71646622
H        0.79045319      13.51647969       8.15533851       0.30158029      -0.11343719       0.09390071
H        2.89596090      12.74939743       9.83064987      -0.04257708      -0.14037205       0.00734483
O        8.74587417      12.98368432       4.38842450      -1.10421585       0.30731627      -0.07709516
C        9.45198451      13.50468238       3.36602052      -0.22586977       0.18752990       0.97856199
C        8.49431561      14.21507756       2.29866432       1.14677085      -0.65527937       1.14464859
F        7.70017283      15.08571584       2.94030952       0.45276730       0.90629268      -0.06456846
F        7.67325408      13.31035354       1.77631629      -0.70112758      -0.93255313       0.18651691
F        9.10849739      14.88019895       1.35146764       0.84901202       0.52419703      -0.50240867
C       10.36059845      12.49846528       2.62734414       0.02598822      -0.36980347       0.17800011
F        9.67377388      11.38475318       2.37468980       1.57263139       0.19094635      -0.33895206
F       11.32430422      12.19520172       3.43099439      -1.52695302      -0.83417770       0.86557461
F       10.84234670      12.92540782       1.46385429      -0.32016529       1.34777985       0.18400765
H        8.75301900      13.44912324       5.22280482       0.13078889      -0.16883453       0.07392329
H       10.06138764      14.30851006       3.75780547       0.15706069       0.08011263      -0.00329727
O        7.40153935       4.67914193       9.16376286      -0.94301030       0.16462938      -0.51579652
C        6.94023670       4.41231911      10.44386428      -0.82588884      -0.73127855      -1.10332716
C        5.97162629       5.50011177      10.88081950       0.48191364      -0.74748023       0.60354339
F        4.89245644       5.48968430      10.17252282      -0.72105108       0.15442003       0.91602923
F        6.60594230       6.66922179      10.77227210      -0.77861002      -1.04201144       0.05337987
F        5.60122671       5.45318012      12.20791070       0.12135062      -0.74096542      -0.00466442
C        8.16007714       4.36523852      11.39448310      -0.91834883      -0.61712219       0.29841457
F        8.86753941       5.53721804      11.40332111      -0.06137405       0.25784760      -0.48585841
F        9.06694420       3.45511920      10.93689902      -0.08779606       1.15945076      -0.70236655
F        7.84013790       4.08891523      12.64355293       1.86029882       0.19134686       0.62775104
H        7.78063615       5.59475336       9.22119712      -0.01804467      -0.01807989      -0.00361199
H        6.48013916       3.40877131      10.51700249      -0.16836924       0.27107008       0.25543671
O       12.00705703       3.50479561      11.02068270       0.32625879      -0.64376732      -1.39907987
C       12.43240718       3.04313972      12.21317599       0.36479178       0.30313540       0.15217486
C       12.89462982       4.24972980      13.08683539      -0.00576415      -0.47458884      -0.99329158
F       11.97754785       5.19025602      13.18189722       1.37748528       0.66384464       0.13963770
F       14.07616223       4.81479605      12.73057829      -0.63308091       1.12174254      -0.36282281
F       13.08542941       3.82859558      14.32583256       1.23408690      -0.27498284      -0.60475444
C       13.37181436       1.91746242      12.01594991       0.70675860      -0.44968463      -0.17491570
F       14.50813513       2.32003621      11.50474277      -0.23155023       1.70825554      -0.34146506
F       12.85773671       0.97230232      11.23342687      -0.08853750       0.96241378      -0.00085685
F       13.66179642       1.26421251      13.12845566      -0.26648726      -0.26159240      -1.62965315
H       11.16203773       3.89113009      11.05603602      -0.12628174       0.21335940       0.09235215
H       11.54302838       2.67491846      12.83900687      -0.13350664       0.08071020      -0.08438019
O        8.03864450       8.14265184       7.69261154      -0.11721150      -0.25935353      -0.27337410
C        8.37561927       8.22640838       6.32862377       1.39260052       0.56536889       0.14566188
C        8.37709201       9.65205327       5.86347909       0.06143612      -0.55652904       0.51482948
F        9.12905639      10.49735196       6.54713817       0.31823603       0.35626417       0.10456765
F        7.12823283      10.12248554       5.93738917       1.04691883       0.10211335      -0.18780570
F        8.80410659       9.63251692       4.59353771      -1.18863079      -1.20940678      -0.68331745
C        7.48549896       7.19636568       5.66997765      -0.48371487       0.10677829       0.05925143
F        6.17987967       7.37185262       5.98787922       0.31133171       0.20027665       0.11918399
F        7.84935966       6.02132628       6.10202599      -0.06635594       0.09737852       0.46181877
F        7.51442474       7.11131884       4.36391394       0.23720617      -1.04292094      -0.89778310
H        7.08912835       8.35644306       7.81721068       0.02233507       0.01058480      -0.31902642
H        9.37064000       7.79358807       6.30617498      -0.13244253       0.06877336       0.20127197
192
Lattice="15.126796913926983 0.0 0.0 0.0 15.126796913926983 0.0 0.0 0.0 15.126796913926983" Properties=species:S:1:pos:R:3:momenta:R:3 Built=T with=T Packmol=T charge=0 spin=1 external_field="_JSON [0.0, 0.0, 0.0]" pbc="T T T"
O       12.71357751       6.08118055       6.90754677       0.20340667       0.63032177      -0.34511253
C       12.64833215       4.65067604       7.06776386      -0.38874145      -0.17348152       0.05698246
C       11.20238023       4.25705005       7.39035671      -0.43037035       0.39509264      -0.55894332
F       10.39376679       4.68449853       6.40393579      -0.50576469       0.21454001       0.17676861
F       10.68175401       4.64533594       8.56469382      -0.63305150       0.50816190       0.30456665
F       11.16304495       2.91313081       7.39755034      -0.75384541      -0.10196421      -0.95622251
C       13.78556146       4.26834779       8.04817773       0.46858537       0.44237471      -0.95546369
F       13.84116556       5.08282422       9.02932449       0.39871410      -0.43031001      -0.38650986
F       14.97943804       4.39713809       7.37778737       0.03807315       0.55472264      -0.44271572
F       13.69139695       2.94716257       8.30270394      -0.99876311      -0.29694991       0.54204170
H       12.22031195       6.27847534       6.09430901      -0.11463204      -0.17991182       0.10073074
H       12.80264295       4.14369327       6.10836519      -0.10975539       0.00324536       0.15392821
O        3.56272067       8.88108712       2.25655999       0.63275417      -0.75587081      -0.26606961
C        3.48934561      10.28299937       2.22252909       0.80950065       0.28151792       0.06987238
C        2.12577695      10.70692661       1.87930902      -0.49253910      -0.44566843       0.42211360
F        1.20226024      10.03180541       2.62726899       0.10501034      -1.88075932      -0.16825470
F        1.79744795      10.47189409       0.57237615      -0.79391954      -0.83481328      -0.27778422
F        1.86061261      11.96002802       2.13954633      -0.98849347      -0.35411373      -0.51663460
C        4.65680803      10.87892319       1.40621099      -0.63484868      -0.22139433       0.00870450
F        4.77751994      10.30545275       0.20949834      -0.10127536      -0.62607849      -0.46279710
F        5.80936969      10.65797976       2.08449933       0.00105989       0.63539983       0.39337818
F        4.40235593      12.18334030       1.15846388      -0.86517160      -0.30231599       0.57529879
H        3.56070753       8.50618576       1.32325482      -0.16728073      -0.10844014      -0.06050131
H        3.70117432      10.64331803       3.19361623      -0.17515455       0.13077601       0.04224840
O        7.53170747      12.97390964      13.90538976       0.03282195      -0.65556831       1.02930295
C        8.07507584      13.42637766      12.69652543       0.94282945       0.80903831       0.32414406
C        9.45934462      14.07692932      12.82524793      -0.83875569      -0.09502301      -0.02992311
F       10.24633655      13.41107006      13.64116540      -0.84768171       0.68683903       0.73505538
F        9.38910224      15.36328758      13.24003475      -0.91277814      -0.37619065       0.18742839
F       10.03395821      14.05499141      11.55824602       0.42122834      -0.55826946       0.83174155
C        6.94705268      14.33956117      12.15037984      -0.48263637       0.73917044       0.08408511
F        6.65100089      15.28886583      13.00134516      -0.29091626      -0.24086061       0.48408872
F        5.84187585      13.62805797      11.93099333      -0.19914322       0.18957991      -0.29211341
F        7.29044441      14.99315561      11.02267415      -0.54096415       0.62689511      -0.10963218
H        8.07349997      12.20262335      14.24989881       0.09160939       0.13999527       0.06795395
H        8.23064535      12.56927128      11.99602553      -0.01988610      -0.00350855      -0.06026648
O       13.26829392       9.29401073       1.68138776       0.59931181      -0.22206793       0.80912082
C       12.69742484       9.18032381       2.93145226       0.54674742      -0.30064542       0.21193568
C       13.51823170       9.78232509       4.15023637      -0.03014388       1.14357184       0.47178821
F       13.98679145      10.97877670       3.73677911      -0.65899796      -0.93280254       0.41465531
F       14.57758672       9.02058794       4.56820741       0.30995745      -0.81332581       1.29006931
F       12.65150506       9.85582736       5.18234766      -1.68816165       0.56396960      -1.59359405
C       12.39019098       7.66273664       3.16663153      -1.42399346       0.95045125       0.87630349
F       13.39855529       6.96426369       3.53909685       0.95468130      -0.35082739       0.64392325
F       12.01236433       7.19270182       1.91514424       0.06742966      -1.92712462       0.52249504
F       11.35932018       7.49060246       4.01925066       0.75221126      -0.27040096       0.45922289
H       14.24332602       9.30603333       1.73319887       0.04398546       0.12625464      -0.20696291
H       11.68693788       9.61044127       3.03958555      -0.17040221      -0.20458985      -0.00034384
O       10.39666045       4.85988216       0.84089788       0.00621892      -0.83625559       0.12330824
C       10.41720818       3.78569914       1.79368216       1.13450210      -0.00329220       0.52293503
C        9.37242805       4.22788511       2.88104332      -0.12222321       0.68614899      -1.03632521
F        8.23204884       4.54237105       2.18598119       1.08631737       0.48826440       0.89862089
F        9.69637971       5.41956106       3.46372320      -0.22577032       0.64142810      -1.12976521
F        9.06366395       3.31614157       3.80643484       0.73757525       0.20213581      -0.35181350
C       11.79393658       3.45471253       2.29137211      -0.98649644       0.01694386       0.40056850
F       12.56037809       4.46979639       2.65875449      -0.06844771      -0.12455799       0.25187144
F       12.51962789       2.83714299       1.40342819       0.33200788      -0.32635052      -0.55434641
F       11.76281833       2.68150731       3.38577990      -0.95922957       0.53811412      -1.04094090
H       11.00431324       5.57611966       1.03993847       0.01464484       0.08292285      -0.08496844
H        9.95556818       2.89997869       1.32188268      -0.02628939      -0.05127574      -0.02340556
O       10.28557321       7.75293816      13.46612304      -0.56307895      -0.34276547      -1.26952544
C        9.63877736       9.05106583      13.43394237      -0.21618008       0.01846826       0.09964387
C        9.44654835       9.56479594      14.85238975       0.35453765       0.25159300      -0.00322356
F       10.67955806       9.50828619      15.41433186       0.74763702       1.33100922       0.42273572
F        8.53130769       8.89012471      15.54698287       0.52347400      -0.06945095       0.21503544
F        9.14967671      10.85598290      14.87005935       0.82514035       0.70114391      -0.02483488
C        8.34136235       8.95474876      12.68167376      -0.16172186      -0.32526200       0.52234461
F        7.54939904       7.99560860      13.24739242       0.73494887       1.47480208       0.82944889
F        8.62327802       8.64650413      11.39866989      -0.78389497      -1.49753912      -0.55683462
F        7.68152303      10.18198963      12.63121637       0.35565410       1.05977688      -1.16597165
H        9.71999707       7.15201702      14.01235303      -0.29787225      -0.16701872      -0.09022742
H       10.34662092       9.70416358      12.92863490      -0.32196857      -0.21065871      -0.10091120
O        4.80124070       1.67377212      11.85301952      -0.09342744       0.89381912      -0.52894316
C        3.46393552       1.48548038      11.70424077      -0.55509525      -0.17111132       0.27672159
C        3.11455203       1.80909189      10.26302262      -0.22430210      -0.38203952      -0.26206572
F        4.03310658       1.14870329       9.42923728      -0.62753102      -0.06134312      -0.16970743
F        3.04845302       3.10945714      10.00024267      -0.66691880      -0.57225721      -0.39723680
F        1.86856644       1.35971821       9.93750960       0.09819211      -0.34791629       0.25144609
C        2.59957322       2.30029162      12.76756500       0.24215931      -0.26145016       0.15269004
F        2.38708528       3.53339023      12.36170546       0.79866704       0.72049237       0.25345921
F        3.40481877       2.43893721      13.82039958      -0.97571347       0.20840178      -0.57637749
F        1.43239401       1.80402867      13.06567606      -0.32150679       0.22018127      -1.86329527
H        5.06589232       1.59411768      12.76077349      -0.00698374      -0.15448506      -0.12610734
H        3.20813419       0.38530649      11.84345036      -0.09374954      -0.05564737      -0.01548437
O        2.80804679       6.56213582      11.63307123      -0.12422535      -0.59631421      -0.00240962
C        2.38062400       7.73474741      12.27094615       0.06544610      -0.47295374      -0.16499691
C        3.46601869       8.71532793      12.31402393       0.04155210      -0.95819430      -0.91118308
F        3.93086699       8.89536901      11.09395219      -0.00467424      -0.25694198       0.40635947
F        4.55440274       8.21977283      12.95623528      -0.22526989      -0.11073847       0.22368966
F        3.14590614       9.90235586      12.80223661       0.03387085       0.48127644      -0.30285655
C        1.84363345       7.46340138      13.69626665      -0.22497691       0.01265754       0.24062896
F        2.66293128       6.66879542      14.42339160      -0.60106106       0.24698368       0.09983678
F        0.63525096       6.92788385      13.65480552      -0.80025202       1.31922494       0.98632241
F        1.67978777       8.60604720      14.39683035       1.66361188      -1.29535102      -1.12416724
H        3.44961990       6.13400523      12.30103624       0.00789896      -0.13788790      -0.09001668
H        1.59990505       8.17196930      11.63283248      -0.09286181      -0.11544311       0.21162211
O        4.03034258      15.23656624       6.60544744       0.14945261       0.22768311      -0.38578202
C        4.94278988      14.11458624       6.61513794       0.00193604      -0.35131374       0.26756016
C        6.35957200      14.72102990       6.84759018      -0.91222572       1.07813303       0.57975407
F        6.47781575      15.07321252       8.20645550      -0.30136636      -0.53489162      -0.00133031
F        6.49877960      15.85998233       6.14969351       0.27084595       0.90840312      -0.33047157
F        7.37185435      13.88503042       6.70831567       0.24197284       1.08895892       1.36978432
C        4.83928262      13.32045144       5.31375165      -0.96942676       0.30984411      -0.00579260
F        5.36006793      13.99250263       4.29883926      -0.34242182       0.32928571      -1.00186252
F        3.54876604      12.99764400       5.11001342       0.83884362       0.11109470      -0.80962271
F        5.50607919      12.20167352       5.58008471      -1.12866400      -0.26015751       1.33994590
H        3.42568417      15.24812770       7.39707067      -0.09037264      -0.30732816       0.09544275
H        4.86890206      13.39207488       7.47061538      -0.14901758       0.12816913       0.13169616
O       13.11234252      14.82229253       8.29206340      -0.05996359       0.96152505      -0.37180847
C       12.15525863      13.83548691       7.91810077      -0.29586932      -0.50574117       0.73187426
C       12.61622113      12.85685669       6.88450541       0.27651318      -0.22039451       0.42224629
F       13.60236514      12.06056424       7.29695950      -0.58045619       0.42450023       0.24630752
F       13.08969067      13.49990696       5.78220516       0.49456511      -0.33046645       0.37997690
F       11.61182313      12.14650922       6.51332759       0.49104353       1.07510625       0.57808073
C       10.79320562      14.51268891       7.44090258      -0.27081723      -0.18659740      -0.49675136
F       10.75403512      14.49327625       6.06239188       0.63285358      -1.16091796      -0.28038143
F       10.67483328      15.70907341       7.89350561       0.98166899      -0.53078188      -0.61589450
F        9.75113638      13.79828208       7.84417318      -0.59835034       0.52133322       0.17206493
H       13.35976282      15.37010595       7.54856274       0.14910512      -0.21524308       0.13353829
H       11.99847832      13.29791598       8.83778312      -0.15269928      -0.01818971      -0.10835005
O       14.57471781       7.71265148      10.86338981      -0.91873831      -0.00732671      -0.08003521
C       13.33914093       8.14086516      11.44327227      -0.39213953       0.51211071      -0.53469430
C       12.29770067       7.82840403      10.29324846      -1.46040369      -0.00405033       0.05311326
F       12.17633819       6.51247960      10.30221253       0.39407994       0.14035530      -0.18393249
F       12.76226277       8.26665290       9.12383089       0.88972816      -0.32246663       0.22577184
F       11.06558544       8.42842805      10.39326584       0.05515311       0.29548516       0.12761905
C       13.60987045       9.51422636      11.97409788      -0.05088391      -0.81141420       0.03649344
F       13.84392673      10.45435763      11.05132636      -0.45238204       0.82078704       0.35443473
F       14.60313836       9.48457959      12.78029759      -0.75338851      -0.42404508       0.12249558
F       12.50757354       9.95396529      12.73736077      -0.88191482      -0.12331345       1.09062336
H       14.57874743       6.77809159      10.76133707      -0.09851015      -0.01432367      -0.08296618
H       13.03504985       7.46046132      12.33041200      -0.10236550       0.11622194      -0.02550228
O        1.71013569      13.61085514       8.43430484      -0.54817604       1.97295671       0.01467515
C        1.91873988      12.60472577       9.39292692      -0.42968160       0.71511207      -0.32835152
C        2.11519384      11.24547771       8.72669767       0.01035602      -0.17707446      -0.27265105
F        3.08307469      11.45934863       7.82427533      -0.11115142      -0.48802793      -0.74146484
F        1.04235927      10.78094967       8.03857311      -0.02681922      -0.53499018      -0.76011938
F        2.52422828      10.26978902       9.53736171       0.60512108      -0.82439177       0.13557609
C        0.88821069      12.69121665      10.50918967       0.48114171       0.48909688       0.50173566
F       -0.32721907      12.82665985       9.96253242       0.25262071       0.34390314      -0.83942130
F        1.11632384      13.81715193      11.20559388      -0.73335074      -0.09536888       1.31090959
F        1.01945085      11.66491779      11.33475283       0.16287142      -0.02758117       1.26013846
H        0.78511461      13.59694744       8.17911204       0.25934005      -0.24364859       0.03727818
H        2.91058128      12.79736888       9.85011058       0.03336720      -0.15539716      -0.03916481
O        8.74348529      12.97469644       4.37349743       0.42340219       0.86411962       0.52944471
C        9.45551288      13.51935989       3.38550197      -0.20909439      -0.88245456      -0.17343705
C        8.50524979      14.21639131       2.30222776      -0.16009236       0.26086678      -0.58463982
F        7.69721757      15.09963691       2.95584145       0.25514757      -0.56861134      -0.81770097
F        7.69488130      13.32008963       1.76966249      -0.98746648      -0.21313939       0.52147670
F        9.11922613      14.85438565       1.35702713      -0.59347926       1.51527007      -0.07805347
C       10.38098334      12.50437561       2.63231918      -0.13440365      -0.20881467      -0.13720613
F        9.69675757      11.40108604       2.35948247      -1.05700442      -0.52154265       0.90203455
F       11.33927054      12.21211359       3.42955249      -1.11067794      -0.57393412      -0.09459612
F       10.84459006      12.94489772       1.45418342      -0.02919400      -0.91528969       0.55032468
H        8.77131525      13.45854296       5.21627963      -0.09146806      -0.02886188       0.11906143
H       10.15438500      14.33394747       3.69502720      -0.24651981      -0.01663816       0.21540179
O        7.35720016       4.61488184       9.07711625      -0.64284700      -0.62749761       0.15524899
C        6.87794036       4.31331525      10.35771442       0.01910024       0.73093472       0.01881275
C        5.91406724       5.41030128      10.81004540      -0.23958281       0.29757953      -0.70278147
F        4.83426606       5.41082300      10.11547125       0.14598781      -0.04661788      -1.24935651
F        6.54302601       6.57934918      10.66608765       0.15646324       0.41387071       1.33050344
F        5.54015537       5.38911652      12.11994450       0.02594416      -0.75826213       0.30182801
C        8.08040937       4.29844761      11.31502691       0.37700384      -0.44332562       0.06749267
F        8.80753714       5.46910644      11.33308163       0.14097376      -0.52860870      -0.72906291
F        9.01073482       3.37858186      10.83704214      -0.05303762      -0.24348502       0.80149066
F        7.77113949       3.99623105      12.54261371       0.50784353       0.77705639       0.84308947
H        7.71915150       5.49228829       9.01932195      -0.01432485       0.02632378       0.35103596
H        6.32029276       3.34168810      10.35694603       0.17933233      -0.18077823       0.24293383
O       12.00793234       3.49439833      11.02333708       0.23281378       0.39241151       0.47642240
C       12.41924321       3.03714226      12.22991217       0.84223561      -0.08257474      -0.73031837
C       12.90046222       4.25840224      13.10527848      -0.27123125       0.03740933      -0.47055255
F       11.98928198       5.20379371      13.17751837      -0.30680420      -0.83824200       0.57563634
F       14.07687379       4.78928513      12.72814219       0.24595465       1.42256438       0.43510804
F       13.06615663       3.80897818      14.32083137       1.21766756       1.22841182       0.22841956
C       13.40388953       1.91703264      12.03604375      -0.96930367       0.32042444      -0.53877076
F       14.53217463       2.31909323      11.50165660      -1.26390374       0.03061535       0.47551056
F       12.87588772       0.97443949      11.22576937      -0.73402050      -0.12636825       0.71530179
F       13.65792870       1.24708234      13.16311313       0.39149692       0.93613868      -1.87670073
H       11.09655601       3.90867094      10.99455062       0.08506402       0.03839706       0.13343443
H       11.59267348       2.65035735      12.76157843      -0.12485330       0.15539891       0.16676710
O        8.06009347       8.12894106       7.71199659      -0.94344861       0.71007804      -0.90062174
C        8.38954893       8.22397409       6.35928514      -0.63041738       0.48230463      -1.22746659
C        8.37934495       9.65218536       5.85264654       0.06589167       0.16737992       0.45428984
F        9.11915243      10.50528088       6.55160298       0.56869318      -0.25974682      -0.19571989
F        7.14186666      10.13156826       5.92908208      -0.51084871      -0.39429612       0.62335309
F        8.80227293       9.61601796       4.60565097       0.21427190       0.96178644      -0.43841155
C        7.48743304       7.17114029       5.66813090       0.25076000       0.68688031       0.17719418
F        6.17208534       7.38523195       5.98931946       0.51181056      -0.61715521      -0.03340577
F        7.83071636       6.02316710       6.13929105       1.08306090       0.38394220      -2.12411087
F        7.52033217       7.11558914       4.36296983      -0.27276006      -0.16236649       0.38370678
H        7.13663708       8.33504869       7.80676934      -0.06180761       0.04466561       0.01891033
H        9.40426068       7.71369480       6.28520112       0.03566235       0.05220979       0.11391553
192
Lattice="15.126796913926983 0.0 0.0 0.0 15.126796913926983 0.0 0.0 0.0 15.126796913926983" Properties=species:S:1:pos:R:3:momenta:R:3 Built=T with=T Packmol=T charge=0 spin=1 external_field="_JSON [0.0, 0.0, 0.0]" pbc="T T T"
O       12.70850465       6.05710012       6.93684641       0.15035766       0.67744153      -0.65315978
C       12.66778021       4.69343489       7.03530641      -0.24830118      -0.83983774       0.54215702
C       11.24078701       4.24695690       7.38758702      -0.50684932       0.58317327       0.06915520
F       10.36220364       4.68953224       6.40245048       0.71950909      -0.09332498      -0.12718798
F       10.70115541       4.65842892       8.52503893      -0.75146463      -0.58901402       1.23863657
F       11.18012915       2.89572906       7.42642222      -0.53349107       0.41154588      -0.81532625
C       13.78930595       4.25913618       8.00656948      -0.14029111       0.31388063       1.67625196
F       13.85665298       5.08325018       9.03263149      -0.42804098       0.03803092      -0.63769878
F       14.96136615       4.42192925       7.38756583       0.57924036      -0.77376784      -0.23767576
F       13.71872804       2.94847249       8.30478397      -0.82606850      -0.23597464      -0.33725493
H       12.18203600       6.25409283       6.17898618       0.03419827      -0.09773711      -0.14906520
H       12.84937179       4.13474260       6.10513600      -0.19512039      -0.01782266       0.02371226
O        3.59445960       8.84979124       2.28676009      -0.95854460       0.36903220      -0.91930439
C        3.54455271      10.28171176       2.21782550      -1.00791453       0.26882562      -0.41188866
C        2.06664379      10.69933869       1.85589844       1.00902983       0.47473033       0.50084772
F        1.21680715      10.02103673       2.62127526      -0.46487038       0.56368613       0.24129997
F        1.79653273      10.46145685       0.57576998       0.03887954       0.20291072      -0.23348003
F        1.88427162      11.94115541       2.15194125      -0.70675349      -0.07098999      -0.38556818
C        4.64458266      10.88641816       1.41161282       0.17491535      -0.18753972      -0.05426046
F        4.76645735      10.30075690       0.23679114       0.25500219       0.31122534      -0.69226215
F        5.83269278      10.68988068       2.09900066      -0.38126047      -1.29738256      -0.20052798
F        4.38006573      12.18756239       1.14327910       0.46542376       0.00271012       0.26881998
H        3.50879120       8.62362700       1.35324702       0.09783900       0.02044444       0.18808396
H        3.73833130      10.72422823       3.24203593       0.06048749       0.01599640      -0.04386034
O        7.53776261      12.96692792      13.91801024      -0.20825609      -0.08303944      -0.24999121
C        8.05266573      13.41519617      12.69349992       0.63342051       0.32720432      -0.04382662
C        9.41058677      14.09232390      12.83148517       0.68387920      -0.38718992       0.39879421
F       10.22260145      13.40980486      13.64076349       0.82063908       0.08787953      -0.10726103
F        9.38460753      15.35171964      13.21471302       0.13398673       0.36530119       0.79537145
F       10.06806645      14.04454173      11.59725847      -0.85086330       0.25542436      -1.61219417
C        6.96616090      14.32962732      12.14134578      -0.54457853       0.06409365       0.55182329
F        6.66083585      15.28379551      13.02348539      -0.27676693       0.09164996      -1.03263668
F        5.86340177      13.62832212      11.88529912      -0.65102859       0.05460408       1.48807050
F        7.29264315      14.99198713      11.01229711      -0.14161227       0.23848867       0.28419611
H        8.04205254      12.16366570      14.04698084       0.00959967       0.32704784       0.12876579
H        8.24288855      12.56086828      12.08046751       0.04262105      -0.04740950       0.03384882
O       13.28587410       9.32663051       1.67395802      -0.42858319      -1.01425332       0.03002011
C       12.71574244       9.15458403       2.96644645      -0.61636260       0.78396659      -0.66396301
C       13.49981085       9.78095566       4.11138504       0.16919540       0.28796556       0.58226793
F       13.98367518      10.97458386       3.72004671       0.28424654       0.33981241       0.24492213
F       14.57455946       9.03739189       4.57944716       0.47703910      -0.85269175      -0.11695834
F       12.66219306       9.87012912       5.22104793      -0.62756368      -0.60017720      -0.88004422
C       12.34092623       7.64966425       3.16753124       0.67834440      -0.30442238       0.69236259
F       13.40254893       6.91187735       3.52345202      -0.19767480       1.86234081       0.34324435
F       11.97839320       7.20668275       1.93332340       1.22763155      -0.36729673      -0.84588229
F       11.37087498       7.51929790       4.00814963      -0.11325670      -0.74693596       0.08293720
H       14.21696047       9.10472538       1.61452846       0.06873847       0.36138945       0.08264171
H       11.78614192       9.75713114       2.94293792      -0.06158402      -0.31219304       0.25857497
O       10.40765146       4.82087439       0.95178073      -0.06625319       0.63473529       0.80349063
C       10.42162234       3.82958727       1.92473168       0.47249226      -1.64289982      -0.06741563
C        9.38163260       4.26096169       3.00554983       0.42385441      -1.08237349       0.40928630
F        8.22923107       4.48954876       2.31846873       0.33322437       1.17205976      -0.01600842
F        9.74082789       5.39607123       3.59598860      -1.05395118       0.32160856       0.02143611
F        9.02124496       3.33499652       3.92261241       1.55310751      -1.33925750       0.72990749
C       11.83433012       3.45895291       2.43172429      -0.37613457       0.14379272      -0.32919691
F       12.56181959       4.44227491       2.79455823       0.16319312      -0.54819495      -0.16566055
F       12.53287427       2.80432897       1.52292794       0.02457442       0.76651240       0.79962455
F       11.76075009       2.65967223       3.54202451       0.70170597       0.21047286      -0.61306045
H       11.09434035       5.51922275       1.06882425      -0.11246121       0.17307096       0.04037723
H        9.91148164       2.97871525       1.47923162      -0.02267529       0.01502809       0.02452283
O       10.26348612       7.73333612      13.47901191       0.74994558       0.09895109      -0.31562436
C        9.68903315       9.02966833      13.45602339      -1.14865023       0.59574605      -0.13952367
C        9.49216822       9.57625472      14.82412250      -1.15505776      -0.11761816       0.19430043
F       10.70158762       9.49604283      15.40988554      -0.46158822       0.46101930      -0.01598694
F        8.54776361       8.87444403      15.54941287      -0.88013795       0.27311288       0.03631673
F        9.15656946      10.88142326      14.83543861      -0.09783388      -0.81976310       1.13251372
C        8.35671632       9.01062206      12.65582734      -0.28314027      -0.88410972       0.53209239
F        7.56650985       8.03091162      13.25714378      -0.69962996      -1.58466639       0.01105555
F        8.60697711       8.62358081      11.40567584       0.71394832       0.67025581      -0.40002117
F        7.69476188      10.19748736      12.63942231      -0.55604262      -0.10647056      -0.32188656
H        9.63120915       7.16491034      13.97870298       0.22403069       0.15960405      -0.00102180
H       10.40927934       9.69396821      13.00861992       0.07186994       0.11031254      -0.12515716
O        4.78899328       1.67850317      11.83644148       0.04621157      -0.33233956       0.33340791
C        3.42592536       1.48579161      11.70603986       1.05448982       0.39624955       0.01515568
C        3.12510824       1.80036594      10.23527487       0.12081253       0.27312930       0.64922009
F        4.02909947       1.14250268       9.44522349       0.52059029      -0.17341819      -0.75103227
F        3.07654429       3.11519479      10.01570668      -1.24165398      -0.10180083      -0.30542402
F        1.86938789       1.37288796       9.94125049      -0.30013858      -0.32584893      -0.14470518
C        2.60793893       2.29248499      12.72678998      -0.25586102      -0.12567176       0.87342362
F        2.36024285       3.54774062      12.36259562       0.93327364      -0.73198022       0.17773740
F        3.36417587       2.45294107      13.83536556       1.35255616      -0.20112122      -0.69533846
F        1.40066265       1.79044707      13.05996238       0.79580664       0.66006341       0.14490697
H        5.07614002       1.56225361      12.75476016       0.05155533       0.06041121       0.11113370
H        3.14841508       0.47265031      11.79399360       0.12244403      -0.22442316       0.02442858
O        2.86650514       6.58232862      11.64861848       0.17352320      -0.24954789      -0.55424408
C        2.38135720       7.72489745      12.28643493       0.27706327       0.59858747      -0.71731107
C        3.52853893       8.72616865      12.32198665      -1.00358892      -0.22883507       0.24844804
F        3.97462473       8.96167796      11.13497512      -0.16168462      -1.21198495       0.70529040
F        4.54570343       8.27614630      13.00884892      -0.00559776      -1.12519684      -0.35071028
F        3.11673195       9.91855838      12.85730197       0.35219457      -0.25483972      -0.71440931
C        1.85830508       7.42448943      13.67572968      -0.03193718       0.19078896      -0.37465594
F        2.61321871       6.64857297      14.42851319       0.67664310       0.24393858      -0.62763361
F        0.58179601       6.88827186      13.59531553       1.17735785       0.46042203      -0.34206268
F        1.67902496       8.55787177      14.38280480      -1.53026610       0.88792335      -0.15042294
H        3.47556621       6.05652128      12.09561167      -0.14045432       0.24691957       0.17367000
H        1.52807197       8.13425605      11.73922549       0.24790461       0.04482675      -0.17999648
O        4.02066559      15.03763116       6.72415381      -0.93979515       1.37505500       0.68504037
C        4.86619726      14.00281646       6.77053168       0.23383971      -0.80971857      -0.31203601
C        6.28122942      14.59007956       6.98769434       0.52442697      -0.74061258      -0.68236775
F        6.42949051      14.95672135       8.32859416       0.38004842      -0.87792369       0.90113093
F        6.49416650      15.71376017       6.25491200      -1.29827017       0.44908324       0.84574772
F        7.33576709      13.74444219       6.83732297      -0.08193687      -0.13932002       0.51661310
C        4.81762790      13.16781010       5.48526584      -0.22727824      -0.19452210      -1.13585917
F        5.31460261      13.84387737       4.42574091       0.10982302       0.37326793       0.25882395
F        3.52925908      12.87691616       5.25794412      -0.83809189      -0.75998601      -0.19211243
F        5.45317862      12.02811763       5.72289702       0.15232827       1.07650455       0.04429686
H        3.37247245      15.01445738       7.44912627       0.17430518       0.23025807      -0.07105627
H        4.71881823      13.28741445       7.55181303       0.32681285      -0.01011848      -0.04127624
O       13.12129448      14.60508296       8.50205000      -0.35902724      -1.38442794       0.15009424
C       12.16632246      13.71505657       7.91768431      -0.81740635      -1.13112009      -0.50538906
C       12.62612903      12.91162110       6.73322983      -0.84530574      -0.50630222       0.69415749
F       13.52379978      11.95648115       7.09613786      -0.19256287       0.23849586      -0.73285887
F       13.13343131      13.65856861       5.78557981      -0.13424220       0.14566924       0.65484803
F       11.50662254      12.30336488       6.22484802       1.83640865      -0.30175320       0.61338796
C       10.87277398      14.47780344       7.54392411      -1.10568481       0.83106334      -0.02337388
F       10.85955795      14.72628973       6.20109000      -0.68915355      -0.44358691      -1.33186382
F       10.70761486      15.62770269       8.17775650       0.73547906      -0.52818415      -0.34509704
F        9.74757512      13.78982629       7.75621056      -0.67789321       0.22450828       0.23725338
H       13.46965431      15.33241490       7.92934961       0.04865828      -0.13164619      -0.05678292
H       11.91225443      13.11658666       8.80002444       0.00818137      -0.12818053       0.18960369
O       14.56649218       7.64625832      10.90530983       0.64887217      -0.20678242       0.55556088
C       13.38736962       8.05199446      11.46494871      -0.16273825       0.23697983       1.15589751
C       12.30682821       7.76344625      10.35924475       0.36669114      -0.80609127      -0.27281074
F       12.19397778       6.39888154      10.35334720       0.37439233       0.77770468       0.43795638
F       12.76055849       8.16676955       9.19344149       0.74883385       0.62036803      -0.03280282
F       11.08410056       8.34456896      10.46532512      -0.06790914       0.27525422      -0.47293916
C       13.60642607       9.45323481      12.02534068       0.97046041      -0.63096820       0.05713290
F       13.87791437      10.34270690      11.10569022      -0.18446679       0.80090581       0.43560247
F       14.66165001       9.40670689      12.84292412      -1.35125548      -0.15701214      -0.15685256
F       12.56239050       9.88046567      12.82867368      -1.25643130      -0.18338736      -0.50754781
H       14.92198716       6.87489520      11.42189699       0.02388585      -0.13176922      -0.09381013
H       13.09502636       7.54479491      12.32692280       0.00598665      -0.08199610      -0.10663202
O        1.81565852      13.65225351       8.34174328       0.82991584      -0.70316537      -1.14859409
C        2.06930958      12.62947380       9.26402266      -0.18863653      -0.10478349      -0.05560217
C        2.24807831      11.20817049       8.59529188       0.20119239       0.52102430       0.04477922
F        3.19154450      11.45154187       7.70684730       0.51882473       0.73093924      -0.34188134
F        1.18047137      10.78686176       7.93793352      -0.02916473       0.17692448      -1.23808095
F        2.67089199      10.26430890       9.38525412      -0.41567773       0.68577200       0.25577682
C        1.03164900      12.69152786      10.35374726      -0.27758863      -0.10119732       0.47138595
F       -0.21047813      12.80656010       9.81883170       0.47425243       1.22267995       0.04384113
F        1.25184931      13.80362699      11.07258883       0.00442309       0.75593841      -0.19129177
F        1.12460266      11.68636701      11.19784244       1.06511592      -0.11969174      -0.07199338
H        0.90029826      13.62196549       8.04796903      -0.05562734      -0.00497017      -0.04641150
H        3.03540097      12.86820548       9.70375918      -0.13217784      -0.10525202      -0.10953102
O        8.78400915      13.06167480       4.50539893       0.53090365      -0.32608198       0.09970630
C        9.54168438      13.65359721       3.48352368      -0.48724186      -1.70513108       1.32859070
C        8.57920146      14.27631869       2.45787273       0.15040552       0.29635611      -1.14539798
F        7.80689168      15.16836570       3.09160495      -1.57329791      -0.15046600      -0.16880087
F        7.74764596      13.36022618       1.90743899       0.14227774       0.79181047      -0.11466943
F        9.16687427      14.96087694       1.51656100       0.04605501      -1.56385871      -0.38242184
C       10.38114257      12.59526998       2.74968859       1.50503783      -0.67501763       0.25132820
F        9.73954300      11.47319485       2.50217832       0.75331444       0.01304079      -0.29266738
F       11.37909729      12.28478437       3.57387975       0.16016927      -0.12067390      -0.54761812
F       10.90525811      12.99309205       1.56721652      -0.03144908       0.43045509       0.48734623
H        8.71398866      13.59746987       5.31730445       0.12086557      -0.24983815       0.04140068
H       10.23168894      14.41191216       3.78687492      -0.01902351      -0.04801478      -0.01176062
O        7.37336782       4.60916341       9.07726584      -0.41948448       0.05103122       0.06946961
C        6.90678873       4.35115163      10.36821675      -0.78616155      -0.69517587       0.03627100
C        5.92705041       5.39550261      10.77546811      -0.18882845      -0.26116144       0.18933939
F        4.80601663       5.42772971      10.07048198       0.96452538      -0.46786361       1.61528424
F        6.56377334       6.59362815      10.64573517      -0.55724882      -0.48354647       0.77358686
F        5.55690226       5.38256599      12.10895400      -0.60059401       0.41732049       0.60067383
C        8.08193233       4.29486962      11.27899421      -0.81117577       0.02343378       0.41660854
F        8.78874330       5.45831823      11.35886340       0.83193978       0.49641015      -0.75016292
F        9.01440840       3.39325618      10.86036725       0.21309311      -0.55680218      -0.85796249
F        7.75345221       4.00653831      12.55780852       0.58728167      -0.22818623      -0.41336881
H        7.80459982       5.47660698       9.04612370      -0.04900805       0.18353267      -0.07877525
H        6.50767716       3.36028485      10.36460787      -0.24827678       0.03665975      -0.02536700
O       12.06602789       3.47516350      11.01714781      -1.95774841       0.44972751       0.95316131
C       12.43148272       3.03843278      12.25321263       0.23353087      -0.31133127      -0.56118572
C       12.90832435       4.25008667      13.05275614      -0.38415310       0.71264854       0.43470280
F       11.96609873       5.19795798      13.15117496       0.72938356       0.07925186       1.07726743
F       14.10869410       4.78595989      12.72009702      -0.71438973       0.10278929       0.41465769
F       13.07708585       3.78579042      14.34226455      -0.41506996       0.66427591      -0.64482577
C       13.40252213       1.91635241      12.04486624      -0.31468163       0.32771542      -0.12816528
F       14.57863086       2.32887091      11.50326643      -1.40260747      -0.33985099      -0.04797472
F       12.86583149       1.02579650      11.24190073       0.42758060      -1.64140220      -0.28431666
F       13.66655594       1.23973528      13.16200815      -0.35647222       0.09269022      -0.17075207
H       11.22481608       3.87074524      10.99235573       0.08232848      -0.02547300      -0.08812406
H       11.49713561       2.47674942      12.66492695       0.03225821       0.18812509      -0.15913807
O        8.00578933       8.12164128       7.74525925       1.50691483       0.02010473      -0.67526956
C        8.39260667       8.20609949       6.34889998       0.10829747       0.39103124      -0.34523058
C        8.38088995       9.64739485       5.85007174       0.39343391       0.20491973      -0.26551583
F        9.08972630      10.52230590       6.52091977       0.56893480      -0.55563126       0.77596797
F        7.13407084      10.16316543       5.93395681       0.42142934      -0.92923215       0.00111351
F        8.79838321       9.62029228       4.62625561      -0.01013168      -0.25493774      -0.05489815
C        7.43664316       7.22049596       5.64413959       0.99513599      -0.96969204       0.17348593
F        6.15386714       7.40204421       5.98199497       0.49722287      -0.57004007       0.17276028
F        7.86606386       6.02058587       6.14850832      -1.03566907       0.24577590      -0.34889271
F        7.48620971       7.09861303       4.35406272       0.99936446       0.42242588       0.75792920
H        7.04479905       8.47874212       7.79691728       0.02769865      -0.18772937      -0.02075844
H        9.39420412       7.90479388       6.29522078      -0.04271702      -0.30909261       0.05202766
192
Lattice="15.126796913926983 0.0 0.0 0.0 15.126796913926983 0.0 0.0 0.0 15.126796913926983" Properties=species:S:1:pos:R:3:momenta:R:3 Built=T with=T Packmol=T charge=0 spin=1 external_field="_JSON [0.0, 0.0, 0.0]" pbc="T T T"
O       12.95719106       6.05017337       6.91738980       0.15035766       0.67744153      -0.65315978
C       12.74815556       4.71083519       7.10018235      -0.24830118      -0.83983774       0.54215702
C       11.31212747       4.47844337       7.59371166      -0.50684932       0.58317327       0.06915520
F       10.41470290       4.98723365       6.65881206       0.71950909      -0.09332498      -0.12718798
F       10.93378101       5.01350470       8.74474236      -0.75146463      -0.58901402       1.23863657
F       11.07973448       3.15121563       7.71806697      -0.53349107       0.41154588      -0.81532625
C       13.88533322       4.17680457       8.00097397      -0.14029111       0.31388063       1.67625196
F       14.15022303       5.03300904       8.96702266      -0.42804098       0.03803092      -0.63769878
F       15.00900003       4.14990230       7.27983502       0.57924036      -0.77376784      -0.23767576
F       13.67144966       2.90361738       8.38176348      -0.82606850      -0.23597464      -0.33725493
H       12.55615105       6.23936913       6.08450363       0.03419827      -0.09773711      -0.14906520
H       12.77216572       4.08838795       6.19336786      -0.19512039      -0.01782266       0.02371226
O        3.59445960       8.84979124       2.28676009      -0.95854460       0.36903220      -0.91930439
C        3.54455271      10.28171176       2.21782550      -1.00791453       0.26882562      -0.41188866
C        2.06664379      10.69933869       1.85589844       1.00902983       0.47473033       0.50084772
F        1.21680715      10.02103673       2.62127526      -0.46487038       0.56368613       0.24129997
F        1.79653273      10.46145685       0.57576998       0.03887954       0.20291072      -0.23348003
F        1.88427162      11.94115541       2.15194125      -0.70675349      -0.07098999      -0.38556818
C        4.64458266      10.88641816       1.41161282       0.17491535      -0.18753972      -0.05426046
F        4.76645735      10.30075690       0.23679114       0.25500219       0.31122534      -0.69226215
F        5.83269278      10.68988068       2.09900066      -0.38126047      -1.29738256      -0.20052798
F        4.38006573      12.18756239       1.14327910       0.46542376       0.00271012       0.26881998
H        3.50879120       8.62362700       1.35324702       0.09783900       0.02044444       0.18808396
H        3.73833130      10.72422823       3.24203593       0.06048749       0.01599640      -0.04386034
O        7.53776261      12.96692792      13.91801024      -0.20825609      -0.08303944      -0.24999121
C        8.05266573      13.41519617      12.69349992       0.63342051       0.32720432      -0.04382662
C        9.41058677      14.09232390      12.83148517       0.68387920      -0.38718992       0.39879421
F       10.22260145      13.40980486      13.64076349       0.82063908       0.08787953      -0.10726103
F        9.38460753      15.35171964      13.21471302       0.13398673       0.36530119       0.79537145
F       10.06806645      14.04454173      11.59725847      -0.85086330       0.25542436      -1.61219417
C        6.96616090      14.32962732      12.14134578      -0.54457853       0.06409365       0.55182329
F        6.66083585      15.28379551      13.02348539      -0.27676693       0.09164996      -1.03263668
F        5.86340177      13.62832212      11.88529912      -0.65102859       0.05460408       1.48807050
F        7.29264315      14.99198713      11.01229711      -0.14161227       0.23848867       0.28419611
H        8.04205254      12.16366570      14.04698084       0.00959967       0.32704784       0.12876579
H        8.24288855      12.56086828      12.08046751       0.04262105      -0.04740950       0.03384882
O       13.39282477       9.47200915       1.67447982      -0.42858319      -1.01425332       0.03002011
C       12.82269311       9.29996267       2.96696825      -0.61636260       0.78396659      -0.66396301
C       13.60676152       9.92633430       4.11190684       0.16919540       0.28796556       0.58226793
F       14.09062585      11.11996250       3.72056850       0.28424654       0.33981241       0.24492213
F       14.68151014       9.18277053       4.57996896       0.47703910      -0.85269175      -0.11695834
F       12.76914374      10.01550776       5.22156973      -0.62756368      -0.60017720      -0.88004422
C       12.44787690       7.79504289       3.16805303       0.67834440      -0.30442238       0.69236259
F       13.50949961       7.05725599       3.52397382      -0.19767480       1.86234081       0.34324435
F       12.08534387       7.35206139       1.93384519       1.22763155      -0.36729673      -0.84588229
F       11.47782566       7.66467654       4.00867142      -0.11325670      -0.74693596       0.08293720
H       14.32391114       9.25010402       1.61505026       0.06873847       0.36138945       0.08264171
H       11.89309259       9.90250978       2.94345971      -0.06158402      -0.31219304       0.25857497
O       10.40765146       4.82087439       0.95178073      -0.06625319       0.63473529       0.80349063
C       10.42162234       3.82958727       1.92473168       0.47249226      -1.64289982      -0.06741563
C        9.38163260       4.26096169       3.00554983       0.42385441      -1.08237349       0.40928630
F        8.22923107       4.48954876       2.31846873       0.33322437       1.17205976      -0.01600842
F        9.74082789       5.39607123       3.59598860      -1.05395118       0.32160856       0.02143611
F        9.02124496       3.33499652       3.92261241       1.55310751      -1.33925750       0.72990749
C       11.83433012       3.45895291       2.43172429      -0.37613457       0.14379272      -0.32919691
F       12.56181959       4.44227491       2.79455823       0.16319312      -0.54819495      -0.16566055
F       12.53287427       2.80432897       1.52292794       0.02457442       0.76651240       0.79962455
F       11.76075009       2.65967223       3.54202451       0.70170597       0.21047286      -0.61306045
H       11.09434035       5.51922275       1.06882425      -0.11246121       0.17307096       0.04037723
H        9.91148164       2.97871525       1.47923162      -0.02267529       0.01502809       0.02452283
O       10.25788767       7.73462799      13.44912752       0.74994558       0.09895109      -0.31562436
C        9.68338232       9.03112528      13.44278089      -1.14865023       0.59574605      -0.13952367
C        9.51097704       9.57094100      14.81685625      -1.15505776      -0.11761816       0.19430043
F       10.73060031       9.48768317      15.38062465      -0.46158822       0.46101930      -0.01598694
F        8.57946925       8.86565106      15.55533017      -0.88013795       0.27311288       0.03631673
F        9.17589973      10.87607647      14.84060662      -0.09783388      -0.81976310       1.13251372
C        8.33704938       9.01620428      12.66630834      -0.28314027      -0.88410972       0.53209239
F        7.55745494       8.03361503      13.27671080      -0.69962996      -1.58466639       0.01105555
F        8.56497116       8.63534039      11.41000245       0.71394832       0.67025581      -0.40002117
F        7.67515100      10.20321354      12.66755667      -0.55604262      -0.10647056      -0.32188656
H        9.63447569       7.16380407      13.95715387       0.22403069       0.15960405      -0.00102180
H       10.39569861       9.69755248      12.98594494       0.07186994       0.11031254      -0.12515716
O        4.78899328       1.67850317      11.83644148       0.04621157      -0.33233956       0.33340791
C        3.42592536       1.48579161      11.70603986       1.05448982       0.39624955       0.01515568
C        3.12510824       1.80036594      10.23527487       0.12081253       0.27312930       0.64922009
F        4.02909947       1.14250268       9.44522349       0.52059029      -0.17341819      -0.75103227
F        3.07654429       3.11519479      10.01570668      -1.24165398      -0.10180083      -0.30542402
F        1.86938789       1.37288796       9.94125049      -0.30013858      -0.32584893      -0.14470518
C        2.60793893       2.29248499      12.72678998      -0.25586102      -0.12567176       0.87342362
F        2.36024285       3.54774062      12.36259562       0.93327364      -0.73198022       0.17773740
F        3.36417587       2.45294107      13.83536556       1.35255616      -0.20112122      -0.69533846
F        1.40066265       1.79044707      13.05996238       0.79580664       0.66006341       0.14490697
H        5.07614002       1.56225361      12.75476016       0.05155533       0.06041121       0.11113370
H        3.14841508       0.47265031      11.79399360       0.12244403      -0.22442316       0.02442858
O        2.90561117       6.44383492      11.69254264       0.17352320      -0.24954789      -0.55424408
C        2.42046323       7.58640375      12.33035909       0.27706327       0.59858747      -0.71731107
C        3.56764496       8.58767495      12.36591081      -1.00358892      -0.22883507       0.24844804
F        4.01373076       8.82318426      11.17889928      -0.16168462      -1.21198495       0.70529040
F        4.58480946       8.13765260      13.05277308      -0.00559776      -1.12519684      -0.35071028
F        3.15583799       9.78006468      12.90122612       0.35219457      -0.25483972      -0.71440931
C        1.89741111       7.28599572      13.71965384      -0.03193718       0.19078896      -0.37465594
F        2.65232474       6.51007927      14.47243735       0.67664310       0.24393858      -0.62763361
F        0.62090204       6.74977816      13.63923969       1.17735785       0.46042203      -0.34206268
F        1.71813099       8.41937807      14.42672896      -1.53026610       0.88792335      -0.15042294
H        3.51467224       5.91802757      12.13953583      -0.14045432       0.24691957       0.17367000
H        1.56717800       7.99576234      11.78314965       0.24790461       0.04482675      -0.17999648
O        4.02066559      15.03763116       6.72415381      -0.93979515       1.37505500       0.68504037
C        4.86619726      14.00281646       6.77053168       0.23383971      -0.80971857      -0.31203601
C        6.28122942      14.59007956       6.98769434       0.52442697      -0.74061258      -0.68236775
F        6.42949051      14.95672135       8.32859416       0.38004842      -0.87792369       0.90113093
F        6.49416650      15.71376017       6.25491200      -1.29827017       0.44908324       0.84574772
F        7.33576709      13.74444219       6.83732297      -0.08193687      -0.13932002       0.51661310
C        4.81762790      13.16781010       5.48526584      -0.22727824      -0.19452210      -1.13585917
F        5.31460261      13.84387737       4.42574091       0.10982302       0.37326793       0.25882395
F        3.52925908      12.87691616       5.25794412      -0.83809189      -0.75998601      -0.19211243
F        5.45317862      12.02811763       5.72289702       0.15232827       1.07650455       0.04429686
H        3.37247245      15.01445738       7.44912627       0.17430518       0.23025807      -0.07105627
H        4.71881823      13.28741445       7.55181303       0.32681285      -0.01011848      -0.04127624
O       13.21133443      14.90351927       8.03493470      -0.35902724      -1.38442794       0.15009424
C       12.23833587      13.88357935       7.79286413      -0.81740635      -1.13112009      -0.50538906
C       12.54505903      12.90200911       6.69636797      -0.84530574      -0.50630222       0.69415749
F       13.56000147      12.06614524       7.04426274      -0.19256287       0.23849586      -0.73285887
F       12.82465004      13.48878532       5.56021248      -0.13424220       0.14566924       0.65484803
F       11.40272326      12.16559769       6.51065405       1.83640865      -0.30175320       0.61338796
C       10.84690336      14.51149407       7.53912047      -1.10568481       0.83106334      -0.02337388
F       10.58391167      14.51554164       6.19899267      -0.68915355      -0.44358691      -1.33186382
F       10.70899317      15.74794376       7.99018840       0.73547906      -0.52818415      -0.34509704
F        9.82918552      13.82509029       8.06595141      -0.67789321       0.22450828       0.23725338
H       13.40093615      15.53115063       7.29433892       0.04865828      -0.13164619      -0.05678292
H       12.18523523      13.44190541       8.79453541       0.00818137      -0.12818053       0.18960369
O       14.56649218       7.64625832      10.90530983       0.64887217      -0.20678242       0.55556088
C       13.38736962       8.05199446      11.46494871      -0.16273825       0.23697983       1.15589751
C       12.30682821       7.76344625      10.35924475       0.36669114      -0.80609127      -0.27281074
F       12.19397778       6.39888154      10.35334720       0.37439233       0.77770468       0.43795638
F       12.76055849       8.16676955       9.19344149       0.74883385       0.62036803      -0.03280282
F       11.08410056       8.34456896      10.46532512      -0.06790914       0.27525422      -0.47293916
C       13.60642607       9.45323481      12.02534068       0.97046041      -0.63096820       0.05713290
F       13.87791437      10.34270690      11.10569022      -0.18446679       0.80090581       0.43560247
F       14.66165001       9.40670689      12.84292412      -1.35125548      -0.15701214      -0.15685256
F       12.56239050       9.88046567      12.82867368      -1.25643130      -0.18338736      -0.50754781
H       14.92198716       6.87489520      11.42189699       0.02388585      -0.13176922      -0.09381013
H       13.09502636       7.54479491      12.32692280       0.00598665      -0.08199610      -0.10663202
O        1.81565852      13.65225351       8.34174328       0.82991584      -0.70316537      -1.14859409
C        2.06930958      12.62947380       9.26402266      -0.18863653      -0.10478349      -0.05560217
C        2.24807831      11.20817049       8.59529188       0.20119239       0.52102430       0.04477922
F        3.19154450      11.45154187       7.70684730       0.51882473       0.73093924      -0.34188134
F        1.18047137      10.78686176       7.93793352      -0.02916473       0.17692448      -1.23808095
F        2.67089199      10.26430890       9.38525412      -0.41567773       0.68577200       0.25577682
C        1.03164900      12.69152786      10.35374726      -0.27758863      -0.10119732       0.47138595
F       -0.21047813      12.80656010       9.81883170       0.47425243       1.22267995       0.04384113
F        1.25184931      13.80362699      11.07258883       0.00442309       0.75593841      -0.19129177
F        1.12460266      11.68636701      11.19784244       1.06511592      -0.11969174      -0.07199338
H        0.90029826      13.62196549       8.04796903      -0.05562734      -0.00497017      -0.04641150
H        3.03540097      12.86820548       9.70375918      -0.13217784      -0.10525202      -0.10953102
O        8.82766746      13.18767728       4.36274688       0.53090365      -0.32608198       0.09970630
C        9.58534270      13.77959969       3.34087163      -0.48724186      -1.70513108       1.32859070
C        8.62285978      14.40232117       2.31522068       0.15040552       0.29635611      -1.14539798
F        7.85055000      15.29436819       2.94895290      -1.57329791      -0.15046600      -0.16880087
F        7.79130427      13.48622866       1.76478694       0.14227774       0.79181047      -0.11466943
F        9.21053259      15.08687942       1.37390895       0.04605501      -1.56385871      -0.38242184
C       10.42480089      12.72127247       2.60703654       1.50503783      -0.67501763       0.25132820
F        9.78320131      11.59919733       2.35952627       0.75331444       0.01304079      -0.29266738
F       11.42275560      12.41078686       3.43122770       0.16016927      -0.12067390      -0.54761812
F       10.94891642      13.11909454       1.42456447      -0.03144908       0.43045509       0.48734623
H        8.75764698      13.72347235       5.17465240       0.12086557      -0.24983815       0.04140068
H       10.27534725      14.53791465       3.64422287      -0.01902351      -0.04801478      -0.01176062
O        7.37336782       4.60916341       9.07726584      -0.41948448       0.05103122       0.06946961
C        6.90678873       4.35115163      10.36821675      -0.78616155      -0.69517587       0.03627100
C        5.92705041       5.39550261      10.77546811      -0.18882845      -0.26116144       0.18933939
F        4.80601663       5.42772971      10.07048198       0.96452538      -0.46786361       1.61528424
F        6.56377334       6.59362815      10.64573517      -0.55724882      -0.48354647       0.77358686
F        5.55690226       5.38256599      12.10895400      -0.60059401       0.41732049       0.60067383
C        8.08193233       4.29486962      11.27899421      -0.81117577       0.02343378       0.41660854
F        8.78874330       5.45831823      11.35886340       0.83193978       0.49641015      -0.75016292
F        9.01440840       3.39325618      10.86036725       0.21309311      -0.55680218      -0.85796249
F        7.75345221       4.00653831      12.55780852       0.58728167      -0.22818623      -0.41336881
H        7.80459982       5.47660698       9.04612370      -0.04900805       0.18353267      -0.07877525
H        6.50767716       3.36028485      10.36460787      -0.24827678       0.03665975      -0.02536700
O       12.06602789       3.47516350      11.01714781      -1.95774841       0.44972751       0.95316131
C       12.43148272       3.03843278      12.25321263       0.23353087      -0.31133127      -0.56118572
C       12.90832435       4.25008667      13.05275614      -0.38415310       0.71264854       0.43470280
F       11.96609873       5.19795798      13.15117496       0.72938356       0.07925186       1.07726743
F       14.10869410       4.78595989      12.72009702      -0.71438973       0.10278929       0.41465769
F       13.07708585       3.78579042      14.34226455      -0.41506996       0.66427591      -0.64482577
C       13.40252213       1.91635241      12.04486624      -0.31468163       0.32771542      -0.12816528
F       14.57863086       2.32887091      11.50326643      -1.40260747      -0.33985099      -0.04797472
F       12.86583149       1.02579650      11.24190073       0.42758060      -1.64140220      -0.28431666
F       13.66655594       1.23973528      13.16200815      -0.35647222       0.09269022      -0.17075207
H       11.22481608       3.87074524      10.99235573       0.08232848      -0.02547300      -0.08812406
H       11.49713561       2.47674942      12.66492695       0.03225821       0.18812509      -0.15913807
O        8.00578933       8.12164128       7.74525925       1.50691483       0.02010473      -0.67526956
C        8.39260667       8.20609949       6.34889998       0.10829747       0.39103124      -0.34523058
C        8.38088995       9.64739485       5.85007174       0.39343391       0.20491973      -0.26551583
F        9.08972630      10.52230590       6.52091977       0.56893480      -0.55563126       0.77596797
F        7.13407084      10.16316543       5.93395681       0.42142934      -0.92923215       0.00111351
F        8.79838321       9.62029228       4.62625561      -0.01013168      -0.25493774      -0.05489815
C        7.43664316       7.22049596       5.64413959       0.99513599      -0.96969204       0.17348593
F        6.15386714       7.40204421       5.98199497       0.49722287      -0.57004007       0.17276028
F        7.86606386       6.02058587       6.14850832      -1.03566907       0.24577590      -0.34889271
F        7.48620971       7.09861303       4.35406272       0.99936446       0.42242588       0.75792920
H        7.04479905       8.47874212       7.79691728       0.02769865      -0.18772937      -0.02075844
H        9.39420412       7.90479388       6.29522078      -0.04271702      -0.30909261       0.05202766
192
Lattice="15.212445496587343 0.0 0.0 0.0 15.212445496587343 0.0 0.0 0.0 15.212445496587343" Properties=species:S:1:pos:R:3:momenta:R:3 Built=T with=T Packmol=T charge=0 spin=1 external_field="_JSON [0.0, 0.0, 0.0]" pbc="T T T"
O       13.02740593       6.07459765       6.95144257       0.10490652      -0.32273579       0.75094478
C       12.79503775       4.75906227       7.15101325       0.71041635      -0.34257883      -0.19213953
C       11.38869767       4.50829217       7.63010396       0.21568155       0.01251985       0.17632145
F       10.49243444       5.01345391       6.71867159      -0.51324099       0.03779756      -0.81620909
F       11.01837567       5.05218797       8.77947934      -0.71950081      -0.73632010       0.38725440
F       11.13120908       3.19454679       7.76880649       0.92317192      -0.93896736      -0.22696945
C       13.97512428       4.20346368       7.99862609      -0.38159045      -0.11760196       1.34989384
F       14.22529090       5.05004701       9.01340725      -0.08616455       0.52014185      -0.25753122
F       15.07763796       4.17191208       7.31808131      -0.06696642       0.19025739       0.52056184
F       13.74736169       2.93457032       8.42137677      -0.19979647      -0.42322025       0.13681450
H       12.68261439       6.33454424       6.05178694      -0.25721785      -0.16701438      -0.05294677
H       12.84399992       4.16840139       6.22362225      -0.02120592      -0.16549605       0.03505768
O        3.59150231       8.88200219       2.29145046       0.82284142       0.72678130       0.38617600
C        3.58081850      10.34707196       2.26975938      -0.14027973       0.06794326      -1.36304490
C        2.12921182      10.77102203       1.86101290      -1.49737139      -0.13369371       0.09820940
F        1.24130524      10.09009430       2.64602651      -0.27786962      -0.29082945      -0.70228893
F        1.79746566      10.52404232       0.57339315       0.85544599      -0.17795132       0.45858818
F        1.88391020      12.01594510       2.16254663       0.95334903      -1.07262696      -0.01357674
C        4.68533390      10.92660341       1.40994001      -0.75735282       0.48779554       0.20562342
F        4.79773635      10.35543606       0.23727484      -0.66001213       0.40079065       0.57570156
F        5.86361507      10.73987620       2.11510766      -0.30790077       0.32343743      -0.09659231
F        4.40985633      12.24847522       1.15599362      -0.69487814       0.14682062      -0.31158851
H        3.53072923       8.66338980       1.33546799      -0.02385156       0.12112549      -0.10472305
H        3.63992357      10.86477365       3.20506187       0.25840453      -0.05075556       0.04356747
O        7.71941409      13.15211828      13.85423928      -0.78484026      -0.80761474       0.36657025
C        8.21606719      13.59224047      12.62915249      -0.07485245      -0.36022321       0.09094059
C        9.59932898      14.25666796      12.76778526      -1.01360790       0.15261971       0.45982017
F       10.40598788      13.57086553      13.59271018      -0.91102740       0.33411047      -0.45355840
F        9.54692689      15.51862805      13.14949235       0.00069271      -0.02710641       0.31904054
F       10.22274882      14.24464678      11.54292364       0.50555489      -1.55312171      -0.27304090
C        7.13672676      14.50994201      12.10212474      -0.17751598      -0.34920035      -0.13375056
F        6.85037744      15.42948916      12.96641698      -1.22926430       0.97179468      -0.24171773
F        6.00821466      13.78067275      11.81791445       0.76614198       0.73162653       0.43372233
F        7.43172027      15.15507276      10.94388017       1.05167126       0.37438786       0.46428293
H        8.12269170      12.28509982      14.02593032       0.17502338       0.28969564      -0.21842548
H        8.44704086      12.81866618      11.88894087      -0.03630998      -0.07352883       0.48966041
O       13.57324144       9.45168696       1.75112147       0.38194509       0.84428330      -0.19591882
C       12.85646141       9.18692496       2.92165313      -0.22713402       0.34730236       0.59043153
C       13.33744594       9.95550097       4.23291825       0.23065466      -0.50748700      -1.44417170
F       13.68871956      11.18509229       3.88475769       0.98746344      -0.04080569      -1.36314838
F       14.43078426       9.34254902       4.82753329       0.64863602      -0.09388003      -0.11118081
F       12.35268327       9.87348956       5.13980654      -0.26298318       0.04028444       0.75269741
C       12.67877546       7.68468742       3.07456482      -0.24901481      -1.00273499       0.99253467
F       13.75544160       7.09162220       3.61709994       0.83971829      -0.47523150       0.23966950
F       12.55140557       7.19604900       1.82842526       1.52717099      -0.65597077      -0.01307249
F       11.61437831       7.33692729       3.77907317       0.55331650       1.94815855       0.03010900
H       14.53283614       9.45007375       1.93101047       0.03963184      -0.13174311      -0.26476017
H       11.91327133       9.65182502       2.74386722       0.04128743       0.04973721       0.07393312
O       10.47225842       4.80983522       0.94862668      -0.03196565       1.64192567       0.81875213
C       10.45679027       3.84818227       1.98132778       0.77727199       0.17837825      -1.17003323
C        9.43760317       4.30994787       3.03231501       0.39961919      -0.49218293      -0.23184519
F        8.29354652       4.50787994       2.34418384      -0.26539136       0.10574516      -0.53646513
F        9.78118684       5.41591654       3.62284802       0.89818234       0.00619116      -0.72315987
F        9.08364770       3.34114272       3.92275299      -0.33099529       0.64991383       0.74744398
C       11.88065600       3.47725256       2.43562707       0.48070794       0.55146485       0.17423039
F       12.62520516       4.47819332       2.82057752      -0.31829273      -1.11546670      -0.55985058
F       12.59818280       2.78802726       1.51192785      -0.09633456       1.84186448       1.22941700
F       11.82400062       2.68951375       3.56065501      -0.05611781      -0.33808556      -0.05603123
H       11.07273284       5.50946316       1.16827736      -0.03603379      -0.18098136      -0.31723919
H       10.05034125       2.91942310       1.54165128      -0.25803967       0.18112297      -0.16112951
O       10.31864083       7.80097815      13.52379341      -0.11216945      -0.58862072      -0.04926118
C        9.73548802       9.08871241      13.50651112      -0.11808455      -0.21832847       0.64372009
C        9.58803776       9.61309510      14.89086846      -0.75370779       0.19272249      -0.22610551
F       10.80339391       9.56750972      15.45929912      -0.90689050      -1.34165895      -0.13781357
F        8.66020721       8.92705805      15.63079193      -1.71717191      -0.63456337       0.22325327
F        9.21863264      10.94719532      14.90952862       0.39599556      -0.72375699       0.45423461
C        8.39096538       9.07849615      12.75418432      -0.06653333       0.00440522      -0.30342390
F        7.60219973       8.08050014      13.33384724       0.17444150      -0.07484189       1.17046927
F        8.60867991       8.67899201      11.49307594       0.42822436       0.29741071      -0.34468257
F        7.71212473      10.26133279      12.74408012       0.57605179      -0.05980240       0.05490172
H        9.72530963       7.23914207      14.05751358      -0.29380481      -0.17010972       0.12015696
H       10.49090647       9.79418376      13.07541387       0.04452915       0.00277385       0.01783546
O        4.80547414       1.71135906      11.91691519      -0.11924402      -0.90649478      -0.97780608
C        3.44495311       1.49299227      11.74990871      -0.05668176       0.38447488       0.70466890
C        3.13514145       1.80592862      10.28673608       0.39022685       0.26758197       0.31833117
F        4.04778110       1.13705530       9.50059462       0.14803204       0.59808654       0.36785685
F        3.08980910       3.11568601      10.06716865      -0.04939706       0.59086506       0.80635831
F        1.89581821       1.37682389      10.01039345      -0.54573902       0.47201749      -0.13674150
C        2.63609221       2.30444156      12.77843784      -0.10604775      -0.20790588       0.31788435
F        2.36628415       3.56271235      12.44378859       0.52845760      -0.27216039      -0.60749973
F        3.37951600       2.44261422      13.87245646       0.05142223       1.24139344       1.20632609
F        1.41863377       1.78985460      13.10737231      -0.33379815       0.69900331       0.89181058
H        4.97462769       1.52019084      12.86780489       0.32298788       0.07289354       0.20068812
H        3.23475981       0.38785665      11.94271175      -0.12914524       0.15725737      -0.19864569
O        2.92832612       6.49415695      11.77738539      -0.11952617      -0.17937351      -0.32616430
C        2.44570664       7.63833510      12.41022086      -0.43739725      -0.02920101      -0.32406329
C        3.58064051       8.65462843      12.45235265       0.45312199      -0.76036302      -0.41440062
F        4.03399169       8.85423829      11.24155702      -0.28310834       0.52426812       0.88509811
F        4.58660434       8.17320545      13.11652977       0.38399239       0.52134081       0.13212138
F        3.15349388       9.81061577      12.96977669       0.77894155       0.65180430       0.26673376
C        1.88559022       7.31724027      13.81872268       1.08865441       0.06876629      -0.73681432
F        2.66642124       6.53831240      14.52859346      -0.00620939       0.92963304       0.80891907
F        0.66114874       6.80565343      13.73432993      -1.25531934      -0.39983107      -0.98886261
F        1.68472930       8.46251211      14.50936232       2.28842753       0.11442819      -0.44300134
H        3.52463784       5.88748801      12.32521300       0.03416683       0.08997061      -0.36242083
H        1.61875867       8.02284282      11.82454865      -0.10099710      -0.00037418       0.12342793
O        4.04803119      15.13650397       6.75296294       0.23729310      -0.89974256       0.38442773
C        4.90506704      14.05953294       6.81651764      -0.60827115       0.63355889      -0.33355080
C        6.31296669      14.71129727       7.05490757      -0.29614697      -1.25079001      -1.20735505
F        6.46233265      15.05014605       8.37166142       0.06575846      -0.71766033      -0.13648810
F        6.52621100      15.79005563       6.29384362      -0.02424147       0.34338618      -0.27507384
F        7.36463482      13.82848448       6.88281120       0.29749762      -0.32284713      -0.34203446
C        4.85154981      13.24112203       5.53754286       0.04155927      -0.02360958      -0.49980856
F        5.35775675      13.91474017       4.45788242      -0.52110697       0.59670482      -0.00737604
F        3.56260624      12.93244080       5.26767251      -0.16516576       1.13205063       1.32034139
F        5.48826450      12.10919531       5.74446145      -0.28751558      -0.01540490       0.80372724
H        3.49594435      15.08279720       7.53023249      -0.06648999       0.01060164      -0.25000715
H        4.72882337      13.36299203       7.66456178       0.06552818      -0.02499919      -0.17649204
O       13.29083214      14.98406396       8.04974036      -0.42341640       0.37842763       0.75421438
C       12.28427898      13.96857089       7.84104324       0.46605701      -0.57664572      -0.38591533
C       12.60915211      12.96496978       6.72872862       0.37128187       0.53199565       0.01981430
F       13.60999825      12.17115430       7.08887862       0.81761303      -1.30749593      -0.15097529
F       12.87247152      13.56302669       5.60464386       0.71703699       0.11904393       0.02517122
F       11.46990221      12.23880235       6.54833605      -0.23445606       0.30082468       0.09760763
C       10.89463029      14.61464220       7.58989429       0.55114442      -0.50902484      -0.10183062
F       10.68011808      14.58497922       6.22183355      -1.40947921       0.21305820       0.76868433
F       10.80305035      15.81527123       8.04301249      -1.37721618       0.32726700      -0.62173930
F        9.91964624      13.89898293       8.09756277      -1.08652671       0.33084905       0.29492670
H       13.44481776      15.61806605       7.37403440       0.11293635      -0.18312834       0.21062083
H       12.27031283      13.35911248       8.74918896      -0.01922616       0.40213371       0.24126654
O       14.66959334       7.69073494      10.96557283      -1.24096042       0.06681032       0.22278748
C       13.45735081       8.09177806      11.52467796       0.32892002       0.31154747      -0.27324031
C       12.39032327       7.83231975      10.43485993      -0.21979104      -0.49307421      -0.51787040
F       12.26760874       6.46030388      10.40658933       0.08672450      -0.90287137       0.44789884
F       12.84485311       8.21328912       9.27910778      -0.58053956       0.04451087      -0.86430841
F       11.14950122       8.38888132      10.54154094       0.23162312       0.31873310      -0.77626967
C       13.68123978       9.51878428      12.08070729       0.10574384      -0.21435575      -0.10868185
F       13.93349527      10.36595981      11.16602622       0.88716324       0.88278499       0.40726994
F       14.73322037       9.44547518      12.92901857       0.11889020       0.45156372      -1.08375510
F       12.63815587       9.94434759      12.86859421      -0.17990135      -0.71190891       1.32868303
H       14.98961333       6.91376911      11.37881799      -0.00535096       0.19200137       0.20348974
H       13.20714617       7.49895303      12.49715513      -0.10212722       0.19817261      -0.04310583
O        1.93273760      13.82739466       8.54806097       1.29151782      -0.57145204       1.32172183
C        2.12060542      12.71110803       9.41965230      -0.44475608      -0.69515629      -0.01856905
C        2.29015325      11.37927293       8.62365659       0.11082621      -1.44099841      -0.13678132
F        3.31290787      11.60825593       7.84461561      -0.58693809       0.60327238      -0.44154325
F        1.26618766      11.01099792       7.81364068      -0.09321928       0.72064693       0.92243015
F        2.59626987      10.25953142       9.33787605       0.64084589       1.63612311      -0.57526769
C        0.98766214      12.71819249      10.40082731      -0.01959958      -1.01358651       0.42083435
F       -0.20499532      12.89032503       9.81576243      -0.11053222       0.73521794      -0.75013647
F        1.17962334      13.70535260      11.25678816       0.32763261      -0.06094584       0.16545356
F        0.98087284      11.60700830      11.16031483      -0.27972144      -0.50117827       0.00014610
H        1.05927415      13.81838866       8.10908238       0.00368588       0.13269544       0.20352037
H        3.10531912      12.75176807       9.94610774      -0.01556631       0.15855103       0.02056595
O        8.96246884      13.12408228       4.32426330      -0.32263230       0.67690565       0.48877521
C        9.72267990      13.72976028       3.26982149      -0.04487284       0.05776090       1.21467512
C        8.73877652      14.36455227       2.25216739       0.56697303      -0.30105783       0.51166830
F        7.98291078      15.24757534       2.92304170      -0.02591873      -0.12121855      -0.45051952
F        7.90548163      13.47822271       1.74900453       0.75006106      -1.90226693      -0.76540135
F        9.36843255      15.06208140       1.32622850      -1.44083100      -1.16717823       0.92254218
C       10.58298933      12.63646267       2.59106981      -0.75333799       0.88430906      -0.47702804
F        9.90209653      11.53595049       2.34148971       0.65656860       0.86353803      -0.74875777
F       11.56867171      12.36545148       3.39673403      -0.96906912      -0.03456067      -0.04431570
F       11.08831228      13.07583687       1.38974606      -0.39011315      -0.20763738      -0.12435401
H        8.97764583      13.67693716       5.10069163      -0.25939303      -0.09407474       0.03470743
H       10.39627903      14.56252152       3.60142872       0.06843334      -0.10713869       0.01894366
O        7.54713488       4.70072585       9.12320421      -0.22152331      -0.25735702       1.11978581
C        7.05332042       4.38110272      10.41175388      -0.13999099      -0.08821072       0.49343191
C        5.91635179       5.26097949      10.79570007       0.24677069      -0.45082209      -0.61446078
F        4.84086498       5.17278518      10.03253605      -0.21977698      -1.04599248      -0.30738404
F        6.38935193       6.52978349      10.72917596       0.25545840       0.32687211      -1.80538998
F        5.49826427       5.16171651      12.07643686      -0.02532691       1.29716480       1.06760518
C        8.19498242       4.42849147      11.39864416      -0.62957789       0.76713147      -0.67363487
F        8.69420917       5.70128444      11.49719641       1.20502795       0.29783703       0.42335802
F        9.23450470       3.69988253      11.01775005       0.67322896       0.02591144      -0.42702045
F        7.83457221       4.13018786      12.66030031      -0.14308605      -0.52218306      -0.53880311
H        7.86004631       5.63211827       9.23746411       0.05520240       0.16524320      -0.12034396
H        6.73500371       3.32496629      10.38574367       0.23616017       0.02609848       0.00649457
O       12.04115668       3.53890875      11.14161121       0.30684668       0.29519148       1.49273520
C       12.47268138       3.09765213      12.39194484       0.83559592      -0.32056751      -0.24234585
C       13.06901880       4.23860630      13.16113612      -0.03128936       0.87404809      -0.91116209
F       12.17683802       5.26187448      13.31357626      -0.10542405      -0.47597048       0.57247552
F       14.24037040       4.76877003      12.71725093       1.35290526      -0.22777013       0.73987608
F       13.32561831       3.79149465      14.39683620      -0.42063991      -0.40843978       0.91780918
C       13.40969384       1.92601815      12.05381473      -0.38197838       0.10762953       0.76329419
F       14.51354928       2.29060913      11.45025450       1.51482291       0.57655643       0.65997494
F       12.76373470       1.05560463      11.30636184       0.30448855       0.68061855       0.80484639
F       13.68713078       1.25649250      13.18003985       1.50360873      -1.24427233      -0.25930253
H       11.18775032       4.03275518      11.30962381       0.13476701      -0.16397188      -0.17781156
H       11.62549493       2.72231688      12.95088132      -0.30694109      -0.52839124      -0.33841032
O        7.96663744       8.24235198       7.86658026       0.23575348       0.05099817       0.06005791
C        8.36117735       8.33745137       6.46992754      -0.15276979      -0.09263688      -0.50452851
C        8.33668717       9.76650407       5.97798411       0.44708675       0.19846134      -0.41153541
F        9.06579425      10.65057183       6.64730500      -0.81503031      -0.00950198      -0.58628092
F        7.11597774      10.28856552       6.04406945      -0.69072226       0.15148773       0.38944069
F        8.74174587       9.73253422       4.71443435       0.94380831       0.63814054       1.61815289
C        7.41094750       7.32479013       5.77927387      -0.46160732       0.82300155      -0.81244319
F        6.12284078       7.52673368       6.10716440      -0.27963973       0.09322218      -0.46807699
F        7.82228759       6.12356108       6.24733231       0.50719284       1.13261774       0.83708726
F        7.46421813       7.23473807       4.48819065      -0.72307619      -0.54212156      -0.50481130
H        7.12115925       8.67339299       7.89207301      -0.54069035      -0.05030276       0.02326540
H        9.44112262       7.97820283       6.30985167      -0.02256491       0.14760607       0.20080311
192
Lattice="15.212445496587343 0.0 0.0 0.0 15.212445496587343 0.0 0.0 0.0 15.212445496587343" Properties=species:S:1:pos:R:3:momenta:R:3 Built=T with=T Packmol=T charge=0 spin=1 external_field="_JSON [0.0, 0.0, 0.0]" pbc="T T T"
O       12.99687367       6.09374194       6.99679053       0.51219730      -0.85259191      -1.06431642
C       12.79604230       4.73377541       7.11303215       0.02779107       0.78935607       0.33078673
C       11.31112227       4.51588940       7.61939120       1.27159819       0.18017447       0.18402348
F       10.44109024       5.00736657       6.70557624       1.06129732       0.27531591       0.27975184
F       11.00248129       5.08898392       8.78051771       0.30097543      -0.96133086      -0.00011472
F       11.13847120       3.19104730       7.73310745      -0.08817028       0.00226045       1.00738094
C       13.98005857       4.21700451       8.00880653       0.73566966      -0.20815082      -0.36685258
F       14.23128502       5.05215855       9.02019887       0.08767187       0.21280400      -0.37265675
F       15.09292558       4.21290104       7.32410054      -1.00031863      -0.94280622       0.44883500
F       13.73893140       2.92447363       8.39540211       0.13870315      -0.14684798       0.57438792
H       12.74454197       6.29812276       6.09529619      -0.03082191      -0.26002477       0.28073226
H       12.86011557       4.24440225       6.11510217      -0.02323623       0.02243592       0.09681174
O        3.51723732       8.91208094       2.30708642      -1.08759669      -1.56952935      -0.19145123
C        3.50055339      10.33158891       2.28910880       0.66621004       0.56773925      -0.15518233
C        2.13433163      10.83963635       1.77826274       0.12234462      -0.04227775      -0.01095176
F        1.15440813      10.15349914       2.46160672      -0.18112082       0.76865931       1.20079161
F        1.88562883      10.65330163       0.46214497      -0.69234202      -1.56839081      -0.05024974
F        1.91220565      12.13059684       2.02786813      -0.00344260      -1.49693198       1.06860919
C        4.70175096      10.85412521       1.47642229       0.20561572      -0.04900009      -0.53671955
F        4.85923050      10.24796573       0.31258077       0.11953423       1.39396557       0.71806537
F        5.80690369      10.67812612       2.24645012       0.90398899      -1.39614355       1.18903351
F        4.45748008      12.16116102       1.28130868       0.73300658       1.28300182      -1.37019868
H        3.51832038       8.64230340       1.37249301      -0.08304726       0.21456031       0.00190030
H        3.60338594      10.69684212       3.35598669      -0.19226989       0.41776544      -0.02915839
O        7.69940478      13.11060968      13.88160063       0.28276745       0.58695491      -0.19257505
C        8.19871742      13.51636624      12.70227625      -0.19209999       0.54314729       0.29923683
C        9.61775391      14.20414323      12.77344568      -0.50150669       0.26399073       0.83971676
F       10.39098000      13.51507288      13.61676693       0.23853986       0.77970497       0.40906091
F        9.54927570      15.49287309      13.17015937      -0.26840163       0.09304788       0.28891090
F       10.27038180      14.29291585      11.58537147      -1.21244179      -1.64177249      -0.24168706
C        7.11788349      14.48069643      12.09847688       0.21324503       0.07007101       0.80042138
F        6.78323270      15.39963758      13.04858528       1.52743578       0.13473745      -1.12077245
F        6.01829435      13.76516915      11.83125369      -0.57916481      -0.27656879       0.63501702
F        7.45398745      15.13590833      10.98315256      -0.93236827       0.05188849      -0.21294911
H        8.10383837      12.27055197      14.19009062       0.06597865      -0.06757657      -0.17701407
H        8.27802546      12.71686197      11.96411323       0.27509264       0.16294938      -0.09594037
O       13.64956781       9.46798907       1.81011385      -0.13056666       0.74783352      -0.37387710
C       12.87455737       9.22361839       2.93512040       0.11422568      -0.61361011      -0.20130793
C       13.40508324       9.87506093       4.24198544      -0.93097434       0.78706435       0.48482592
F       13.70998362      11.21237103       3.98307622      -0.24309107      -0.53424355      -0.02927581
F       14.37038159       9.29794860       4.90488107       0.30222561      -0.59228224      -0.00327744
F       12.33399407       9.84590129       5.16211413      -1.15859062      -0.78072215       0.06634696
C       12.67440013       7.69367374       3.01778942      -0.36857965       0.31918512       0.04651928
F       13.77668459       7.05027616       3.59438899      -0.59343802       0.61516286      -0.24189874
F       12.62061179       7.22834663       1.75350197      -0.29794848       1.06766309      -0.18423866
F       11.57645387       7.32717249       3.67718852       0.39705560       0.48586269      -0.23916360
H       14.58926578       9.25965413       1.92519223      -0.01054829       0.33180156       0.04398218
H       11.91542548       9.69308511       2.77718417      -0.07783425       0.23281895      -0.11084511
O       10.52442392       4.81948084       1.01519268      -1.18018469      -0.32174614      -1.06930548
C       10.51213135       3.84595004       1.97014301      -1.09450665       0.42159151       0.13062725
C        9.44448196       4.24135828       3.01598418       0.16427067       1.00228577       0.22373665
F        8.30910182       4.45181007       2.33852107      -0.38758550       1.25869379      -0.13869617
F        9.79445429       5.42960016       3.64271553      -0.49895336      -0.27963992      -0.32146265
F        9.09540788       3.34138644       3.90363908      -0.93726227      -0.28917633      -0.19272247
C       11.95816874       3.43807548       2.48222717      -0.34349702       0.79317826      -0.48650502
F       12.62730652       4.51133421       2.86515797      -0.49329391      -1.39045053      -0.55799063
F       12.60784115       2.79373909       1.50166619       0.11209100       0.03758868       0.09934857
F       11.78279946       2.70874763       3.55618367       0.80609146      -0.30114444      -0.05199651
H       11.16759461       5.49797428       1.23134519       0.00164612       0.11755948      -0.05804572
H       10.09159126       2.95544927       1.45064929      -0.00756462       0.14005635       0.01388353
O       10.31837270       7.64217287      13.35722661       0.34752493       0.18868699       0.76795991
C        9.77454359       8.89522666      13.33709495       0.39471259       0.52702543       0.54239409
C        9.60048742       9.45211232      14.75734811       0.03747148      -0.32685851      -0.13148135
F       10.79938282       9.35390327      15.35044755       0.91687446       1.44064842      -0.68510305
F        8.67931981       8.78619160      15.45364687      -0.19662895      -0.53608094       1.29609915
F        9.23598363      10.76310903      14.76924495       0.04264001       1.03388147       0.32405090
C        8.39971029       8.82290572      12.64941457       0.59820108       1.43301030       0.02146520
F        7.57213496       7.90779743      13.18063308       1.11614995      -0.13785329       0.82564218
F        8.62945202       8.52953106      11.36474196       0.22316888      -0.25596806      -0.24115942
F        7.74467663      10.11016556      12.58733692      -0.62358857       0.62929365       0.50741028
H        9.88706163       7.04626135      14.01533118      -0.19251169      -0.01500719      -0.01370067
H       10.35651160       9.57188122      12.68293289       0.09466750       0.04287266       0.41009220
O        4.81519358       1.72287807      11.93335658      -0.23929763      -0.41181530      -0.17373492
C        3.46848757       1.48394987      11.72802297      -0.10779557       0.01148731       0.14196899
C        3.13937279       1.77662932      10.27064291       0.48566598       0.42717560      -0.24735764
F        4.01138478       1.11895961       9.51673814       1.15949945       0.19468396      -0.31333144
F        3.13516003       3.10077316      10.08301732      -1.50570044       0.54428875      -0.05774506
F        1.85761098       1.37480941      10.00255102       0.64213776       0.14631612       0.27471162
C        2.60328514       2.31479773      12.79366243       0.46890033      -0.58229562      -0.23589333
F        2.33113439       3.56580621      12.40816989       0.77771515      -0.17179063       1.02522207
F        3.43133240       2.43831553      13.91522523      -0.98340085       0.35050622      -0.97348811
F        1.41665155       1.81854631      13.11672360      -0.32862785      -0.45834628      -0.28409596
H        4.98255295       1.60131652      12.87179649      -0.23290805      -0.10818657      -0.19287196
H        3.19083599       0.42200304      11.91739931       0.19195712       0.26573595       0.03757003
O        2.92713060       6.53071206      11.80276642       0.45934117      -0.93151414      -0.07200834
C        2.42542339       7.67316446      12.43315116       0.23932963       0.15061043      -0.40512601
C        3.52504473       8.68519027      12.45292719       0.66053842      -0.17959067      -0.01236786
F        3.99020682       8.85136101      11.21703523       1.15838859      -0.18450379       0.91016465
F        4.61045058       8.19929241      13.15363114      -0.58343404      -0.68291262      -1.18355078
F        3.16885823       9.80701991      13.00521727      -0.42238649      -0.37276036      -0.93418312
C        1.90276014       7.32551152      13.81021703       0.13844637      -0.99855087      -0.04891963
F        2.65034217       6.54243977      14.57602472       0.16035579       0.18796000      -1.20603519
F        0.68546331       6.80662909      13.74132250      -0.42206434       0.42124758       0.00650330
F        1.70878629       8.45570227      14.52400348      -0.79540390       0.18465721      -0.41102696
H        3.44769657       5.95698554      12.39746609      -0.10189409       0.01334607      -0.44867845
H        1.57586134       8.01673530      11.83396852      -0.06055190      -0.13507895      -0.08536460
O        4.03834510      15.12255565       6.73507086       0.41757263       0.22845534       0.32596562
C        4.92348315      14.06247058       6.83744843      -0.70781458      -0.48563237      -0.04392514
C        6.34296844      14.72804076       7.10421020      -0.76932885       0.27637199      -0.79112347
F        6.51084107      15.08231807       8.38127302      -1.02583763      -0.95343564      -0.02254387
F        6.54362250      15.78826770       6.29968591      -0.36014135       0.30714409      -0.40876578
F        7.36480396      13.84030768       6.85393766       0.31878453      -0.51762072       0.85216066
C        4.86173668      13.24472767       5.52145127       0.02593911      -0.54482869       0.04038705
F        5.34953073      13.90416389       4.45783064       0.28349401       0.64998154      -0.27352134
F        3.56049815      12.95624009       5.27774533      -0.17109837      -0.58973283      -0.15961321
F        5.50812061      12.10030487       5.78549866      -0.59538755       0.33768119      -0.70449964
H        3.40556497      15.13238352       7.43305582       0.17272601      -0.02972722       0.13882238
H        4.61202038      13.26128983       7.61692771       0.03988055       0.03675097      -0.11406791
O       13.31509533      14.94793835       8.06225375      -0.43254171       1.07809548      -0.19296641
C       12.29101329      13.98961339       7.84222721      -0.57272674      -0.93597361      -0.30094451
C       12.57402131      12.99100575       6.72152701       0.70370861       0.06683836      -0.64667766
F       13.63895699      12.16909859       7.10877745      -0.39971732      -0.24064869      -0.26265928
F       12.87425546      13.56696306       5.58138145      -0.34971680      -0.20000527       1.02486158
F       11.48589876      12.21345468       6.57901061      -0.72543828       0.72084596      -0.73385860
C       10.93822084      14.62839127       7.60603642      -0.58253375       0.55159569       0.52582108
F       10.73126735      14.61762390       6.20791721      -1.22175367      -1.23302101       0.02987019
F       10.77548307      15.83075035       8.04341883       0.61397460      -1.10752789      -0.16111979
F        9.94309030      13.90296719       8.09673959      -0.45102330       0.12741656      -0.16681413
H       13.45529537      15.48499101       7.30661082       0.15404501       0.31412448       0.11138580
H       12.21640332      13.48198352       8.81089931       0.09506952      -0.08555571      -0.03757268
O       14.73241636       7.78757520      10.87403830       0.20232773      -0.04375383       0.34863470
C       13.51107788       8.19663758      11.49793860       0.26557505      -0.30633448      -0.17582808
C       12.47032580       7.89508629      10.38155014       0.15093877       0.32905393      -0.16192840
F       12.34273875       6.57085820      10.31314688       0.03135926      -0.80310617       0.65772265
F       12.93459665       8.31137190       9.21981264      -0.60775707      -0.34441939       0.27240795
F       11.22009962       8.47868558      10.47287667      -0.43440873       0.26829286      -0.11546002
C       13.71929694       9.59260462      12.03950026       0.08998984       0.45064443      -0.65438145
F       14.00900268      10.48976491      11.09108728       0.05029451      -1.11052551       0.62661262
F       14.83130120       9.53868952      12.83738165      -0.51367535      -0.06593016       0.86591353
F       12.75822938      10.07360574      12.79850294      -1.03275623      -1.01103996       0.29954003
H       15.08231572       7.06653015      11.37676379       0.09553372      -0.17038709       0.01978946
H       13.20968171       7.57351200      12.32748851       0.20445010       0.34112002      -0.21008857
O        1.95466960      13.83116912       8.54600292      -0.45518031       0.41267626      -0.18060709
C        2.10943174      12.67997309       9.43438450       0.27891350       0.25805871       0.49354705
C        2.31429456      11.35965700       8.61742590       0.39076106       0.36464188      -0.26130727
F        3.32036078      11.60384766       7.84684863      -1.07911477       0.04315696       0.61337400
F        1.28348827      11.02114431       7.84051624      -0.35569293      -0.47787694      -0.80586463
F        2.58780262      10.29852726       9.35212283       0.18944612      -1.10798922      -0.58084561
C        0.97358886      12.73232564      10.40650273       0.09861417       0.36905306      -0.58298642
F       -0.18703671      12.86622257       9.78935157      -0.28982651       0.59437089       0.74469781
F        1.17387794      13.72579867      11.24367991       0.22596364      -1.04627790       0.13741435
F        0.93427150      11.62391252      11.17674556       1.20323435      -0.46209067      -0.21224111
H        0.97593255      13.87592130       8.33022695      -0.06924651      -0.06386570      -0.30604218
H        3.00358621      12.92833819       9.98248173       0.07502120      -0.20759333      -0.14278044
O        8.97331604      13.10552248       4.30841561      -0.39152089       0.30119306       0.67497462
C        9.71741866      13.74415819       3.27506808       0.36181551       0.14970303      -0.24323356
C        8.79198949      14.40523332       2.28497198      -0.01509163      -0.33392807      -0.89362149
F        7.99612099      15.28822830       2.89640596      -0.35316872      -1.10151244       0.61135643
F        7.92006402      13.42927231       1.75743640      -0.82091339       0.92036998      -0.23453562
F        9.37636849      15.04791703       1.29312227      -0.40796413       0.30906496       1.20522970
C       10.57731484      12.66761041       2.54349898       0.39177444      -1.00610112       0.71065153
F        9.87529092      11.54463774       2.31782285       0.66838782      -0.21281391       0.65939038
F       11.57257348      12.36104134       3.35953074      -0.47491426       0.32676501       0.80450540
F       11.11245983      13.10862857       1.38863832      -0.51223880      -0.70351817      -0.17786341
H        9.01585950      13.65335329       5.09930743      -0.06553796       0.09387686       0.11775629
H       10.33145180      14.46404890       3.79262209      -0.12551681       0.04085342      -0.08097599
O        7.57230249       4.68448000       9.08043694       0.15717260      -0.68194042       0.47007840
C        7.06856665       4.34141612      10.38801433      -0.25693926       0.38529507       0.68443737
C        5.92791445       5.32739871      10.80792114      -0.11198941      -0.86559945      -0.17451790
F        4.89182958       5.13758682       9.98893914      -1.00926867       0.57955126       0.52364160
F        6.33745070       6.53843107      10.69848675       1.48506398      -1.10328020      -0.35868062
F        5.48199837       5.19844163      12.02951773       0.31215166       0.41410842       0.09529745
C        8.18238585       4.44398725      11.44104300      -0.31154899      -0.80384728      -0.18690812
F        8.69823888       5.68264655      11.50085436      -0.07272914       0.48201644      -0.11817061
F        9.24826558       3.70121442      11.06398978      -0.37283650      -0.02665516       0.13999447
F        7.79003858       4.18894860      12.67275988       0.60034859      -0.02670251       0.39576912
H        7.81935182       5.64395517       9.11145702       0.03686308      -0.12470284       0.31734366
H        6.59781479       3.31844978      10.51564611       0.13761316       0.08593729       0.16010371
O       12.02613909       3.51995391      11.10637505       0.09785745       0.38067213       1.00726916
C       12.46942009       3.10664967      12.33147814       0.12721009      -0.24113683       0.81505767
C       13.10167655       4.27653782      13.19998571      -0.45558796      -0.30613266      -0.49455966
F       12.13998325       5.22269045      13.29859209       0.69568224       0.96013179       0.53000375
F       14.26028405       4.78593246      12.69989558      -0.04286633      -0.40168494       0.35330138
F       13.30730050       3.81148021      14.41879809       0.29397770      -0.57014382      -0.73543241
C       13.42168367       1.93483343      12.10001280       0.34296093       0.04148781      -0.64897987
F       14.51505133       2.31116609      11.46572606      -0.39886181      -0.62725525      -0.30641688
F       12.79425785       1.04537539      11.28667327      -0.75655712       0.24422279       0.59009167
F       13.71819886       1.25700782      13.19757589      -1.00841086      -0.07434564      -0.70000701
H       11.25789348       4.13213901      11.15756838       0.07280129      -0.25393686       0.20073520
H       11.69169034       2.70414464      12.96781436      -0.24244529      -0.02509697      -0.02011000
O        7.94550249       8.22221358       7.89586028       0.27418555       0.26777747      -0.54188038
C        8.34655760       8.33110772       6.54349897       0.89794540      -0.25875792      -1.66076345
C        8.32973664       9.79685809       6.00402786       0.05532179       0.01114436      -0.51402329
F        9.12398416      10.63418002       6.66694509      -1.75728740       0.51248042      -0.60840472
F        7.12080962      10.28859227       6.07719023       0.38034115      -0.10268689      -0.75483830
F        8.73789208       9.71897715       4.73682846       0.04178999       0.17491827      -0.32498382
C        7.43529204       7.32930964       5.81473379      -0.53515603       0.18220205      -0.83285686
F        6.16389379       7.50402973       6.12355155      -0.78918677       0.43862570      -0.67210702
F        7.77283971       6.10746480       6.27367917       1.30472216       0.39393261      -0.65455282
F        7.43878156       7.29252728       4.49793621       0.38288881      -1.59496362       0.30942868
H        7.07590325       8.61513858       8.09458800      -0.19874930       0.18028732      -0.06960218
H        9.39219770       7.99415649       6.44330920      -0.23781644       0.19400139      -0.29024676
192
Lattice="15.212445496587343 0.0 0.0 0.0 15.212445496587343 0.0 0.0 0.0 15.212445496587343" Properties=species:S:1:pos:R:3:momenta:R:3 Built=T with=T Packmol=T charge=0 spin=1 external_field="_JSON [0.0, 0.0, 0.0]" pbc="T T T"
O       12.94897355       6.11588840       6.97024452       1.01490931       0.05444702      -0.72292852
C       12.81514760       4.71893986       7.09670809       0.30767593       1.08820443       0.76729339
C       11.29829257       4.47456152       7.61029241       1.10299141      -0.95488149       0.08272756
F       10.42299671       4.98996616       6.72251945      -1.30876644       0.51535430      -0.32263022
F       11.07742181       5.12242346       8.75725065       0.11963247      -0.10496167      -0.32126606
F       11.11424742       3.17117264       7.73523729       0.74112589      -0.65204506       0.67093858
C       13.95730551       4.21756176       8.00622005       0.61925002       0.28768150       0.70037081
F       14.15189727       5.01809892       9.08247314       0.05288526       0.16518313      -1.04706932
F       15.09461488       4.19572446       7.33819166       0.20056047      -0.55828183       0.42628968
F       13.79156284       2.91628292       8.41155299      -0.75425268      -0.06019455      -0.36354176
H       12.73003379       6.41197966       6.04993243      -0.10394027      -0.07824653      -0.00994504
H       12.87252972       4.23505761       6.18770781      -0.17043220       0.14484555       0.01615950
O        3.52694035       8.94126320       2.31423650       0.15510861       0.81046256      -0.20876743
C        3.48138755      10.29970536       2.27406792       0.11435361       0.40947903       1.03205194
C        2.07416999      10.82556387       1.80597302      -0.08211691      -0.10944120       0.75953764
F        1.13828850      10.11272426       2.44441944       0.15199350      -0.33038747       0.13710583
F        1.88048984      10.62646089       0.49607749      -0.54849882       1.77403357      -0.47268717
F        1.93038465      12.15563952       2.00646233       0.00156359      -0.30799815      -0.71229929
C        4.66672083      10.87183891       1.47675723       0.66096901       0.42231613      -0.26966928
F        4.84448296      10.23088874       0.31278610      -0.27340563       0.55751552       0.02651144
F        5.76659631      10.63636857       2.22117507       0.52098571      -0.60107915       1.19382534
F        4.42137121      12.16355821       1.24005106       0.35000924      -0.60498156       0.25272045
H        3.24284449       8.65713469       1.43213359       0.23797701       0.17540357      -0.17176998
H        3.64330899      10.72625641       3.26904579      -0.20113317       0.17322128       0.07123501
O        7.68186769      13.11288933      13.89463915       0.61844076      -0.45416766       0.84136514
C        8.19045987      13.53741958      12.66643132       1.01592090      -0.19809557       0.32600387
C        9.59619487      14.20843768      12.79092055       0.12080609       0.08735976       0.35493833
F       10.35627037      13.49846231      13.62259405       1.61083402       0.38319066       1.81609556
F        9.62353382      15.50734743      13.21929281      -0.27527104       0.05018289       0.77963045
F       10.23953208      14.25160253      11.62251646       1.12579391       0.54397698       0.26151234
C        7.08276706      14.48016888      12.14006967      -0.33590064      -0.18680382      -0.32371531
F        6.81240547      15.38566841      13.06262008      -0.09890441      -0.12088094      -0.42606488
F        6.02377376      13.78444406      11.77660681      -1.13099373      -0.04317516      -0.32322934
F        7.42949021      15.17878572      11.04190082       0.70693150      -0.98972532      -0.27257872
H        8.12701032      12.32144028      14.13318539      -0.02017587      -0.17842028       0.04727617
H        8.30733320      12.69246864      11.93546340      -0.26423395       0.25540299       0.00639204
O       13.80373754       9.56005572       1.78728440      -0.99509130       1.64735346       0.13250317
C       12.95825966       9.30473675       2.83812799      -0.12548777      -0.63186237       0.39343198
C       13.47701669      10.01510940       4.20596247       0.60653028       0.37519216       1.04314218
F       13.79907946      11.26821876       3.94332592       0.26888112       1.41556222      -0.00894055
F       14.44581494       9.41700339       4.85720028      -1.48419289       1.06212828      -0.41251858
F       12.42812137       9.91542024       5.01760154       0.67577300      -0.12647685       0.55825155
C       12.78747187       7.82073262       2.93398940      -0.09248864      -0.47704198      -0.01042628
F       13.81795338       7.16876570       3.53444960       0.03792829      -0.79513483      -1.18395965
F       12.67630636       7.28833648       1.69570998       0.97194602      -0.63356063      -0.36401852
F       11.69989189       7.43349038       3.58799779       0.50004983       0.04762279      -0.76697788
H       14.71585747       9.25420253       1.90270595       0.03102646      -0.04151601      -0.00626621
H       11.99474464       9.82239168       2.73490009      -0.40744274      -0.12164129       0.14949321
O       10.58719625       4.81885470       1.03196872      -0.34885917      -0.23826635      -0.37654677
C       10.48991361       3.83774306       2.00298452       0.26963219       0.86794182      -0.24515212
C        9.39405827       4.29634990       3.04629731       0.68853635       0.56375101       0.69301342
F        8.29500064       4.40672509       2.30122013      -0.59995197       0.34215264       0.32391276
F        9.74149286       5.47309636       3.64949598       1.21354306      -0.59164639       0.38370817
F        9.12050698       3.31910264       3.89750550      -0.40744227      -0.38055720      -0.11280351
C       11.87911784       3.50171382       2.50812979       0.48249382      -0.29318778       0.53788632
F       12.61840073       4.53857829       2.91652228       0.44886011       0.86706220       0.66812062
F       12.63804060       2.88634673       1.54365067       0.70671550      -0.72519903      -0.57831832
F       11.72788581       2.71152277       3.56739655       0.99874039       0.86724411       0.17297549
H       11.30551687       5.46802250       1.21106894      -0.16385285      -0.03510526      -0.03028091
H       10.13366671       2.93837439       1.60171727      -0.04519879       0.04462992      -0.07132540
O       10.30882791       7.63739059      13.42669469       0.50548866       0.22063556      -0.00544783
C        9.70334395       8.91060216      13.37488911       0.46713784      -0.10778189      -0.15822384
C        9.60691403       9.46191869      14.78512212       0.13393249       0.30061532      -0.00964270
F       10.73892528       9.35234009      15.41670146      -0.90987994      -1.33572541      -0.40480082
F        8.67736404       8.76350624      15.47068423       1.30398795      -0.10665122      -0.28955909
F        9.22743566      10.73188310      14.77726502      -0.42074855      -0.00979429      -0.15834161
C        8.37372636       8.85363741      12.63069464      -0.01881739      -0.17902696       0.97276859
F        7.58053853       7.93391457      13.22388471       0.22905593       0.41763970      -0.13197712
F        8.65953782       8.49535797      11.38674593      -0.54843211      -0.01137269       0.40508951
F        7.82451267      10.11238298      12.65592556      -0.01236370      -0.41932442      -0.13104088
H        9.69456556       6.99951506      13.88576506       0.01312833      -0.12027576       0.03910257
H       10.46758802       9.52688783      12.87301396      -0.01101411       0.29813598      -0.18986774
O        4.94774535       1.72694233      11.84630843       0.59887724      -0.32444645      -0.07093380
C        3.58932297       1.38447857      11.68380469       0.30999971      -0.63921263       0.83498398
C        3.25546841       1.68890973      10.25080517       0.65077147       0.34260048       0.21989700
F        4.16270200       1.05463750       9.48722841      -1.07596823      -0.92782269      -0.76151049
F        3.25695824       2.97072824      10.02294181      -0.52849075      -0.09951361       0.40310701
F        1.99535163       1.18194926       9.95337875      -1.46478231      -0.19377797       0.32281612
C        2.72855679       2.21539090      12.69962720      -0.30393646       0.01640841       0.16362019
F        2.35328149       3.43028798      12.34590252      -0.14794781      -0.02889284      -0.01367356
F        3.50970689       2.39127056      13.84469720       0.05283787      -0.29260116       0.16223587
F        1.57185494       1.62470743      13.05669449      -1.22749101       0.35958252       0.33092530
H        5.07709140       1.87374111      12.83522260      -0.05361044      -0.07390549       0.14393490
H        3.40558215       0.34777338      11.86535328       0.22303779       0.16377619       0.06558920
O        2.91342362       6.52268401      11.81693439       0.48082693       0.37648186      -0.78329134
C        2.47516880       7.63922113      12.43820027      -0.55397205       0.08661233      -0.48617616
C        3.57692278       8.66070691      12.45544686      -0.78949939       0.90929301       0.76059350
F        3.98541107       8.77602826      11.21576293       1.29906026       0.61791574       1.53315552
F        4.61442031       8.21508165      13.14921758       1.34737145      -0.79065172      -0.89002067
F        3.20786860       9.82985404      12.91805740      -0.16552938       0.67538489       0.19042816
C        1.86773323       7.40609566      13.81490286       0.74991222      -0.40200555      -0.59167021
F        2.67963840       6.51016255      14.55387712      -0.72376431      -0.03810220       0.71790069
F        0.66467409       6.82850035      13.75381823      -1.06537757      -1.13236985       0.17660655
F        1.66549096       8.49064115      14.52737115      -0.13796787       0.39343501       0.37572115
H        3.69393253       6.11671642      12.27782456      -0.07441017      -0.34128908       0.10564433
H        1.67533639       8.07030591      11.86879312      -0.06257617      -0.23284815       0.02369502
O        4.09244105      15.34827634       6.57198282      -0.28064286      -0.03183638      -0.82307891
C        4.85467975      14.09933411       6.69540726      -0.33681513       0.08707397      -0.04635470
C        6.20771180      14.54338304       7.24386950      -0.09069322       0.17647830      -0.19148315
F        6.13279606      14.88724684       8.54309760       0.24622470       0.71279790      -0.33428468
F        6.68440909      15.69665420       6.63941184      -0.59093343      -0.47708512       1.05479818
F        7.21002608      13.58857560       7.25095369      -1.05402233       0.14828730      -0.17813120
C        4.96972556      13.34993439       5.34814426       0.00742903       0.34674573       0.33853858
F        5.79536201      13.94994814       4.50001166      -0.56165845       0.31460302      -0.07974793
F        3.75315626      13.18793619       4.75930887      -0.29758685       0.14459907      -0.46870079
F        5.40597805      12.11777884       5.70274497      -0.20903607      -0.57589819       0.19644874
H        3.20353664      15.24897235       7.02491513      -0.06250665       0.18887847      -0.09556438
H        4.38588540      13.35848561       7.42652376      -0.03668854      -0.31112165       0.07164843
O       13.28733021      14.92404518       7.99167180      -0.84213005       0.90412258       0.61280644
C       12.28122657      14.00518914       7.82795374      -0.51166081      -0.24590302       0.53905884
C       12.56237068      12.97775085       6.75062261      -0.13738862      -0.03555546       0.03569362
F       13.54300465      12.15621948       7.12816246       0.51199691       0.10651856      -1.18787339
F       12.91344547      13.56221259       5.53564896       0.53648936       0.19149509       0.08047757
F       11.50085746      12.19462471       6.52814653       0.06841220       1.25383203       0.19756874
C       10.90396175      14.63481203       7.50793588       0.60742016       0.54896171       1.37569802
F       10.64513552      14.71648559       6.18231985       2.00128325      -0.13621542       0.13194003
F       10.82363137      15.83126757       7.93899696      -1.09881255       0.37023353      -0.36839679
F        9.91480919      13.95224159       8.09123134      -1.18534154      -0.15184384       0.59297286
H       13.13645494      15.66680635       7.34633925       0.16180225      -0.00008447       0.17250454
H       12.18377700      13.34950737       8.77650508       0.45936237       0.03811194      -0.00775971
O       14.73182901       7.77757481      10.90360173       0.07829695      -1.29306834      -1.23030433
C       13.52440686       8.17728878      11.50230092      -0.38518628       0.35214006      -0.43666524
C       12.46887912       7.90070507      10.42555331       1.23198983      -0.01493725      -0.16801976
F       12.29562589       6.55306232      10.36555177      -0.34678237       0.51479279      -1.57793298
F       12.95045447       8.32244977       9.23446693      -1.85280088      -0.68476102       0.77187060
F       11.29059503       8.51095378      10.48039080      -0.83424653       0.07785738       0.08349739
C       13.74693941       9.58980714      12.00534931      -0.04828598       1.00593041      -0.11729307
F       13.91387002      10.51241831      11.05574525       1.26691057      -0.61969161      -0.16175836
F       14.83358676       9.55930773      12.88332953       0.52894387       0.88997639      -0.77518025
F       12.75695450      10.06458962      12.76267490       1.42933511      -0.68749989       0.98491293
H       15.04637434       6.95493189      11.29639139      -0.00468302       0.12901025      -0.02090333
H       13.29906102       7.66820190      12.41423094      -0.03197593       0.34490253       0.06800162
O        2.04724649      13.79673427       8.54749587      -0.07210178      -0.00752972       0.19399975
C        2.10501002      12.66165546       9.40024915       0.81977549      -0.51578707      -0.19909752
C        2.27215701      11.41816481       8.57644272       0.40829264       0.60224879       1.32994836
F        3.37620988      11.59515373       7.83158799      -0.28025493      -0.29166365      -1.59316425
F        1.30010516      11.00642789       7.81454526       1.66747590      -0.07246215       0.09228906
F        2.59101279      10.31079034       9.35990541       0.40291992      -1.13860678      -1.55122729
C        0.98132620      12.69628195      10.43192506      -0.36322752       0.06432187       0.35594580
F       -0.16288397      12.80784727       9.80924572       0.16910549      -0.61392380      -0.07666317
F        1.15776570      13.75699465      11.21120893      -1.00421831       1.39294275      -0.34640101
F        0.95629874      11.60794851      11.18242548      -1.31012125       0.30783221      -0.38496830
H        1.12685958      14.00105183       8.34437412       0.09639546       0.05535199      -0.14590746
H        3.11136218      12.78023201       9.87168814      -0.00721675       0.18931924      -0.14600742
O        8.84248973      13.03677974       4.11461163       0.09037134      -0.25190409      -0.27419138
C        9.53108516      13.63140962       3.12351766       0.59976062      -1.05153310      -0.63833557
C        8.59365348      14.26549547       2.16441177      -0.18769919      -0.30599163       0.72897488
F        7.84046740      15.25387168       2.78596722      -1.06098691      -0.49548592       0.24858511
F        7.74364752      13.27782264       1.72263937       1.01841061       0.51749995      -0.14051687
F        9.25766229      14.88955804       1.24792041       1.28627003      -0.15780511       0.29151315
C       10.44561473      12.57952122       2.46058759      -0.83587594      -0.03229876       0.35346686
F        9.80253750      11.42981943       2.22140846      -0.94955404      -0.04717763       0.02758545
F       11.49292305      12.31256844       3.28130403      -1.41059542      -0.28195006       0.29424547
F       10.94505649      12.96380801       1.29408741       0.93628188      -0.57302480      -0.10111501
H        8.94986684      13.54870175       4.94712871       0.37415447      -0.21770159      -0.13530867
H       10.26144704      14.35182946       3.54483521       0.01191386      -0.25863045       0.02036916
O        7.43911736       4.60346689       9.00779699       1.45553416       0.99842894      -0.80045780
C        7.01986656       4.24695872      10.34517900      -0.16129667      -0.84147110      -0.16309242
C        5.86343407       5.16047894      10.72657984       0.15765175      -0.19719192       0.55917185
F        4.81105673       4.98981734       9.92182165      -1.12118086      -0.48676499      -0.60994556
F        6.26347301       6.45987571      10.60639235       0.75252030      -0.19154744       0.08423557
F        5.36241578       5.08701774      11.98247666       0.05192953       1.06265294       0.70561391
C        8.13902480       4.42667260      11.33958172       0.14255136      -0.03879737       0.63651497
F        8.61549213       5.62116511      11.42510807       0.54119217      -0.97848721       0.97793560
F        9.16457526       3.56378653      11.07918777      -1.23411566       1.92401372       0.68032623
F        7.80143881       4.08786886      12.61700548      -0.59144166      -0.85702166      -0.53333452
H        7.85891274       5.47087569       9.12569546       0.28316989       0.29637356       0.14876096
H        6.72606240       3.16651999      10.36797443       0.13730003      -0.00800206      -0.01701945
O       11.97434827       3.46595329      11.14179806       0.60893512      -0.03294625      -1.06147017
C       12.52149611       3.10051888      12.34377637      -0.05921210      -0.32830782      -1.57584703
C       13.08541501       4.30826522      13.21916534       0.49698241       0.03850695      -0.41631035
F       12.10129342       5.20722160      13.32252010       0.96094515       0.78977017      -1.09003958
F       14.23494313       4.82006479      12.75100093      -0.36703512       0.05516993      -0.23032534
F       13.32582429       3.77102579      14.43927505      -0.33317798      -0.68935116       0.85945426
C       13.44849624       1.93451268      12.11111892      -0.26773993      -0.09852877       0.60194990
F       14.51244668       2.29463605      11.45553079      -0.64341062       0.05427263      -0.53823018
F       12.81033997       1.05802762      11.32826032       0.54996917      -0.18120400      -0.11661670
F       13.72683411       1.27950757      13.21601924       0.03346012      -0.68072776      -1.34837094
H       11.26056775       4.04091571      11.38996022      -0.05147392       0.19596022      -0.07373429
H       11.69925612       2.69227377      12.97835750       0.23135827      -0.10052519      -0.12478009
O        8.00817827       8.18676730       7.91754727      -0.09922546      -1.15794477      -0.68808139
C        8.32491030       8.29617488       6.53029919       0.15900872       0.21381250      -1.11248716
C        8.37122623       9.79080442       6.02317360      -0.39609543      -0.27971187       0.69460383
F        9.17990194      10.60576798       6.64046244       0.05397960      -0.21691884       0.80267642
F        7.10687548      10.28762683       5.99284835      -0.06621228      -0.76921705       0.43076845
F        8.74618864       9.71511325       4.73767160       0.10552675      -0.63324617      -0.28807012
C        7.42307739       7.35768306       5.79718190       1.40123445      -0.12478825      -0.10705011
F        6.15208861       7.54204329       6.13327662       0.39696231      -0.59183472      -0.70332122
F        7.72853002       6.08243377       6.26114504       0.49833284      -0.40672634       0.46203247
F        7.41719015       7.35500534       4.48296095       0.64967440       0.35157947      -0.63808109
H        7.13110438       8.65301218       8.06637144      -0.17679316      -0.15602655      -0.05907274
H        9.33935352       7.92061539       6.42899882      -0.07384658      -0.14511842       0.11909364
192
Lattice="15.14909700299414 0.0 0.0 0.0 15.14909700299414 0.0 0.0 0.0 15.14909700299414" Properties=species:S:1:pos:R:3:momenta:R:3 Built=T with=T Packmol=T charge=0 spin=1 external_field="_JSON [0.0, 0.0, 0.0]" pbc="T T T"
O       12.85314073       6.10607258       6.97645966      -0.16093303      -0.83409907      -0.52809783
C       12.75773392       4.74399966       7.05142960       0.02723745       0.64774766       1.07956418
C       11.27653913       4.45218329       7.60759789       0.76327472       0.19054318      -0.13219901
F       10.35186614       4.94536918       6.70791870      -0.53771041       0.44754734      -0.18276021
F       11.04385309       5.09995938       8.72923114      -0.74389153       0.02416413      -0.14597874
F       11.03008846       3.11631006       7.68567903       1.18174637       0.48246990       0.68118138
C       13.88592562       4.23208573       8.00984749       0.43581538       0.46867944      -0.54872971
F       14.09048533       5.02480024       9.05223662       0.07072010       0.15058941       0.14473674
F       15.05092099       4.22394956       7.32115551      -0.00634110      -0.88713701      -0.71698432
F       13.75668805       2.89407119       8.40865338       0.21866891      -1.14101970       0.07278220
H       12.66008668       6.41383005       6.10990456      -0.19169236      -0.05783764      -0.09243129
H       12.79980429       4.23269486       6.07983366       0.17203911      -0.29086709      -0.30592537
O        3.54292321       8.89969607       2.28783614      -0.09807654       0.21816124       0.50264979
C        3.46028189      10.34250370       2.23178570       0.05267121      -0.41102601       0.58663504
C        2.09194009      10.79867249       1.78841459       0.20231128       0.81380401       0.45573050
F        1.16617269      10.02898718       2.43935167      -0.44605749      -0.13362852       0.20443475
F        1.84662975      10.60783370       0.48327457      -0.60277400       0.33463720      -0.24375926
F        1.90098369      12.08403758       2.01900354       0.29023767      -0.54803284       0.51053174
C        4.64444566      10.80328298       1.47401841      -0.36753518      -0.16317933       0.86601971
F        4.81368250      10.18687400       0.28686266       0.83215345      -0.58614295       0.47160248
F        5.73733256      10.65330350       2.20437044       0.11557902      -1.24941712       0.11756654
F        4.41272107      12.13121246       1.22886831      -0.16645051      -0.06586634       0.27168075
H        3.32785376       8.55173275       1.38183211      -0.10334507      -0.28024093      -0.05157754
H        3.50141905      10.70226746       3.25100760      -0.11464820       0.21560229       0.00084811
O        7.67074705      13.05553144      13.87325436      -0.28418224      -0.26597049       0.38362075
C        8.17863790      13.50327053      12.57338403      -0.90054596       0.11857428      -0.19977053
C        9.58465671      14.15043707      12.75797440       0.66241593      -0.81054763      -0.37422755
F       10.36270870      13.41562123      13.58793371      -0.90208939      -0.93683224       0.19066770
F        9.58469774      15.44843445      13.21057709       0.21093926       0.33917768      -1.69449683
F       10.21071091      14.18627147      11.60668480      -0.43384933      -0.14838188       0.04803156
C        7.05024964      14.42700636      12.08370182      -0.16551920       0.54137780      -0.56773894
F        6.77394537      15.28761399      13.00721480      -0.01079792       0.54217443      -0.83445141
F        6.00675726      13.71036145      11.70742033      -0.03421095       0.29586045       0.62058278
F        7.40611165      15.12208250      10.99262166       0.05195868      -0.31819996       1.19920349
H        7.99961747      12.22178597      14.30697905       0.12781347       0.09855444      -0.23496172
H        8.26816896      12.73680640      11.82881671      -0.02198264      -0.17895432      -0.04245603
O       13.72132760       9.57885532       1.75847788       0.70586594      -1.10486926      -1.12330027
C       12.89976171       9.32386639       2.82323426       0.21098727       0.18466401       1.40565234
C       13.40101971       9.95906370       4.15660720       0.20093290      -0.29210415      -0.64891299
F       13.72024647      11.27899705       3.90167833       0.99947971      -0.63115633       0.43216903
F       14.33093282       9.34761162       4.83681792       0.67080448       1.45168422       0.72250590
F       12.36233804       9.93233445       5.01741916      -0.01374356      -0.63871918      -0.92982904
C       12.70826543       7.73541559       2.92645034       0.64870794      -0.03901949      -0.23251733
F       13.76820359       7.16377277       3.50701103      -0.02829564      -0.17577156       0.60019600
F       12.67106406       7.19740328       1.70275615      -1.31469454      -0.73493581      -0.81480444
F       11.62622478       7.41133437       3.61995106      -0.58416549      -0.23298364       0.02144277
H       14.49747421       9.07966456       1.79743047       0.13556754       0.08831853       0.20240552
H       11.93078726       9.81212711       2.62881110       0.08635204      -0.00548364      -0.09302273
O       10.54310780       4.78156088       0.99874270      -0.51730171       0.60181173      -0.78306239
C       10.41467597       3.80609394       1.98487859      -0.80731454       0.55026624       0.21216333
C        9.38070193       4.27601527       3.02247244      -0.40849425       0.13807027       0.72472148
F        8.25121300       4.44217618       2.25708432      -0.02608927      -1.66031036       1.14420761
F        9.64537003       5.43567387       3.67235390       1.08358565       0.53143099      -0.23363184
F        9.10894281       3.32396828       3.85181983      -0.92911126      -0.04190255       0.11617950
C       11.80671108       3.45575936       2.48307335      -0.07394702       0.39756983      -0.44651941
F       12.51510349       4.48632608       2.88807724       1.27102389       0.25497960      -0.24194914
F       12.58755915       2.86838004       1.52397855       0.47850841       0.01844203      -0.34641599
F       11.71121033       2.69256017       3.61252355      -0.51271965       0.50534194       0.64312888
H       11.15399963       5.55164231       1.28357101       0.40580333       0.11784586       0.06864176
H        9.99092055       2.94356769       1.47794494      -0.22889569      -0.17483577      -0.08870373
O       10.22202435       7.60040728      13.38496224      -0.34476714      -0.37993075       0.42188715
C        9.70663717       8.90649952      13.35021694      -0.22510648      -0.27599865       0.00202995
C        9.55058597       9.39923660      14.73065378      -0.26528394       0.83311993       0.43483519
F       10.72371154       9.32896760      15.33491160       0.01488044      -1.42354253      -0.25130441
F        8.65523148       8.69533055      15.37235561       0.03764990       0.09589774       0.39006040
F        9.18910748      10.70111539      14.77273841      -0.02028339       0.35182357      -1.01648822
C        8.39691803       8.83597893      12.63006747      -0.15144175      -0.14845703       0.51295837
F        7.50079943       7.93048226      13.11032779       0.77452772       0.38607813       0.28967778
F        8.62381837       8.41515975      11.36896723       0.49136932       1.02772851       0.78839608
F        7.80018553      10.02982125      12.58104407      -0.15013795       1.08793159       1.04129324
H        9.78950613       7.07479016      14.12040536      -0.28046942      -0.04524042      -0.05103466
H       10.35571782       9.55824478      12.74164372      -0.04582043      -0.10148609      -0.02297651
O        4.85982314       1.68042207      11.73030927      -0.48201908      -0.04524365       0.68909768
C        3.54805640       1.38412070      11.56225694      -0.60543630      -0.33243627      -0.22255199
C        3.17963607       1.62180526      10.13204532      -0.47537736       0.20513782      -0.16623253
F        4.07999516       0.99190971       9.35517862       0.18432200       0.39055761      -0.63460650
F        3.17293090       2.93567244       9.90560359       0.37309837       0.62957335      -0.03237194
F        1.96374390       1.14036494       9.80037290      -0.77691069       0.49363698       0.15850656
C        2.61867397       2.15758485      12.61251042       0.05498599      -0.50047993      -0.89367827
F        2.28404983       3.36560875      12.19128115       0.07586571       0.20672351      -0.04051047
F        3.39175575       2.33814268      13.72735036       0.37926221       0.78812300      -0.51937540
F        1.49971297       1.56064842      12.89150116      -0.13594861       0.64970605      -0.30611124
H        5.02438576       1.69572524      12.68217594       0.17128097       0.02405182       0.02271340
H        3.36796440       0.34422509      11.79819028       0.23180106      -0.18819754       0.13278406
O        2.86798501       6.50413949      11.76647768       0.82416455       0.04756249       0.40692906
C        2.43039639       7.62553430      12.36722916       1.17215515      -0.19598379       0.56929840
C        3.56002947       8.62394922      12.36435601      -0.24448474      -0.28853669      -0.20221202
F        4.00123296       8.73807149      11.13162877      -0.37881184       0.27865009       0.42018402
F        4.60910759       8.20131314      13.09780474      -0.28860579      -0.21729742      -0.82271290
F        3.16020120       9.76904932      12.84997442      -0.00965656       0.78211089       0.30696544
C        1.87029395       7.36376761      13.73768899       0.76618549       0.82057095       0.25934435
F        2.64825788       6.51260236      14.48072441       0.34121633      -0.56164417      -0.02917226
F        0.68219470       6.80834101      13.64915434       0.53861322       0.79946147       0.75920671
F        1.70670962       8.47050321      14.46515983      -0.75545011       0.17735232       0.00144862
H        3.50636761       5.99069716      12.30462414       0.43404856       0.33687048      -0.07315570
H        1.59756293       8.13293527      11.83720254       0.05636489       0.03558859      -0.27527136
O        4.42395403      15.51614615       6.55636173       0.47722757       0.80814275      -0.24184163
C        4.80632307      14.21035194       6.66116470       0.38252180       0.04612541       0.69278268
C        6.35550236      14.32424373       7.17463103      -0.55741002      -0.51595999       0.14007168
F        6.39232673      14.69489830       8.44501710      -0.05819767       0.83679224      -0.27275731
F        6.98672915      15.28727531       6.44643084       0.55627377       2.02462709       0.88576652
F        7.03856257      13.20116043       7.14007518       0.88889160       0.04499451       1.32188666
C        4.73002125      13.40361059       5.36444254       0.61916838      -0.86891507      -0.31147960
F        5.64005794      13.72392643       4.49407342       0.84632721      -0.07640367       0.59451900
F        3.50695169      13.50458583       4.81344681       0.77572732       0.67501688       0.27688354
F        4.91750857      12.13087781       5.76906992       0.13541723       0.29658298       0.15273368
H        3.58189908      15.67250361       6.97820469      -0.17713914      -0.15841766       0.02494487
H        4.16231808      13.70314830       7.41547517       0.17197601      -0.03505345      -0.35119949
O       13.23035300      14.88569404       7.97827263      -0.31424371      -0.33321772      -0.64982267
C       12.28111558      13.92800069       7.80837143       0.17632266       0.36312783      -0.66869771
C       12.53537371      12.92053110       6.70655163      -0.15152314      -1.14118552      -0.10657327
F       13.51180030      12.09775365       7.09640328      -1.28631463      -0.78337477      -0.11313748
F       12.85550250      13.50328028       5.54475925       0.38180548       0.56225919      -0.97545927
F       11.47794903      12.16062675       6.47244609       0.28000230      -0.52658155       0.42890492
C       10.87539769      14.56039015       7.50151599       0.89229131      -0.99325036       0.19429353
F       10.53494785      14.70895559       6.10514217       1.87639288      -0.91415146       0.99707476
F       10.75937626      15.81799257       7.92148752       0.21860508       0.39126980      -0.63820527
F        9.87121880      13.91600731       8.05199412      -0.12512165       0.34308714      -0.06790623
H       13.08566447      15.52330861       7.25207852      -0.11651467      -0.13922918       0.30799988
H       12.21681178      13.37117361       8.80756632      -0.23785768      -0.16731751      -0.12377654
O       14.67576231       7.69286962      10.85413876      -0.73795442       0.52863506       0.88454633
C       13.45614252       8.16083854      11.43856286       0.30120538      -0.93399922      -0.25622952
C       12.40508130       7.82518220      10.35184097       0.23265625      -0.65759315       0.41990980
F       12.20259868       6.50578032      10.30669526       0.86793907      -0.55392473       0.97541337
F       12.86473938       8.22248762       9.21343213       1.10262591       1.26358550      -0.50500856
F       11.20566685       8.49317278      10.42421811       0.00406655      -1.74921141       0.37522693
C       13.68934879       9.60099784      11.97008403       0.03333364       0.05884999       0.47450577
F       13.84722197      10.46859782      10.98609716      -0.71002174       0.57930760      -0.20319317
F       14.75075769       9.52580860      12.81488663       0.44392299      -0.95701652       1.08463129
F       12.69005086      10.03628072      12.75600720      -0.07214685      -0.48396623      -0.64561647
H       15.03626684       6.95700140      11.36194498      -0.28732830      -0.11678260      -0.00192357
H       13.17043611       7.55530965      12.32278757      -0.18298092       0.07163703       0.37872694
O        1.92131103      13.66556434       8.37990590       0.50357506       0.25129671      -0.02416649
C        2.10367074      12.59962430       9.28683403      -0.51191335       0.26369785       0.80821205
C        2.25035201      11.27171157       8.57041350       0.44110684       0.50343874      -0.38080431
F        3.25746162      11.41971308       7.73841710      -0.29156879       0.08142457      -0.52737570
F        1.17097816      10.87343269       7.83802191      -0.80245866      -0.74198495       0.74321255
F        2.60477689      10.27075063       9.35146419      -0.13874320      -0.38000246      -0.03369111
C        1.03758603      12.68930365      10.39171543       0.44354045       0.16629642      -0.23743463
F       -0.17435531      12.77796095       9.89579666       1.05962175      -1.18621426      -1.35165983
F        1.30743848      13.80958994      11.11421962       0.16015168       0.16312529       0.83326930
F        1.06381052      11.64584211      11.21795594       0.10834775       0.09175163      -0.08538665
H        0.97153583      13.89182503       8.41134446      -0.14369453      -0.12012218      -0.02696573
H        3.07333778      12.72147613       9.75617454       0.15150221      -0.28466746      -0.01146288
O        8.79075550      13.01517637       4.14218283      -0.11900883      -0.19101508      -1.30512547
C        9.56365003      13.62538944       3.13427640      -0.38380884       0.00657001      -0.71083716
C        8.52644686      14.20737332       2.22584223       0.35800983       0.79850919      -0.04039286
F        7.82086302      15.11767846       2.81505767       1.02373719       1.01447739      -1.53734944
F        7.73443327      13.24173780       1.73543697       0.20932342      -0.12441954       0.25486728
F        9.15680671      14.82002666       1.24095862       0.82428588      -1.41841394       1.32474482
C       10.37950737      12.53688149       2.45270742      -0.02911686       0.42866497      -0.74442003
F        9.75364868      11.37685743       2.21179731      -0.05934117      -0.99781664      -0.11993325
F       11.46988290      12.23136280       3.21925157      -0.87555236       0.57411905       0.78371022
F       10.88020584      12.91738979       1.25817492      -0.54682804      -1.44277881       0.37563781
H        8.82110374      13.55411679       4.96223674       0.27956765      -0.01349863       0.22338669
H       10.12953423      14.51578617       3.40642179      -0.21107821      -0.09032486       0.02759254
O        7.45540297       4.59533526       9.00219094      -0.70612017      -0.32575302       0.12358005
C        7.05693060       4.23106251      10.24747549      -0.88542406       0.08435874      -0.32429022
C        5.83527703       5.16122969      10.64828291      -0.09444659      -0.72447381       0.43142991
F        4.81451615       4.94431026       9.84732251      -1.02550324       1.03638209       0.28515656
F        6.22161178       6.39480050      10.55432537       0.02295923      -0.17843845       1.17858294
F        5.33866373       5.05964119      11.90135008      -0.76754827      -0.28184299       0.38032970
C        8.13227339       4.36670730      11.29692996       0.59974436      -0.02702786       0.24087137
F        8.60369858       5.60904319      11.35954860       0.51185314      -0.39934021       1.08334023
F        9.10082844       3.51735396      10.98363113       1.15381332      -0.01943563       0.58904533
F        7.74984066       4.09370355      12.51992718       0.50799578      -0.78772868      -1.10333187
H        7.68353293       5.53561323       8.99242185      -0.02883285       0.10784806       0.04757919
H        6.67623714       3.17715521      10.28474919      -0.06532784       0.15418755      -0.23779992
O       11.95526037       3.44781942      11.08438406      -0.99061304      -0.36795086      -0.52771728
C       12.48321341       3.11530916      12.32492391       0.30820691       0.16842636      -0.12242597
C       12.99689635       4.25028253      13.16104343       0.94124867       0.53598869      -0.34557770
F       12.01859463       5.18132773      13.26576384      -0.67136746       0.43244926       0.71446908
F       14.19094823       4.79581676      12.72043901       1.09198332       0.65572289       0.13673866
F       13.28215636       3.75331268      14.36151246      -0.71131851       0.89763107      -0.34141768
C       13.39749094       1.89945442      12.05331637      -0.76526065      -0.13827129       0.03417829
F       14.45802991       2.20990499      11.36661121       0.90403758       0.82992646       0.85439506
F       12.76770652       1.07998930      11.24423070      -0.61885496      -0.66277790       1.00588726
F       13.66082785       1.26913800      13.19493674      -0.07432760       1.33686353      -0.27336242
H       11.15384496       3.92566787      11.24302946      -0.18215593       0.10453870       0.01018757
H       11.64802955       2.65495594      12.92836027       0.00807712      -0.07838374      -0.30111280
O        7.91543555       8.17535398       7.90768872      -0.06093367      -0.50168569      -0.58289780
C        8.32282978       8.30987564       6.58268943       0.46055666       0.05025634       0.11328096
C        8.29602329       9.70329289       5.94924402       0.56276710      -0.10854123       0.16614284
F        9.13914714      10.55339717       6.64857807       0.87292920       0.80725484       0.46950781
F        7.09106179      10.24634068       5.98179456       0.40086956       0.03511847      -0.33132588
F        8.69955890       9.70051339       4.68546341       0.84674823       0.53773159       0.08209812
C        7.36119840       7.30064925       5.79757165      -0.47779063       0.70278450      -0.61248279
F        6.09138249       7.55988303       6.10095096       0.77885477      -1.32200490       0.19237684
F        7.68689152       6.05450579       6.17650027      -0.07421556       0.10373901       1.10874556
F        7.38835699       7.34177305       4.43021517       1.22071082      -0.16525101       0.05680694
H        7.07932830       8.64028890       8.06168683       0.18454262      -0.05167612      -0.06112941
H        9.31942805       7.95771298       6.32014801       0.03380328      -0.08333637      -0.05088280
192
Lattice="15.223621154043434 0.0 0.0 0.0 15.223621154043434 0.0 0.0 0.0 15.223621154043434" Properties=species:S:1:pos:R:3:momenta:R:3 Built=T with=T Packmol=T charge=0 spin=1 external_field="_JSON [0.0, 0.0, 0.0]" pbc="T T T"
O       12.92110372       6.13209809       7.02839520      -0.34916004      -0.45944341      -0.35665238
C       12.82746500       4.77105157       7.11053616       0.05631923       0.05060261      -0.89889392
C       11.33464819       4.47995786       7.63414419       0.10338573      -0.16450122       0.57495941
F       10.40761037       4.97590434       6.76428140       0.22003653      -0.45447273      -1.10983688
F       11.10032935       5.13081283       8.78362911       0.33491637      -0.38079708      -0.94234143
F       11.07947145       3.14043080       7.73650092       0.70568226      -0.35996201      -0.80269635
C       13.94757029       4.23487207       8.04529505      -0.19940038       0.79358019       0.15007948
F       14.16698343       5.04954320       9.09451627      -0.76119677      -0.02984739      -0.19938020
F       15.12617951       4.25567828       7.34877571      -0.68723764      -0.58616564       0.63592137
F       13.80286178       2.93629122       8.44453466       1.01339422      -1.47187778       0.17765171
H       12.79272142       6.47236326       6.07243202      -0.27495343       0.01366258      -0.05348475
H       12.87623343       4.19683166       6.16913873      -0.09625450       0.14239667      -0.20806197
O        3.57719283       8.95483447       2.32184165      -0.75754632      -0.14834781      -1.10805195
C        3.48010241      10.36848494       2.27964582      -0.02895539       1.27325598      -1.58428463
C        2.10479868      10.84819924       1.79335058       0.16702844       0.12895448       0.23293848
F        1.19238179      10.08100117       2.42549208      -0.59552574      -0.07751215       1.25695374
F        1.87099615      10.68384365       0.49330600      -0.51246555      -1.37788104      -0.07626173
F        1.90279980      12.15224095       2.02401694       0.90913675      -0.88031774       0.07042813
C        4.66575268      10.84930103       1.49375496      -0.05500999      -0.06545770      -0.28230952
F        4.83095628      10.24081937       0.29626383      -0.03289675      -0.11097587      -0.20327255
F        5.75259874      10.70315656       2.21218028      -0.01745225       0.13094817       0.02911962
F        4.42564188      12.18727214       1.21482007       0.05819791      -0.07402773       1.29450180
H        3.33043283       8.58944430       1.43841365      -0.03430738      -0.05832937      -0.39589456
H        3.50586142      10.79003286       3.30520912      -0.04047362      -0.06074025      -0.11183630
O        7.70127726      13.12213128      13.92972811       0.49320822       0.10559715       0.42289844
C        8.21984872      13.58461296      12.65416895       0.01320255      -0.18046242      -0.97295719
C        9.61555899      14.21758818      12.80683560       0.36575406      -0.04451430       0.32130439
F       10.39752900      13.48605431      13.62765265       0.46773323      -0.06430970       1.32963960
F        9.61511891      15.51077528      13.26598686       0.66809045       0.64276415       0.35593894
F       10.23001742      14.27726577      11.64669370       1.21055787      -1.21809177       1.49398110
C        7.10790273      14.51379787      12.12551245      -0.81144052      -0.48792317       0.73464842
F        6.81269597      15.37579797      13.07658789       0.26882869      -1.18895028      -0.60616625
F        6.03955871      13.78450947      11.76196269       0.55457993      -0.20976304       0.33358081
F        7.44653750      15.17945863      11.06106326      -0.11017549       0.65833043      -0.25498269
H        8.09532454      12.38444379      14.40992184      -0.21989078      -0.40996136       0.08192643
H        8.37069368      12.80769734      11.85174264      -0.17903073      -0.00659653       0.01949843
O       13.76151082       9.58296718       1.78375318       0.57162477       1.36037436      -0.56783811
C       12.96433823       9.34585865       2.84275263      -0.15894568       0.79862956      -0.32265677
C       13.48293223      10.01378300       4.16148562      -0.24312139      -0.31534863       0.07520273
F       13.79394866      11.30224936       3.90710547      -0.61923160       1.67888377      -0.59974048
F       14.41461354       9.41665460       4.86219506      -1.06155207      -0.79097969      -0.98453689
F       12.42365872       9.98133138       5.03385973       0.60431355       0.24007232      -0.16194138
C       12.77769622       7.78528202       2.96393190      -0.31827061      -0.59612774      -0.33466217
F       13.83301282       7.18201001       3.53327359       0.09974128       1.57376932      -0.03383760
F       12.72429754       7.22629270       1.72506776       0.41368007       0.04164173       0.53281796
F       11.68849403       7.46213563       3.63433406       0.35002837      -0.40995842       1.17184684
H       14.60885309       9.03398078       1.75571584      -0.05939603       0.16238366       0.11999280
H       12.01516645       9.85481599       2.66669587      -0.08433154       0.04211154      -0.07774453
O       10.69754064       4.89625195       1.15923688       0.18351022      -0.64239223      -0.46331724
C       10.59799249       3.91532526       2.15471377      -0.77358363      -0.14821743      -0.48611584
C        9.54962749       4.38258845       3.19610848      -0.13851178      -0.03518340      -0.41893518
F        8.41194327       4.55582502       2.40437870      -0.07104205      -0.47410087       0.08481521
F        9.80171122       5.54137943       3.79593483       0.29853111       0.14963843       1.66617659
F        9.27296304       3.42594610       4.01973231      -0.10654795       0.39730178      -1.25971780
C       11.98921418       3.56527991       2.61567928      -0.73279684       0.18701814       0.54425122
F       12.65837542       4.58650696       3.01671895       0.92820926      -0.01274168       1.30817478
F       12.73146791       2.95880888       1.68385185       1.19937245       1.00448646      -0.61908141
F       11.87979757       2.81179231       3.75788618      -0.43550213      -0.63660057       0.49117514
H       11.29892206       5.58765825       1.46630483       0.20193713       0.39765949      -0.03547985
H       10.13087842       3.03969896       1.63126230       0.01040005      -0.02738503      -0.12347222
O       10.25614089       7.64871273      13.42074567       0.48701878      -0.08227306       1.40807504
C        9.73982707       8.95326042      13.41158975       0.44999504       0.15450479       0.38276762
C        9.61121149       9.41611627      14.80086903      -0.66744414       0.64965230      -0.12307097
F       10.79153395       9.35525188      15.40815361      -1.44167607       1.12820108      -0.45926701
F        8.68918792       8.74281686      15.42970600       0.69969229      -0.07688318       0.39536704
F        9.25079063      10.73824725      14.85205962      -1.02548591       0.46340420      -0.70173185
C        8.43927466       8.86339100      12.65100873       0.34058959       0.72146016       1.69093507
F        7.55294061       7.96565538      13.21082792      -0.59794093       0.40446391      -1.94899733
F        8.67434827       8.44134855      11.43658263      -0.35825420       1.00649349       0.05932574
F        7.81819881      10.06761023      12.65773760       1.56676295       0.40723249      -0.50090611
H        9.86214073       7.16238376      14.16898891      -0.17127740      -0.23691689       0.25476714
H       10.37042379       9.60661515      12.84653024       0.01987494      -0.03911861      -0.11348908
O        4.87044130       1.69063488      11.79299187       0.02436182      -0.20641696      -0.30334177
C        3.55270148       1.38781181      11.61910243       0.66758433       0.36244898      -0.27420770
C        3.20690238       1.62220552      10.16772059      -0.32930910       0.34918152       0.70304860
F        4.09941434       1.00829378       9.40161005      -0.26720427      -0.44756586       0.62594649
F        3.18661602       2.92646404       9.94052688       0.03061380       1.11749686       1.39014747
F        1.97787351       1.13873276       9.84810627      -0.02259859       0.63431417       0.45418148
C        2.62270124       2.18441800      12.64943776       0.00967367      -0.63556912       0.86393520
F        2.30502926       3.37791935      12.25314675      -0.33811879      -0.40331185      -0.30496368
F        3.42562145       2.33181867      13.76731782      -0.99289286       0.98853772       0.97170987
F        1.52389614       1.57409345      12.94904589      -0.42107946      -0.03538619      -0.20145154
H        5.00204598       1.73686938      12.74305389       0.04756100      -0.10947506      -0.05327884
H        3.45595951       0.32776197      11.89497297      -0.13094909       0.13329529      -0.08219163
O        2.87961057       6.54512928      11.83555313       0.08403758       0.27815301      -0.07280781
C        2.43452919       7.65897689      12.41513582       0.28130758      -0.02977490       0.33149957
C        3.56088826       8.67278406      12.43219421       0.40359232      -0.17400476      -0.17329334
F        4.03378960       8.77593830      11.19555394      -1.14669718      -0.06556534       0.11664420
F        4.60368641       8.22572637      13.16267434       1.12814806       0.85650252      -0.11350752
F        3.16543250       9.81569259      12.91304482       0.50037693      -0.72818490       0.05135882
C        1.89023015       7.41129882      13.83259795      -0.34528901      -0.21266582      -1.16820695
F        2.68416430       6.54165709      14.53926791      -1.26868721       0.45568808       0.39211270
F        0.69969423       6.84641508      13.73023386      -0.06904408       0.17349442      -0.99563587
F        1.71071907       8.51950693      14.50545644       0.52644471      -0.67448061       1.30629620
H        3.49615108       6.06788647      12.40311238       0.11153328      -0.16740012      -0.07728990
H        1.62833002       8.12030054      11.89636215       0.00848743       0.15921714       0.12501254
O        4.44142736      15.57570785       6.58760421       0.61726858       0.25514786       0.04972799
C        4.85505100      14.27235502       6.70700578      -0.99655888       0.19020355      -0.72360856
C        6.36931153      14.38242846       7.21179320       0.65361702       0.23608972      -0.16190199
F        6.44116533      14.77247258       8.48323148      -1.21015730      -0.60072830      -0.49783077
F        7.02921338      15.34852738       6.48720354      -0.85092008       0.62262811      -0.64562080
F        7.06691521      13.26536953       7.17585908      -0.14074330       0.41460953      -0.15875204
C        4.75568744      13.46502930       5.41543754       0.19805941       0.22464200      -0.95639368
F        5.65500241      13.79573207       4.51966519       0.62123903      -0.18790187       0.44411696
F        3.53622517      13.58337437       4.83960722      -0.19290364      -0.57635958       0.25789446
F        4.92162188      12.20186518       5.80408395       1.34868755      -0.01188913      -0.13296840
H        3.59630001      15.74893190       7.04905595      -0.06244020       0.03943071      -0.08049438
H        4.23054464      13.77859734       7.43387306      -0.20977037       0.04573615       0.03588728
O       13.25913256      15.12020872       7.87773108      -0.94740073      -0.82100122       0.43440459
C       12.37964121      14.07770696       7.81487323       0.36500603      -0.62009740      -0.58842502
C       12.64828908      13.07179449       6.67078224      -0.24594011      -0.33007269       0.63685932
F       13.74617144      12.33874185       7.01029411      -1.12164120       0.29926182       0.08802052
F       12.82378107      13.65317499       5.49752457      -0.36204704      -0.13584165       0.28858511
F       11.66649534      12.20773802       6.55966481      -0.50519779      -0.44278049      -0.71124166
C       10.87651017      14.53576578       7.58765867       1.04789178       0.05006257       0.64408473
F       10.42727421      14.61766512       6.23206992       0.86767005       1.16957439      -0.23257042
F       10.69904977      15.78003578       7.99658403      -0.23328774       0.78479732       0.90547570
F       10.01551179      13.79661631       8.22356279      -0.09082803       1.42873305       0.44755896
H       13.01819182      15.82578902       7.25285079      -0.20856094      -0.26356975      -0.32480118
H       12.47024447      13.54598711       8.78229856      -0.02244219      -0.15883344       0.26539237
O       14.73282458       7.73263449      10.92113806       0.54548905      -0.10531574      -0.56043381
C       13.51232585       8.18565009      11.49848055       0.29430149       0.82136040      -0.35414874
C       12.46718816       7.86780029      10.40479569       0.18221729      -0.20027582      -0.01040210
F       12.27736195       6.54305968      10.37378073      -0.55347607       0.21539372      -0.82853813
F       12.92406855       8.25795620       9.25778112       0.14552339       0.40033485       0.94145405
F       11.27889250       8.54319166      10.47566318      -0.54524234      -0.30786568       0.00290389
C       13.76032956       9.65303534      12.02419224      -0.09625260      -0.02721979      -0.07270566
F       13.91202427      10.51208576      11.05544833      -0.09611828      -0.13448007      -0.83754800
F       14.80888585       9.56470258      12.87028197       0.35787525       0.14154223       0.09768728
F       12.75680367      10.08000326      12.80688891      -0.03694180      -0.07055200       0.26312533
H       15.10132667       7.01888090      11.41710230      -0.05073952       0.14739916      -0.14436748
H       13.19410680       7.60312893      12.39094181       0.07137493      -0.08640344       0.04140649
O        1.98050914      13.66948831       8.55960209      -0.55029381       0.03522375       0.57034073
C        2.14500236      12.60384050       9.47009128       0.10490367      -0.13247637       0.19189481
C        2.31158666      11.25495207       8.72390146      -0.25118059       0.71279228       1.38351003
F        3.30769562      11.43076562       7.91727788      -0.32587814      -0.49386548       1.03455492
F        1.21335995      10.87105975       8.02718541       0.23809192       0.26565412       0.07824343
F        2.65669852      10.28360021       9.56063699      -0.18715871      -0.51181441      -1.12249888
C        1.09244498      12.70551407      10.57977883      -0.51147701      -0.42191485       0.07020699
F       -0.11831503      12.79283379      10.10132280      -0.27729595      -0.76105557      -0.72661981
F        1.35313119      13.81078982      11.31019792       0.18505434       0.16056418      -0.22328310
F        1.14193112      11.64499756      11.39811705      -1.82591287       0.20861925       0.69201177
H        1.07755171      13.99781439       8.63320270      -0.18526774      -0.33923590      -0.04634054
H        3.13999043      12.74123010      10.02667475       0.10164516      -0.03202369      -0.15855192
O        8.84768627      13.08049435       4.16181325      -0.60442877      -0.02283092      -0.65183131
C        9.59345596      13.68721894       3.15610685       0.67671908       0.19499268      -0.51247815
C        8.58188209      14.23620942       2.25447315      -0.25916605       1.32635246      -0.29460719
F        7.85110671      15.18060317       2.82351437       1.10061249       0.10197727       0.03549051
F        7.75893907      13.29847275       1.73128546       1.26677039       0.45953028       0.92112460
F        9.17640640      14.88254249       1.24036111       1.53305834       0.14752898       0.92149189
C       10.42571836      12.60661187       2.46571474      -0.38727234      -0.06507309       0.03422400
F        9.81741612      11.45707848       2.23309685      -0.93738655      -0.89768199      -0.64088727
F       11.54089662      12.29061373       3.21268845      -1.29137930       0.29416230       1.11684984
F       10.93098613      12.99401260       1.27051201      -0.21125199      -0.71642228      -0.09675958
H        8.85022910      13.57414117       5.00106110       0.02149282       0.21585554       0.06759163
H       10.24012567      14.54781711       3.42888880      -0.22818113       0.22149160      -0.07395404
O        7.47766987       4.62538384       9.04779681       0.51232900      -0.48251355       0.47453809
C        7.06833052       4.26329114      10.31609517       1.14576373      -0.31807323      -0.73829358
C        5.86879956       5.18154118      10.68966382       0.08175967       0.34568252       0.28383685
F        4.85233358       4.96070407       9.89133375      -0.13482567       0.44753644       0.67865033
F        6.24241349       6.42472303      10.59663219       0.72756365      -0.70565502       0.77503893
F        5.36321779       5.09993105      11.97060612       0.52154826      -0.85503783      -0.92578172
C        8.15993457       4.37817842      11.33920035       0.29033712       0.33871754       0.36501637
F        8.63571626       5.62254158      11.41181960       0.02121002       0.52860960       0.15803471
F        9.12958934       3.53662239      11.04671958       0.15223984       0.34521853      -0.51587922
F        7.78207526       4.11159279      12.57940139       0.25453381       0.46507738      -0.49727926
H        7.67649070       5.59752186       9.04230573       0.15385135       0.04783827       0.03120658
H        6.79814053       3.21558351      10.34034625      -0.24901227      -0.08142567       0.03905151
O       12.04521297       3.47573991      11.14567366      -1.10976250      -0.89280383       0.04245758
C       12.53916130       3.13035914      12.39696403       0.58584706       0.33216707      -0.20196097
C       13.04188791       4.25592475      13.19902601       0.47743426       0.31542402       0.76780347
F       12.07479009       5.19086960      13.33597585       0.34868083       0.34819623      -0.48273967
F       14.23185480       4.79717732      12.78328390       1.66264176       0.79139314      -0.02750009
F       13.35571539       3.78500369      14.40438684      -0.48325671      -1.00710219       0.99686238
C       13.44841692       1.91668824      12.11455740       0.55028474      -0.28624982      -0.00768839
F       14.55442270       2.22423069      11.43521306      -2.09122615      -0.03635281      -0.49234271
F       12.81863179       1.10808438      11.30840233       1.01789554      -0.53584354      -0.11901272
F       13.72477743       1.29977904      13.26358135      -0.04465715      -0.87424814      -0.43283223
H       11.16757156       3.94652001      11.27326400      -0.03065835       0.08092438       0.16669131
H       11.71109435       2.67897218      12.94074579      -0.05774315      -0.06626629       0.08690322
O        7.94395005       8.21151447       7.92555681       0.45308183       0.15874761       0.52468519
C        8.32448496       8.33340384       6.59593674       1.44247543       0.87589061       0.87500448
C        8.33251332       9.73603583       5.99313576      -0.07893195       0.11979123      -0.63206640
F        9.16994992      10.60614467       6.68035404       0.56934579      -0.46065917      -0.06649303
F        7.14081090      10.29352111       5.99265063      -0.52701206      -0.36290359       1.05113836
F        8.74584005       9.75208922       4.72950744      -0.53578453      -0.50359377      -0.85629708
C        7.37960630       7.32971056       5.82770573       0.55296277       0.35661492       0.19363400
F        6.14070849       7.60774925       6.13457419      -0.50158170      -0.31711147      -0.33986218
F        7.72809979       6.09628329       6.19726841      -0.11016717      -0.01774698       0.51333716
F        7.43190103       7.36822617       4.45542034      -0.39405952       0.90686126       0.07874594
H        7.17847921       8.79013933       8.09259574      -0.09613792      -0.08305850       0.08257790
H        9.34450413       7.95910295       6.43404476       0.04409733       0.14605722      -0.37447035
