12
Properties=species:S:1:pos:R:3:energies:R:1:forces:R:3:charge:R:1 energy=-462.14366313561675 free_energy=-462.14366313561675 dipole="-0.11356603697640286 0.930990506607012 -0.19204295141201905" pbc="F F F"
C        1.35101378       0.02042775       0.05096106     -59.48791791       0.00066294       0.00036695      -0.00004677      -0.05085791
N       -0.08189441      -0.15050648       0.02695870     -79.52021580       0.00171004      -0.00011747       0.00009366      -0.07860322
C       -0.86400305       1.02537425      -0.24163401     -59.59005323       0.00192975      -0.00257575       0.00059719      -0.05086986
C       -0.62050066      -1.36038647       0.24855872     -59.18497622      -0.00146721       0.00131732      -0.00032508       0.24254639
O       -0.00130899      -2.37194754       0.47743286    -112.26077748      -0.00215841       0.00187477      -0.00046563      -0.41919581
H        1.70835685       0.38357291      -0.91528253     -13.20293844       0.00172902      -0.00094120      -0.00087969       0.04988807
H        1.79873351      -0.94839892       0.26423985     -12.90208093      -0.00011671       0.00056904      -0.00011906       0.08912169
H        1.63734779       0.73422929       0.82665134     -13.20293839       0.00163996      -0.00050061       0.00130706       0.04988806
H       -0.67465242       1.78946004       0.51763162     -13.12648316      -0.00318599       0.00008446      -0.00030226       0.05534282
H       -1.92359542       0.77701063      -0.23483291     -13.16360488       0.00177547      -0.00129868       0.00033404       0.05858989
H       -0.60382433       1.43970932      -1.21979478     -13.12648277      -0.00319825       0.00014432      -0.00000419       0.05534287
H       -1.72567262      -1.33854478       0.19911006     -13.37519392       0.00067942       0.00107687      -0.00018927      -0.00119300
