192
Lattice="14.05790476106759 0.0 0.0 0.0 14.05790476106759 0.0 0.0 0.0 14.05790476106759" Properties=species:S:1:pos:R:3:momenta:R:3 Built=T with=T Packmol=T charge=0 spin=1 external_field="0.0 0.0 0.0" pbc="T T T"
O       13.15146617       5.75007701       6.86770040      -0.10020823       0.21422986      -0.29720505
C       12.32278864       4.63026260       6.65530945      -0.18052616      -0.08299698       0.34811145
C       10.88696751       4.94082496       7.09961260       0.33899100       0.00146007      -0.42625151
F       10.51995310       5.97489731       6.34891405      -0.62881603       0.07891944      -1.07344897
F       10.66606414       5.18896582       8.41901682       0.05693339      -0.17110699      -0.10141559
F       10.11160178       3.91704849       6.79779930       0.40483561      -0.31448140      -1.15710207
C       13.00879127       3.41501068       7.32969856      -0.47454198       0.17287567      -0.89641513
F       13.41347424       3.74813872       8.50716859       1.43677047      -1.39293916      -0.20939314
F       14.12424548       3.06250518       6.66988242      -0.44218852       0.76795564      -0.34488063
F       12.21381261       2.31786324       7.41772698       0.51140869      -0.65566692       0.25841321
H       13.22161407       5.86403524       7.83714539       0.05120360       0.28552283      -0.08152198
H       12.24654253       4.46922493       5.56156025       0.06011452       0.04721336       0.06556889
O        1.94653146       9.04243464       2.12293714       0.00214533      -0.00145421       0.00227168
C        2.99086960       9.94970087       2.46848428       0.12894791       0.06654043      -0.05037804
C        2.68407079      11.28843996       1.88209575       0.55571214      -0.36587164      -0.64938339
F        1.45449267      11.63586947       2.26845730       0.47236341       0.14773542      -0.17200074
F        2.76021259      11.34044290       0.51766248       0.31310225       0.32556047       0.08899330
F        3.41984360      12.26875131       2.32826499      -0.64462877       0.21711855       1.48710121
C        4.38303139       9.31385588       2.10894941      -0.12269934       0.60154798      -0.19983063
F        4.41666800       8.72532955       0.92031777      -0.83484720      -0.10421050       0.42100511
F        4.66059974       8.30466574       2.99681751       0.73010264       0.38055187      -0.10882713
F        5.33497181      10.22955665       2.11674071      -0.41656079       1.56831634      -0.33882000
H        2.03077392       8.92107149       1.15015348      -0.15158172      -0.08281297       0.04734155
H        3.01605861      10.07030519       3.55122813      -0.03435640       0.04855172       0.10526439
O        7.38219330      12.51347419      13.47732417      -0.31143303       0.71559316      -0.33009732
C        7.85459985      12.63015714      12.17024895      -0.06164287       0.58297255      -0.10195753
C        9.28728386      13.17111595      12.10350390      -0.16227000       0.28778929      -0.53886348
F       10.05101375      12.66497611      13.11970310      -0.41987342       0.68343481       0.23441621
F        9.28443255      14.52620954      12.33020156       0.22233519       1.06227646      -0.87151121
F        9.87925055      12.87201926      10.93945228      -0.68714622       0.17454818      -0.26891541
C        6.80082582      13.48135601      11.39541646      -0.25439728       0.25215134      -0.20902122
F        6.54477022      14.58510426      12.10361369      -1.21910862       0.73921973      -0.04645424
F        5.68724726      12.74223398      11.37355232      -1.18433536       0.34880122      -0.25190577
F        7.15053878      13.84600051      10.19295450       0.13807544       1.68394956       1.37757559
H        7.46509464      13.36118196      13.94123662      -0.15318929       0.06177604      -0.08692991
H        7.79719301      11.63507552      11.74282386      -0.02287676      -0.11398365      -0.05187780
O       13.19031081       8.60683858       1.62204099       1.23028824       0.36858630      -1.93919219
C       12.26181084       8.89011232       2.60397898       0.27914887      -0.00656829      -0.01024003
C       12.58074215      10.07229579       3.47741584       0.47274026      -0.29579900      -1.00091849
F       13.05782437      11.04803817       2.77940429       0.95127631      -0.23493172      -1.93292306
F       13.49879462       9.80209316       4.49827405       1.16051551       0.41170404      -1.41395270
F       11.44776507      10.38523026       4.07873186       1.57784549       1.86591784      -0.43412652
C       11.88507796       7.54530500       3.34504491      -0.57737667       0.24606680      -0.69208258
F       12.74116248       7.32282962       4.30270539      -0.28059083       0.88974245      -0.41071975
F       11.93067499       6.51558283       2.46927696       0.57890406       1.66390927      -1.48549687
F       10.65272780       7.62852372       3.90359320       0.39994088      -0.08598881       0.48498027
H       14.07462693       8.42172865       1.99921332       0.39643876       0.12148786       0.07387867
H       11.30416460       9.05623017       2.07510240      -0.21049964       0.02283365       0.20378450
O       10.69335034       4.55264109       0.70739117       1.10566180      -1.00251265      -0.73894293
C       10.46674963       3.37244360       1.33912507      -0.22670644      -0.94915820       1.00509409
C        9.29885999       3.57898020       2.36279048       0.34381990      -0.26439840       0.19853686
F        8.30391393       4.10685470       1.68409879       0.78720956      -0.97551191      -0.61169195
F        9.65567460       4.48339056       3.32661178      -0.04012817      -2.06558789       0.06593041
F        8.87399983       2.43771799       2.99955987       0.22705181      -2.16727014      -0.24920466
C       11.73939078       2.77400069       1.88330584      -0.22517553       0.26013138       0.16005132
F       12.53982123       3.61958321       2.57644017      -0.77165740      -1.25580804       0.82882088
F       12.52407342       2.30145116       0.91254662       0.17798156      -0.86313099       1.08003002
F       11.49608727       1.73645353       2.68108938       0.30379789       0.51738588       0.20843544
H       11.12913944       5.19276192       1.29174406      -0.24494527       0.21895947      -0.01823034
H       10.14749765       2.52247355       0.71979914      -0.03819979      -0.08559160       0.00185717
O        8.71506448       7.00970667      11.70243392       1.05111839       0.09163763       0.97092225
C        8.48055478       8.32987961      12.11121622       0.31617471       0.46247292       0.63369845
C        9.14012092       8.61858207      13.43832922       0.11393503      -0.41312396       0.44969930
F       10.44898889       8.15758035      13.33150823       0.10333618      -1.99605991       1.03023544
F        8.54765920       7.96167382      14.46297227      -0.21355830      -0.09986980       0.70894816
F        9.26099636       9.87686063      13.78694478       1.13565624      -1.02840180      -0.29743021
C        6.97975792       8.72432689      12.12104665       0.37095143       0.15312512       0.40618511
F        6.33451572       7.85136168      12.92756847       0.45065133      -0.96997690      -0.46577093
F        6.44648949       8.58256219      10.88432113       0.31171449      -0.80068820       0.59454321
F        6.69575853       9.96308518      12.54898933       0.01395184       0.31429335       0.80407253
H        8.25861076       6.43115274      12.29729664      -0.20772210      -0.19702093      -0.06854409
H        8.98695123       8.95841761      11.39258236       0.03271122       0.07285153       0.05526380
O        3.73860549       1.25027623      11.90593887      -0.21636961      -0.49873561      -0.34232850
C        2.55762780       1.67210300      11.28971959      -0.33707432      -0.46140363       0.37735966
C        2.81261423       1.55569213       9.79618372       0.09950363      -0.60051537      -0.48626300
F        3.36952879       0.35326229       9.50880661       0.02598557      -0.72177325      -0.63014606
F        3.64858120       2.55095157       9.32599237      -0.01611385      -0.13386603      -0.30628335
F        1.66698311       1.72605892       9.12398827      -0.31306861       0.85248037      -1.77152366
C        2.17687058       3.10062157      11.78004823      -0.63994452      -0.32930859       0.03194979
F        2.83600497       4.05450436      11.11043216      -0.84516341      -0.22367976       0.81746837
F        2.60139870       3.20693661      13.05705468       0.43117997       0.41235120       0.20523996
F        0.88705912       3.36941505      11.68412829      -0.60892362       0.44002660       0.25514232
H        3.53043634       0.47113860      12.47428832       0.29201173      -0.09842705      -0.30177979
H        1.71008066       1.08329694      11.57611026       0.06956475      -0.19414009       0.05934106
O        2.33490473       7.00231231      10.85716669       0.39660164       0.27111460       0.16918511
C        1.94099085       7.46760347      12.12071597      -0.73531294      -0.21365541       1.04786237
C        2.67095136       8.72969957      12.39837121      -0.32915745      -0.54900964       0.28529245
F        2.51021866       9.55826850      11.44055883      -0.11431548      -0.20270863       0.54232163
F        4.00415937       8.56156024      12.46737424       0.30212525      -0.21496610       0.80346263
F        2.25161993       9.38773206      13.47787535      -1.03331638      -0.51356011      -0.18469061
C        2.11798873       6.42533063      13.28131554      -0.21738195       0.42707455       0.49464498
F        3.35513105       5.86053815      13.26969515       0.09848050       0.33485979       1.07926579
F        1.20019282       5.49629655      13.25926136      -1.85149133      -0.00179719       1.08813941
F        2.01848345       7.05254556      14.46877810      -0.15223380      -0.03756575       0.37067889
H        3.28786556       6.79281411      10.85945476      -0.03039808      -0.05212488      -0.15619335
H        0.90040423       7.72117521      12.05668843       0.28372655      -0.14445981       0.06942993
O        4.11000736      14.33696625       6.87673792      -0.46278765       1.54605152       0.34448148
C        4.58071122      13.06993357       6.49022509       0.25531194       0.89853748       0.60610086
C        6.07500316      13.00996703       6.72214569       0.47742776       1.38417178      -0.03455358
F        6.25582910      12.82760905       8.03708708      -0.51599677       0.87772822       1.44835237
F        6.60986657      14.19930417       6.37058594       0.98773563       1.93774955       1.08474492
F        6.71767371      12.05909900       6.07075432      -0.98827252       1.35770908       0.73053123
C        4.20058084      12.80710541       5.02448303      -0.28784769       1.23820693       0.32258934
F        4.84455201      13.63780144       4.17547344       0.17023968       1.85708257       0.30614247
F        2.84898943      13.07428860       4.78522475      -0.08452490       1.89231851      -0.36766859
F        4.39905120      11.49582302       4.68195464      -1.76426728       2.03663494      -0.77195854
H        3.18115667      14.38563042       6.58605980       0.06933544       0.15864644      -0.46050611
H        4.21668511      12.24047890       7.12871844       0.02123173       0.22009632      -0.23875220
O       11.63466178      12.84869623       8.78670072       0.27375539      -0.20075277      -0.64067014
C       10.83518944      11.83606959       8.33541655       0.63579810      -0.60074768      -0.70292662
C       11.41157489      11.10861107       7.11780714       0.11433689       0.40135963      -0.62120188
F       12.46444117      10.34770516       7.46784023       0.06975209       0.15096535      -0.43699324
F       11.90245130      11.93433084       6.20938129       0.07627948       2.50350426       0.31845926
F       10.47571764      10.31413890       6.58861905      -0.74518080       1.38546378      -1.31250864
C        9.41963950      12.34064637       7.86054626      -0.29641277       0.16410334      -0.24932786
F        9.40971485      12.61982185       6.53266289      -0.76749400       0.37533676       0.29342361
F        9.10360056      13.49808110       8.48911963      -0.25863518      -0.59495154      -0.12111013
F        8.43240741      11.51352160       8.13503966       0.01721639       1.21065503       1.30822546
H       11.69348583      13.59292123       8.19649359      -0.06564070       0.07892623      -0.23199686
H       10.57250788      11.17554555       9.15370169       0.01868192      -0.02687297       0.09001982
O       14.07743186       8.69335447      10.40330180      -0.29446936      -0.40720999       0.58162260
C       12.81038548       8.70459326      10.98656440       0.31557284      -0.74381661       1.16749061
C       11.91385461       8.02118284       9.93553736      -0.56382464       0.08962517      -0.10918625
F       12.25273402       6.75642041       9.89662031      -0.24189516      -0.57221595      -0.02391562
F       12.15858377       8.54035893       8.74902562       0.39497445       0.72698318       0.31283964
F       10.57621561       8.12271644      10.09627955      -0.50136443       0.71706645      -0.93171188
C       12.56839892      10.10559200      11.58914086      -0.36733603      -0.22463215       0.39222783
F       12.43872450      11.09223027      10.68779122       0.56004105      -0.58789430      -0.11529285
F       13.64717985      10.39013620      12.33054573       0.11391302      -1.01528004       0.29146641
F       11.49376066      10.16059356      12.43316682      -0.49760908      -1.06724770       0.42377798
H       13.95205964       8.79199570       9.46238857      -0.17938956       0.08411610      -0.16700670
H       12.84617762       8.03882184      11.83225563      -0.00715863      -0.05349077       0.09071413
O        1.96897966      12.15934094       7.03244779       0.00195440       0.83007010      -1.50427592
C        2.06475629      11.47085421       8.23857978      -0.14191589       0.42002159      -0.72706571
C        2.07207220       9.97349175       7.88649540       0.70771955       0.11871196      -0.79547894
F        3.06658946       9.75169443       6.99312989      -0.01803564      -0.48263574      -1.02734382
F        0.89961069       9.52435614       7.35224609      -0.45434838      -0.42812991       0.13650821
F        2.29588863       9.22961201       8.96025874       0.63476402       0.61786635      -0.08336575
C        1.00018648      11.96369802       9.17184988      -0.10030989      -0.14001918      -0.23074143
F       -0.19204682      12.06361170       8.56995332      -0.50429073       1.05705728       1.41654825
F        1.32079364      13.20010108       9.56155413       0.26465985      -0.49988004       0.60635746
F        0.92480689      11.24637897      10.26876766      -0.82012755       0.53822518       1.53343113
H        1.12440886      11.99453118       6.61217280      -0.04348920       0.04824098      -0.18743967
H        3.07713091      11.58773581       8.67560861      -0.07716985       0.04929666       0.02309742
O        8.83709626      11.31614836       4.13935438       0.67587051       0.79760910       0.64999214
C        8.74715431      12.43050041       3.32633319       0.33994355       0.44508835      -0.06192186
C        7.57314516      12.25308333       2.39420676       0.37641079       0.15264698      -0.66838330
F        6.44667604      12.00220655       3.09726314       0.25784799      -0.05884663      -0.18701667
F        7.83371745      11.21618793       1.55138591       0.81663238       0.13691654       0.53726366
F        7.29839527      13.37430709       1.68065334       0.21941434      -0.25740792       0.27321251
C       10.06411102      12.74789067       2.58787510       0.09657885       0.33787009      -0.32715756
F       10.53842158      11.67893419       1.98131043      -0.31896673      -0.39182004      -0.04616296
F       10.96491325      13.17458507       3.49450543       0.21903828       0.34175891      -1.23870632
F        9.87740898      13.70309233       1.66149041      -0.61972357      -0.29755588      -1.32855227
H        8.87530236      10.51372536       3.59659607       0.13319229       0.05840193       0.10970724
H        8.53560424      13.34757343       3.96230275       0.06833912      -0.08470564      -0.11929360
O        6.79642375       3.60310719       8.90741151      -0.38240427      -1.32271188      -0.29771619
C        6.25365911       3.90157736      10.15363090      -0.68890136      -0.09835116       0.89113976
C        5.76064935       5.30552404      10.26477820      -0.53446935      -0.98181428      -0.17270500
F        4.76012823       5.53247983       9.38616763      -1.33895991      -0.84507743       0.70911623
F        6.73658778       6.08204738       9.89559491      -0.70019548      -1.42737797       0.78485739
F        5.29287123       5.70178520      11.45011748      -1.07513781      -0.89151388       0.37346817
C        7.28192688       3.63800942      11.26933035       0.03952587      -0.68165265       0.32700927
F        8.41367367       4.40711680      11.11749418      -0.91638051      -0.47438555       0.93406885
F        7.75667922       2.39339463      11.16589350       1.01246896      -1.02325303       0.08610476
F        6.85719936       3.86801379      12.53846035      -0.46542784      -1.59561889      -1.47572913
H        7.13729815       4.40244088       8.51759681       0.08211237      -0.12499108      -0.14275202
H        5.46174626       3.16576270      10.32394649       0.00491044      -0.04154348      -0.08741681
O       10.54526060       3.19196613      10.18526384      -0.30213615      -0.22371056       0.21817124
C       11.25411884       3.10527808      11.35143964       1.77398178      -0.31939850      -0.12545279
C       11.97244233       4.40026071      11.67811375      -0.24211364      -0.63243154      -0.49574540
F       11.07782255       5.42521526      11.69699898       2.11140927      -1.06973835       0.38643110
F       12.95106900       4.76599124      10.89732526       0.15881916      -1.11153919      -0.05554978
F       12.49452138       4.31766631      12.94685570       0.72189499      -1.05563449       0.50653632
C       12.08783781       1.81316575      11.28380326       1.26115449      -0.51003875       0.06407145
F       13.10447950       2.05564128      10.40607717       1.19218287       0.20000511      -0.46671583
F       11.34625991       0.79136497      10.95708232       2.40888174      -0.36866681       0.08979394
F       12.64392527       1.50397343      12.47185468       0.85652482      -0.69138660       0.65851007
H       11.01907473       2.87084439       9.40716313      -0.19066170       0.04082420       0.19147223
H       10.51457448       2.98195447      12.13693230       0.23949563      -0.24788240       0.24006750
O        6.21411790       6.74813280       7.52257924      -0.43683116       0.02407160       0.16667055
C        6.80817783       7.39599915       6.46323629      -0.12547798       0.16018728      -0.44433480
C        6.00279995       8.55390182       5.96905206      -0.41289735      -0.62966549       0.21930875
F        5.75627208       9.52433445       6.89132735       0.69521084      -0.65749875       0.93698708
F        4.82364611       8.11704574       5.51556478      -0.24175189       1.21640494      -0.34015905
F        6.69422125       9.10387648       4.92656889      -0.14553281      -0.53250258      -0.54983300
C        7.10303482       6.26279941       5.43997278      -1.43051346      -0.19569796       0.14863069
F        6.02405862       5.50154810       5.29581820      -1.59881484      -0.10140427       1.10857095
F        8.07484278       5.54552076       6.07487984      -1.28154089      -1.23975715      -0.43101346
F        7.60420867       6.58677183       4.24653448       0.24215618      -0.59596321      -0.49672293
H        5.34053031       6.42925801       7.25735837      -0.06266781      -0.07688071       0.15797353
H        7.76488034       7.81737300       6.87432576       0.04561174      -0.08111642      -0.23097938
