192
Lattice="15.409710818284937 0.0 0.0 0.0 15.409710818284937 0.0 0.0 0.0 15.409710818284937" Properties=species:S:1:pos:R:3:momenta:R:3 Built=T with=T Packmol=T charge=0 spin=1 external_field="0.0 0.0 0.0" pbc="T T T"
O       13.21038914       5.89576533       7.01977567      -0.18310951       1.02553247       0.46373138
C       12.98289614       4.55049496       7.18799349       0.19244749       0.48932717       0.11771248
C       11.49801487       4.23804696       7.46651283       0.65702768      -0.70727642      -0.83867827
F       10.73889068       4.80431477       6.49244738       1.63297312      -0.52800255       0.24188747
F       11.03392788       4.69401699       8.68960779      -0.20697376      -0.87309417      -0.50422441
F       11.27173170       2.95960780       7.48170876      -0.79895170       1.44732295      -0.06190565
C       14.03002529       3.93522255       8.07732520       0.80584412       0.42539862       0.74596369
F       14.18484526       4.72537663       9.14697930      -0.26344884       0.13287803      -1.10129807
F       15.23461381       3.95936330       7.46349084       0.30899622      -0.42648326      -0.03490020
F       13.78136824       2.67541414       8.41484231      -0.37578161      -0.19541929      -0.63507191
H       13.05350201       6.45301723       7.81752700      -0.17256484      -0.10604172       0.00799374
H       13.05801148       4.04709867       6.13003373      -0.19480813      -0.08787270      -0.02632476
O        2.87860238       9.45267039       2.60309362       0.94823372      -1.06998507      -0.41181565
C        3.56641571      10.67746474       2.61591785      -0.21928838      -0.05392968      -0.07318502
C        2.61466691      11.70968990       2.09288411      -0.06601234       0.38974025      -1.08270423
F        1.44836580      11.67005232       2.75621928       0.92702489      -1.66155023       0.00561438
F        2.34383587      11.66452892       0.74594446       0.53160309      -0.04937952      -0.17626703
F        3.05921997      12.95589569       2.31262766      -1.50694603       0.66401885       0.18815313
C        4.90787337      10.55030863       1.88055140      -0.26516723       1.07108631      -0.01488504
F        4.86553094       9.86926625       0.69759052       0.23797630      -0.50399634      -0.31843322
F        5.73299632       9.84965016       2.70040136      -0.37662700       0.38185621      -0.37506741
F        5.40941689      11.78276568       1.59624147      -0.25753359       0.64714261       0.88946857
H        3.48555699       8.71234973       2.42250284       0.00417332       0.16305744       0.01831367
H        3.86877647      11.06019335       3.57075312      -0.12175353      -0.11653725       0.11525556
O        7.17184158      13.68404340      14.54566417       0.73097545      -0.17444125       0.95197351
C        7.71614790      13.92445451      13.28245968       0.07376284       0.35073809       0.19059261
C        9.21532041      14.21562165      13.34413824      -0.45704373       0.11191987       0.50969064
F        9.87023639      13.44469171      14.20968519       0.42957923       0.16314146       0.89533778
F        9.47708125      15.48502343      13.71948411       0.58453656       0.08708564       0.20598817
F        9.77098470      13.98458897      12.09552676       0.64503633      -0.30990072       0.76836493
C        6.82925278      15.04754084      12.69661155      -0.48572238      -0.46205029      -0.62279902
F        6.80231017      16.06767775      13.54513882       0.06706941      -0.58367539      -0.11564956
F        5.62597343      14.58331191      12.56658784      -0.97621410       0.68308836      -0.47511965
F        7.28775135      15.52206030      11.53137248       0.14923842       0.76930061       0.57157560
H        7.75162476      13.16546796      15.07805472      -0.32365609       0.07657514      -0.01504995
H        7.52418015      13.01159561      12.67748066      -0.11159936      -0.10963651       0.13614237
O       13.42682991       9.93896071       1.75600267       0.33781415       0.34187248      -0.24396203
C       13.06174980       9.61254317       3.02871644      -0.49814335      -0.57088328      -0.57012015
C       13.84809369      10.35119859       4.14684240      -1.00966327      -0.60647144       0.69982283
F       14.04541177      11.62541538       3.80936282      -0.07247781      -1.66448380       0.95082623
F       15.06391970       9.78580535       4.44043611       0.62943335       0.75909739      -0.00528383
F       13.08172034      10.24063731       5.24428958       1.00774473      -0.64962200      -0.05125801
C       13.00793761       8.11227542       3.16999075      -0.18947682       0.34041879       0.04090471
F       14.17696030       7.59721684       3.45535191       0.32900897       0.21581759       0.15772067
F       12.60839776       7.59199938       1.97110072       0.64943906      -0.36516874      -0.70877376
F       12.15302339       7.70356904       4.15239797       0.34430679      -0.20344878       0.86404544
H       14.30362307       9.53792010       1.56218223       0.25729747       0.12758661      -0.00198669
H       11.99406046       9.96653039       3.07746236       0.11558498       0.35846938       0.04558389
O       11.19429218       5.25445114       1.18577012      -0.14194003      -0.65299088       0.77318339
C       10.99294486       4.10051281       2.00383154      -0.89168904       0.44381912       0.31416643
C        9.77611886       4.51091027       2.91375110      -0.68671603       0.48818976       0.99552263
F        8.80154418       4.93736783       2.16118174       0.94418470       0.52611414       0.21173896
F       10.10413170       5.53975080       3.70842853       0.37813580      -0.39874194      -0.01843539
F        9.34013743       3.46175936       3.70661913       0.26448489       0.07812996       1.09810362
C       12.22776458       3.58439125       2.65223909      -0.56151151       1.15387845      -0.64738123
F       12.99528930       4.57316971       3.21445366      -0.02029092       0.61305507      -0.04717246
F       13.07880019       3.04086453       1.76537152       0.43171312      -0.85986527      -0.69642292
F       11.94726167       2.70309651       3.58797572      -1.07598698       0.82459063       1.04864678
H       11.79829192       5.88179457       1.59727919      -0.01845692      -0.13989641       0.08581498
H       10.63404383       3.29628635       1.34817895       0.38653536      -0.11778022       0.10665101
O       10.31267747       7.85315446      13.24117348       0.26292207       0.95235233       0.11166763
C        9.82643542       9.13792910      13.46330608       0.78050615       0.21523375      -0.17665614
C        9.84254003       9.51596503      14.94271988       0.81466392      -0.43426283      -0.14303397
F       11.05483194       9.34467832      15.36495940      -0.24256244      -0.84973186       0.60568832
F        8.89641414       8.82059716      15.64375329      -0.02711700      -0.31075351       0.51180893
F        9.56016701      10.81711120      15.22137541       0.36164355      -0.02882028       1.41377165
C        8.37743621       9.26748150      12.87457874      -0.54157924      -0.70801009       0.12363691
F        7.59862867       8.34053581      13.37312777      -0.73089087      -0.57303219       0.52505064
F        8.52543050       9.10707807      11.50322293      -1.12670044       0.19429039       0.31191872
F        7.77634159      10.54625134      13.02691926      -0.39195985       0.23652131      -0.69218007
H        9.80988552       7.27517706      13.84584394       0.06185927       0.19086339       0.07253886
H       10.39765463       9.84136477      12.87602652      -0.22842671       0.17684146      -0.28953264
O        4.42019688       1.54850915      12.16537066       0.22488555       0.41290378       0.66833582
C        3.05329654       1.66008790      11.95638315       0.26335682       0.24098763      -0.12561605
C        2.81970740       1.75797148      10.42833414       0.48485003       0.52093637       0.35078678
F        3.57161427       0.80941525       9.80105441       0.18536310      -0.73936224       0.16319865
F        3.15620135       2.97700154       9.93474236       0.99729198      -1.09461655      -0.58404234
F        1.52412483       1.60685331      10.12843826      -0.67318513      -0.44845010      -0.11869114
C        2.44779012       2.87219925      12.73651193       0.05048723      -0.16142856      -0.68579190
F        2.54186344       4.03822716      12.11631031       0.93526564       1.14982353      -0.70028600
F        3.20007151       3.01056091      13.83636993       0.62107609      -0.54895122       0.30923708
F        1.14039764       2.73857527      13.03288259       1.24931374       0.67879074      -0.46977793
H        4.66441559       1.63348639      13.06870497      -0.07577663      -0.25990422      -0.14850877
H        2.45236887       0.75348092      12.28963317       0.18324276      -0.21398928      -0.07054031
O        2.85640335       6.81787651      11.87298884      -0.34481404       0.03934744      -0.46269749
C        2.27313359       7.65701200      12.82513392      -0.36021227      -0.19509070       0.04461434
C        3.22165641       8.83733638      12.98103219       0.95208599      -0.03372085      -0.50030095
F        3.37210815       9.37184988      11.84598304       0.81392639      -0.39471694      -0.58711653
F        4.42642448       8.47308663      13.37868032      -0.52573937      -1.05802531      -1.08824782
F        2.70531173       9.79527378      13.77970849      -0.52186471       0.62716017      -0.88152380
C        2.05543452       7.02696056      14.20365025       1.10285332      -0.64421449       0.83758988
F        3.09584612       6.26917851      14.59914074       0.11689883      -0.03927087      -0.13589680
F        1.00795924       6.26098442      14.17041071       1.12899709      -1.13401812       0.93469712
F        1.86031498       7.89814526      15.15324985      -1.08520039      -1.66456164      -0.33445356
H        3.27544235       6.05692951      12.28954827      -0.08654873      -0.01943688      -0.20693362
H        1.32448232       8.07306409      12.57176022       0.09410394      -0.15122243      -0.03588177
O        4.31313278      15.60293566       6.95974821      -0.38583256      -0.82267436      -0.64909215
C        4.88364235      14.36781927       6.63547892       0.50932781      -0.06238469       0.56501645
C        6.39485414      14.40050273       7.18475105      -0.44116810      -0.10084297      -0.27980816
F        6.35624126      14.26990230       8.54173254      -0.45930099       1.45339124      -0.16262258
F        6.89276736      15.58728988       6.81809159       1.73572720       1.54431593       0.73623817
F        7.16483052      13.40235996       6.72994896       1.22597494       0.62715688       0.36899615
C        4.75729233      14.02932131       5.19176290       0.28378439      -0.86624498       0.12486568
F        5.54780536      14.80072624       4.43506968      -0.29806922       0.61128433      -0.43550852
F        3.48472055      14.14001419       4.73480083       0.58299588       0.23783929      -0.57636358
F        5.06544676      12.67867806       5.00767507      -0.28297170       0.38219055       0.07323047
H        3.35746744      15.39923171       7.14374765       0.10685486       0.05359180      -0.16210537
H        4.43776124      13.53561337       7.20300483       0.15090651      -0.28163853      -0.08615013
O       12.99772798      15.29480168       8.33265592       0.23870846      -1.06219213       0.23322619
C       12.23768363      14.08158775       8.14345036      -1.41759049       0.36183918       0.96444784
C       12.85217710      13.09130088       7.16633247       0.44728945      -0.50740143      -0.18888508
F       13.99437921      12.60856151       7.58806301      -0.23541017       0.46213418      -0.11267313
F       13.08270251      13.69440189       6.04187270       0.42045780      -0.21518093      -0.25201409
F       11.98878755      12.12873111       6.99716592       0.67082020      -0.10462239      -1.19161860
C       10.73741179      14.35819386       7.74285614       0.65391427       0.62726453       1.53773779
F       10.59584240      14.19732094       6.39193250       0.39380765       0.11517451      -0.45935959
F       10.38891292      15.59996356       8.08499205       0.73362425      -0.36064176       0.05935193
F        9.91069934      13.50197951       8.34902846      -0.33779531      -1.03435225      -1.66717902
H       13.00611177      15.90816550       7.60986483       0.23105937       0.15728781      -0.03303011
H       12.28879624      13.58971471       9.10479008       0.00238214       0.10573890       0.19237828
O       14.54659545       7.96821918      10.75472161       0.28483413      -0.29238693       0.01100107
C       13.31076204       8.34510325      11.37038131      -0.48090359       0.73144739      -0.03198144
C       12.23694377       8.00847341      10.37159834      -0.61517786       0.19074704       0.22423867
F       12.17063527       6.66509682      10.25996714      -0.83211023      -0.38918943      -2.30357475
F       12.61946634       8.48244502       9.17914321       0.04308480      -1.01403429      -0.01846026
F       11.02876891       8.52076603      10.55791882       0.47274951      -0.36891195      -0.37432722
C       13.56293435       9.67787255      12.05904194       0.03252571      -0.02405264      -0.22241594
F       13.71826866      10.68044316      11.17791659       0.87145469      -1.00559327      -0.38823559
F       14.61800517       9.60061540      12.76614848      -0.29313748      -0.34178068      -0.75829352
F       12.54870300      10.01988687      12.88049022      -1.38677845       0.35201111      -0.38647068
H       14.60610616       7.02449991      10.61788892       0.08138515       0.03456139       0.31748819
H       13.16352526       7.65129893      12.24532397       0.15256453      -0.39078003       0.37731648
O        1.64386318      14.24789341       8.47669589       0.86438842       0.03799619      -0.55733916
C        1.84615863      13.30609725       9.44202819       0.61481313       0.40320554      -0.32538658
C        1.99660550      11.88510299       8.79794714       0.49762588      -0.29281354       0.53463522
F        2.95455818      12.03814935       7.83964377       0.82093663       0.43256928      -0.02564368
F        0.90339221      11.45006037       8.09112584      -1.05951582       0.89934615      -0.06859150
F        2.37303864      10.94540342       9.62759501       0.05819474      -0.22216013      -1.28903609
C        0.80619973      13.42423832      10.52241094      -0.65214537       0.60760997      -0.29555656
F       -0.40148171      13.54115119       9.96540605      -1.56440236       0.18553954      -0.42240840
F        0.99265421      14.58111641      11.22541569       1.00019074       0.12944125       0.45012715
F        0.86854050      12.41816832      11.39953114      -0.06219749       0.04740609       0.83319936
H        0.81436292      14.08289206       8.00188836      -0.12492736       0.18234467       0.09313363
H        2.83135777      13.43436578       9.81344628       0.24220047      -0.13285096      -0.18236581
O        8.46663176      13.08145751       4.37514319       0.47487199      -0.36509799      -0.31199247
C        9.40648489      13.49355957       3.46565696      -1.01527691      -0.17451871      -0.18868850
C        8.72402181      14.10858103       2.27805656       0.10245519      -0.27931693       0.15068377
F        7.89940563      15.14432847       2.66009008      -1.02568530       0.59654400       0.13773997
F        7.90614790      13.19878710       1.65951746      -0.05762289       0.53017917      -0.37590435
F        9.54035438      14.69037062       1.34530982      -0.52307781       0.11060517       1.11585869
C       10.35637668      12.33350553       3.01088918       0.27143431      -0.32009120      -0.00217250
F        9.67404097      11.23602380       2.69796651       0.97860339      -0.75698780       0.65394021
F       11.14067176      12.01391858       4.00890327       0.42190603       0.35799877      -0.97235926
F       11.05919775      12.66344361       1.91756178       0.26646532       1.29044249      -0.08422258
H        8.69954173      13.39288651       5.24781481       0.05998172       0.05598061       0.01784713
H       10.08659279      14.30463750       3.87630377       0.09495254      -0.09428865      -0.00528541
O        6.90002530       4.76470004       8.96660342       0.65309287       0.43263728      -0.14284595
C        6.56276179       4.63511564      10.33114672       0.04746348      -0.90365666      -0.03685792
C        6.32879676       5.98532127      10.95945807      -0.28476136      -0.89833736       0.70461949
F        5.29541454       6.60924923      10.42292305      -0.15085846      -0.98211159      -0.93946393
F        7.43419107       6.70399557      10.71240572       0.69662660      -0.98105511      -0.68900573
F        6.18038947       6.00948612      12.29479032      -0.48462543      -0.26241298      -1.20033224
C        7.72255529       3.91307513      11.05526365       0.28025377      -0.76388949       0.65260096
F        8.90230895       4.58731993      10.95916690      -0.58355882      -0.35042024      -0.33874382
F        7.98465612       2.74201736      10.45318535       0.14210401      -0.05149150      -0.88950587
F        7.52528329       3.72169237      12.36441140       0.29561034       0.31426962       0.39578698
H        7.61883992       5.35509805       8.83577927       0.11558381      -0.21050204      -0.03897259
H        5.65561847       4.03122031      10.53571527       0.27830328       0.07135338       0.03315770
O       11.93884645       3.39049910      11.36747349       1.14857924      -0.06780965       0.14604477
C       12.54466722       3.24919456      12.61484781       0.00012932      -0.06768290      -0.02308415
C       13.37456738       4.48955607      12.95768738      -0.27144672       0.38266239      -0.58548025
F       12.58345689       5.56541018      12.97766522       0.97648375      -0.16782499      -0.53905439
F       14.42348355       4.81079059      12.20268025       0.19917563       0.29874399       1.20484287
F       13.86367873       4.40520563      14.18932450       0.07404276      -0.79218873       0.48133086
C       13.35349856       1.90915977      12.53903715      -0.87399175      -0.46490207      -0.52502474
F       14.34957943       2.07152688      11.70361987       1.01041886      -0.29438082      -0.72412593
F       12.54983886       0.91334280      12.19427243       1.25117142       0.05850428      -0.04855420
F       13.81709972       1.52196882      13.71476248      -0.14104048      -0.38947797       0.28718859
H       11.33546518       4.16548539      11.37155912       0.25132664       0.04604522      -0.00633270
H       11.79636047       3.15760377      13.39349852      -0.35080678      -0.27743727      -0.12093964
O        8.18057022       7.99526120       8.07548592       1.21987869      -0.40285125      -0.11274645
C        8.56738647       8.10467776       6.70937144      -0.22417688      -0.03305424      -0.20920597
C        8.54617166       9.51082369       6.26570169      -0.18450589       0.60036623       0.91068053
F        9.33141029      10.36355993       6.97294886      -0.05352014      -0.95505067      -0.08992440
F        7.28539220      10.02727033       6.38457611       0.27024045      -0.10065371      -0.83773269
F        8.90775412       9.52521649       4.96695715      -0.56516344      -0.17894079      -0.78869182
C        7.63003671       7.09961635       6.01573971      -0.27691801      -0.56999003      -0.45951324
F        6.32858001       7.27036105       6.36371858      -0.61806511      -0.47444421      -0.30822024
F        8.02507073       5.89622481       6.40639680       0.23300874       0.91788179      -0.75379488
F        7.65542810       7.07001206       4.65322678      -0.30135973      -0.79312403      -1.29333322
H        7.23281164       8.22469080       8.10915571       0.00469539       0.01310193       0.39512018
H        9.59234638       7.70791687       6.72687347      -0.25132654       0.01595800      -0.16832265
