192
Lattice="15.214233889464131 0.0 0.0 0.0 15.214233889464131 0.0 0.0 0.0 15.214233889464131" Properties=species:S:1:pos:R:3:momenta:R:3 Built=T with=T Packmol=T charge=0 spin=1 external_field="0.0 0.0 0.0" pbc="T T T"
O       13.22072238       6.00644211       7.35104707       1.18155329       0.20658227       0.31947145
C       12.88587987       4.65369397       7.61985898      -0.22541585      -0.17555359       0.17338086
C       11.47249996       4.54241367       8.13474296       0.68502655       0.91402016      -0.21946073
F       10.68516133       5.15517015       7.19134864       0.32975547      -0.33602582       0.28597123
F       11.20897266       5.10506492       9.34172838       0.17491118       1.33576513      -0.66886232
F       11.14928846       3.26830821       8.28987340      -0.56810968      -0.19249101      -0.58837126
C       14.01555550       4.04183078       8.41989698       0.53357759      -0.27034990       0.18289395
F       14.31950450       4.87340725       9.38563602      -0.87860541       0.73164678      -0.53519586
F       15.14569309       3.95076460       7.70489231       0.20166465      -0.56938922       0.47405653
F       13.70365286       2.83219958       8.93123260       0.00317535       0.71360425      -0.83408854
H       13.60379103       6.47002739       8.11205813       0.38876317      -0.20317889      -0.22610256
H       12.82202558       4.08688016       6.62293176      -0.28995642      -0.08030619      -0.19637990
O        2.34349680       9.48535387       2.63736274       0.27922884       0.01319160       0.10078508
C        3.42872737      10.35425692       2.78063510      -0.29622654      -0.25679149      -0.84820586
C        3.14266474      11.59695513       2.03968641       0.70414465       0.29206993       0.04603515
F        1.95258046      12.07557649       2.43461624       0.53954024      -0.22150939       0.06483640
F        3.12989060      11.49323399       0.68402402       0.64249961       0.95517475       0.21773545
F        3.95331984      12.60082901       2.32249740       0.75625349       1.21628997      -0.12204509
C        4.71020807       9.63773015       2.39242342       0.21470388      -0.09091292      -0.08887101
F        4.69302540       8.88341101       1.30129334       0.20117147      -0.30829817      -0.33831000
F        5.05760141       8.74360781       3.43698568      -1.08255935       0.49948855       0.17133927
F        5.77442987      10.48463484       2.27071241       0.60717047      -0.30200676      -0.13260584
H        2.10254105       9.10402848       3.49355089       0.02910422       0.29257281      -0.13228268
H        3.50125887      10.63226909       3.85545968       0.31004921       0.28899154      -0.03770156
O        7.29771825      13.81447508      14.18468197      -0.58931890      -0.11760623      -0.37443738
C        8.03019744      13.79294925      13.02793069      -0.20148547      -0.63690413       0.29864984
C        9.48712539      14.27886202      13.21115597       0.43583922      -0.42691882       0.94234141
F       10.00476717      13.75594986      14.39115384      -0.96617246       0.07314279       0.42514527
F        9.57330559      15.61984392      13.35496150      -0.70794674       0.24829690      -0.63796747
F       10.27670954      13.79354309      12.23377531      -0.36869341       0.48088005      -1.34298668
C        7.21770226      14.66371039      12.02035595      -1.05435410      -0.18486755      -0.44474549
F        6.95134184      15.84671462      12.56979228      -0.50072559      -0.42647698       0.10981194
F        6.08467078      14.01962915      11.78423686       0.35356059       0.95438112       1.68009098
F        7.85094493      14.88756218      10.84720657       0.30750526       0.43005813      -1.35104716
H        7.42045476      14.67551118      14.57343534      -0.32209148      -0.06999603      -0.05657146
H        7.92415274      12.76089602      12.71621422      -0.18261980      -0.05620661      -0.21657777
O       14.08215652       9.21421630       1.59253868       0.02193059      -0.41876837       0.07542657
C       13.33151870       9.41024177       2.71194473       0.61557790      -0.78747128      -0.34823266
C       13.99303137      10.37560907       3.77836690      -0.31092638       0.58376844      -0.86322277
F       14.50236691      11.40119078       3.14703912      -0.00044520      -0.91973191      -0.74901060
F       14.94167794       9.77491251       4.54187761       1.17516868       0.33831927      -0.27592802
F       12.99999560      10.72855953       4.55635419      -0.31222550      -0.05720163      -0.60164020
C       12.85984943       8.03913536       3.27242484      -0.59352308      -0.98169732      -0.43955366
F       13.80088652       7.53179910       4.02390889      -0.63603842      -0.38975344       0.47716654
F       12.65829362       7.19290042       2.25134553       0.81362711       0.02542548      -0.08363916
F       11.73179005       8.16992426       4.02074014       0.93704239       0.71370510       0.64115839
H       14.31454687      10.07085148       1.12963516       0.04416997       0.07496476       0.11896286
H       12.37241589       9.85647932       2.42059260       0.25696651       0.25878267       0.07956392
O       10.98591800       4.51223467       0.52260887      -1.47856513      -0.50675435       0.00580606
C       10.71872539       3.66985043       1.56835632      -0.70275996      -0.68258224      -0.14316858
C        9.94370716       4.46753739       2.61782270      -0.50697364      -0.09467755      -0.36708985
F        8.90081935       4.97434052       2.02145726      -0.29638126      -0.31815527       0.38928203
F       10.67107693       5.48789167       3.12121842       0.11265785      -0.74455295       0.73111666
F        9.49861537       3.69228057       3.67694861      -0.50455842      -0.71081233       0.03553413
C       12.00568686       2.96523762       2.00638943      -0.26884356       0.25239867       0.33067445
F       13.06060421       3.74274124       2.21170669       0.33965921      -0.40075872       0.51820229
F       12.44464022       2.06386312       1.14796903       1.31135328       0.03702753       0.54663088
F       11.80076383       2.31095333       3.16377749      -0.31462337      -0.16918153      -0.85092659
H       11.70742050       5.17492294       0.71650202       0.11324108       0.22366647      -0.01981141
H       10.11213832       2.83269208       1.27638799       0.14576627       0.14057761      -0.00372987
O       10.09505257       7.65268079      12.88585390      -0.20266743      -0.86956383      -0.96997690
C        9.61636326       8.80103786      13.48133287      -0.85671458      -0.23410275      -0.20175527
C        9.77013303       8.76456949      15.00759350      -0.19404616      -0.19908340      -0.58012631
F       11.06404201       8.43348264      15.25167574      -0.44739762       0.50040556       0.88518809
F        8.91943658       7.83231143      15.59697469       1.56132733      -0.47521392      -0.99451167
F        9.58805187       9.90883762      15.65206876      -0.91853086       0.40295844      -0.91990765
C        8.13127591       9.06284889      13.07341121      -0.47716239       0.07727570      -1.17299741
F        7.37826005       7.98843386      13.39167610       0.37384400      -0.07853883      -1.14779323
F        8.04056638       9.23799225      11.74846710       1.21576954      -0.36278563      -0.13743214
F        7.55832419      10.16137835      13.67674820      -0.13063742      -0.44066033       0.34599825
H        9.64767560       6.86562070      13.27909104       0.15700363       0.24162694       0.11770911
H       10.19297234       9.64596793      13.15157317      -0.02831164       0.00451108      -0.03269166
O        3.64790619       1.28396464      12.36463679       0.90586015      -0.35096771       0.33459201
C        2.58225725       1.98233109      11.88303176      -0.00804483      -0.51791180       0.08197933
C        2.85806713       2.16311557      10.37281514       0.48800024      -0.02935821      -0.81952238
F        3.26273089       1.01177660       9.83705013      -0.81248074      -0.26364826      -0.53299038
F        3.83699121       3.09080462      10.14827726      -0.23020684       1.33089151      -0.10924154
F        1.78730436       2.67030518       9.75525240      -1.23587716      -0.59697240      -0.55950728
C        2.38545628       3.32849503      12.66205461      -0.54179036      -0.76791077      -0.81106911
F        3.21867179       4.32178739      12.21731372       0.41077583      -0.11963942       0.43274747
F        2.77753301       3.10656360      13.93029177       0.29906397      -0.45162752      -1.02647130
F        1.17821209       3.84320650      12.61430082      -1.08830003       0.35551542      -0.12301939
H        3.43782695       0.96106561      13.20804194      -0.21830928      -0.22627825       0.06580739
H        1.58320610       1.49904587      11.99053316      -0.00054124       0.03030755      -0.11565493
O        2.64769303       6.94818698      11.87073105      -0.40133846      -0.35810200      -0.80478631
C        2.05048343       7.58433805      12.97846460       0.60536100      -0.62768237       1.18990947
C        2.66970654       8.93904957      13.17041409       0.36635469      -0.18873035       0.62188036
F        2.60943293       9.60492113      12.05939009      -0.67032636      -0.08248391       0.23020300
F        3.97503901       8.87916849      13.42049025      -0.43701071      -0.05389611      -0.33041623
F        2.02231043       9.69333292      14.06147163       1.07998004       0.14183449      -1.87326442
C        2.11010110       6.75794507      14.30078807      -0.84971162      -0.18571093      -0.41212013
F        3.37235288       6.28944176      14.56737856      -0.15253718      -0.50505819       0.47798005
F        1.26937371       5.77129170      14.30471251       0.82559512      -1.35990919      -1.32779256
F        1.82850756       7.53064752      15.33634368      -0.46156442       1.06390828      -0.53370670
H        3.17829726       6.22699504      12.19505615      -0.15953532      -0.16535131       0.01116992
H        0.99500443       7.71851326      12.76423018       0.06349470      -0.47521040       0.08139839
O        4.11643827      15.17248395       7.40871455       1.23550593      -0.29442772       0.38350683
C        4.86575495      14.10693226       6.84518211       0.60886193      -0.68843412       0.15104022
C        6.36130540      14.38828378       7.08520420       0.51862311       0.28592574       0.65434418
F        6.57810410      14.05039307       8.38581141       0.53410818       0.24341742       0.61487607
F        6.59197798      15.69819175       6.91825445       1.18345750       0.28386063       1.00628400
F        7.19031810      13.66711365       6.33493145       0.17179220       0.08843005       0.73813463
C        4.54308276      14.01702423       5.31286945       0.55207465      -0.82825904       0.70891012
F        4.96860728      15.06145372       4.63676909      -0.00210089      -0.46471135       0.20752706
F        3.18797060      13.95436230       5.12747166      -1.13902891       1.11245602      -0.69268550
F        5.03347115      12.82158112       4.83070238       0.69848734      -1.05927678      -0.63683715
H        3.21503937      14.81126115       7.56364620       0.13181639      -0.22589956      -0.02901560
H        4.66707826      13.11222226       7.22592213      -0.20883207      -0.04623908      -0.00543897
O       12.63577283      14.60725588       8.97046064       0.18384646      -0.56648919      -1.11172222
C       11.78440446      13.54700357       8.62761601       0.71989754       0.95536761      -0.26956045
C       12.24428379      12.78142097       7.39206143      -0.40864455       0.04489204      -0.99244750
F       13.33954188      12.08158982       7.60531857       0.07349842       0.90610589      -0.12890538
F       12.55766359      13.58972539       6.40708548       1.02708101       0.21266608      -0.14873625
F       11.28477171      11.96945683       7.00032958      -0.72310957      -0.08148007       0.96463390
C       10.34782325      14.02673597       8.36916483       0.07153481      -0.18091257      -0.84041155
F       10.14335528      14.23098363       7.01367681       0.05110637       0.72326711       0.75080472
F       10.07014217      15.18708349       8.99120111      -0.32224875       0.15144980       0.23497361
F        9.40779298      13.15299862       8.76162131       0.40025800       0.58817121      -0.86820515
H       12.39006735      15.03557515       9.83020328      -0.02399745      -0.22721449       0.12545499
H       11.70048486      12.81403900       9.51036821      -0.08682805      -0.10768301       0.21428161
O       14.79582851       8.70088507      10.90463795      -0.51509320       0.19448771       0.09376169
C       13.49093462       8.92977068      11.44319079       0.58927380       0.68587663      -0.15247316
C       12.52153629       8.55884759      10.34911583      -0.89208580       0.11013599      -0.08144442
F       12.56701533       7.25186546      10.20865892      -0.17084929       0.66644187       1.27866803
F       12.90739912       9.10679524       9.22650044      -0.75266027      -0.83742284       0.31932116
F       11.24428561       8.92708668      10.54069338      -0.14194906      -0.08601192      -0.53123685
C       13.58110002      10.30996307      12.20175817      -0.34399170       0.80357043      -1.02982250
F       13.69145109      11.36741518      11.36554540       0.28698174       0.01170184      -1.09168806
F       14.65663868      10.27364238      12.97611376       2.36544452       0.41830792       0.40756812
F       12.53100805      10.50073546      13.02050731      -0.37478667      -0.07661415       1.10020954
H       14.80626555       9.16801073      10.06866325      -0.14377974      -0.24384857      -0.20288148
H       13.30672106       8.12796385      12.23938745       0.03699303      -0.10751603       0.15280507
O        2.02330831      13.56765450       8.10982008       0.90520164      -0.10959991      -0.26244386
C        2.04086144      12.70057026       9.17950135       0.34024863      -0.27257206      -0.24320803
C        1.99875323      11.26206449       8.61033581       0.50530150      -0.35844954       0.58033727
F        3.01994608      11.17320270       7.69728652       0.64744234       1.13671442      -0.52388685
F        0.87157874      10.92830604       7.95022961      -0.11687709       0.47955879       0.24718908
F        2.22431718      10.33532659       9.53329118       0.94564813       1.55466723       0.91724463
C        0.96681768      13.04358591      10.14784320      -0.10285027       0.15075363      -0.21547856
F       -0.16752105      13.28556924       9.55577194       0.15729576      -0.07662811      -0.75872537
F        1.33154212      14.20042331      10.77232134       0.76289012      -0.67811314       0.77918861
F        0.87406551      12.12872695      11.12977631      -0.29048451       0.42062462      -0.14207399
H        1.15818046      13.90504930       7.91969134      -0.11794134      -0.00694261      -0.06723243
H        2.96938764      12.78878089       9.74842929      -0.13154167      -0.41191664       0.00452993
O        8.99587846      12.04884723       4.25316672      -0.98929462       0.37432801       1.04882880
C        9.14470036      13.16384075       3.44219659       0.99046331      -1.60744418       0.18733397
C        8.05626067      13.16103985       2.40080187       0.36725176       0.09635479       0.41047458
F        6.84331381      13.13530671       3.03557967       0.60853576       0.47396851      -0.15989709
F        8.15477466      12.08123254       1.62297874       0.89209999      -0.68669876      -0.18788749
F        8.02885468      14.29760281       1.66059654      -0.20368952       1.41808014      -0.86261068
C       10.56318825      13.23771206       2.79124378      -1.22377735       0.22502032      -0.19187445
F       10.86276249      12.04505129       2.24262205       0.48725064      -0.26045274      -0.46710060
F       11.46137524      13.48648062       3.74783728      -1.06080676      -0.95717076       0.94273663
F       10.61065579      14.14390024       1.80778452       0.53306827      -0.06622914       1.34445106
H        9.47835263      12.17786083       5.07003897       0.30597351       0.09381188       0.44309241
H        9.06658489      14.10530341       3.96165150       0.16644268      -0.17923973       0.05749180
O        6.95240898       4.53180095       9.41021209       0.62228583       0.05138605      -0.63692488
C        6.57113698       4.47929299      10.76866339       0.29855316      -0.36315902       0.10611238
C        5.92490504       5.77091266      11.22901313       0.24358936       0.24530161      -0.40769560
F        4.78828215       6.00992794      10.52933378      -0.19546136       0.88091341      -0.71555516
F        6.77149720       6.70591654      10.95937164      -1.34613378      -0.37033918      -0.21732424
F        5.59108721       5.81192130      12.55599968       0.09413782       1.35738983       0.16351528
C        7.75808195       4.13451439      11.63494253      -0.59279578       0.32523180       0.51134325
F        8.75996881       5.05934344      11.56356043      -0.14782882       0.13732249      -0.46126829
F        8.38037168       3.01028630      11.18337153      -0.51028767      -0.10173143       0.21354678
F        7.51323563       4.03470008      12.98947888      -0.27933239      -1.00554969      -0.58322987
H        7.35386551       5.38153254       9.39288377       0.09792231       0.14997888       0.05323554
H        5.92536775       3.63353240      10.79754422      -0.03905036       0.05971456      -0.14176850
O       11.43548788       3.33547609      11.74873548      -0.06272428      -0.23558361      -0.23703050
C       12.16270827       3.23215731      12.91949156      -0.56570883       0.16959345      -0.27916477
C       12.82137340       4.54475691      13.25255466      -0.29660694       0.70992575      -0.18866118
F       11.91831511       5.49727942      13.37392309      -0.00702956       0.73050032      -0.42865788
F       13.75363944       4.97234393      12.47846622       0.07154641       0.48646222      -0.14747321
F       13.44277502       4.45983896      14.48712626      -0.46571731       0.42803589      -0.73097708
C       13.07066397       1.96506370      12.74878144       0.01507416      -0.47164053      -0.06565580
F       14.03249473       2.31611612      11.83818298      -0.77091721      -0.51699230       0.84867878
F       12.37074324       0.93669419      12.41285098       1.05305841      -1.50158241      -1.76800469
F       13.68700909       1.64737015      13.91361121       0.81044912       0.10924918       0.54597794
H       10.75555772       4.00262672      11.89419166      -0.01955976      -0.00818924       0.01547076
H       11.51698709       3.01344490      13.78163181       0.14846731      -0.03523608       0.00568750
O        7.50356130       6.98410294       7.59709928      -0.31455546      -1.16501404       0.84627476
C        8.04325983       7.31343778       6.37474665      -0.12139499      -0.18394245      -0.14356230
C        8.12289127       8.80780973       6.12775472       0.69095833       0.46842891       0.71740990
F        8.88191913       9.47111255       7.03977221      -0.33447687       0.01624129      -1.60527823
F        6.90022795       9.34454895       6.18858778       0.78323988      -0.63566144      -0.75586063
F        8.63882986       8.98916671       4.88017083       0.37438237      -0.70025943       0.62805918
C        7.15902826       6.48998244       5.35289290      -0.20957873       0.62141795       0.76303603
F        5.86194710       6.67823498       5.66129500      -0.76340921      -0.86190400       1.42746899
F        7.52161529       5.22730247       5.63541702      -0.12224843       0.24056422      -0.31891574
F        7.34284975       6.69136002       4.05998218       0.34784023      -0.46851179       0.28238870
H        6.54189077       7.22936612       7.58077777       0.24384211      -0.02239970      -0.16023146
H        9.06939329       6.89207125       6.31578304      -0.28628898      -0.32941199       0.07474232
