192
Lattice="18.056324775150625 0.0 0.0 0.0 18.056324775150625 0.0 0.0 0.0 18.056324775150625" Properties=species:S:1:pos:R:3:momenta:R:3 Built=T with=T Packmol=T charge=0 spin=1 external_field="0.0 0.0 0.0" pbc="T T T"
O       15.42086306       6.06738106       8.52641236       0.12221124       1.23013909       0.44336780
C       14.95647257       7.24312309       7.85527945      -0.24446639      -0.40484736       0.28927946
C       14.32103677       6.88567519       6.48004676       0.23695755       0.17262689       0.16184806
F       13.25618840       6.07342584       6.73420130       0.09367569       0.36717341       0.11086333
F       15.17027305       6.20479105       5.71286037       0.12589552      -0.02407211       0.53501613
F       13.89421357       7.92641320       5.80565708       0.43683965       1.04925754       0.53523343
C       16.13711455       8.24710137       7.69500309       0.92056540       0.32730031       0.24194323
F       17.13483658       7.70077335       6.98563054       0.77513112      -0.46815126       0.82684215
F       16.55384411       8.53969149       8.90329990       1.57859617      -0.09012745      -0.63323771
F       15.75954988       9.36605709       7.05251234       0.23082420       0.11269006      -0.31806134
H       16.17754953       5.60542535       8.01509856      -0.05419220       0.31723944       0.08743260
H       14.24213575       7.77638927       8.46782659       0.14812390       0.01190257      -0.34896121
O       14.23006716      12.62998794       4.13098146      -0.12043567       0.03834091       0.66802121
C       13.68546282      11.91712143       3.06372568       0.66663132       1.09196666       0.05697469
C       12.26252406      11.54818482       3.38722589       0.01833308       0.65860654      -0.27904571
F       11.51173489      12.61880845       3.70345840      -0.09139068      -0.04819795      -0.19802182
F       12.23685981      10.74593313       4.49976194      -0.63033583       0.23746570       0.48853984
F       11.65468815      10.86759672       2.39140515       0.34520930       1.10545266      -1.18952120
C       14.58716391      10.76573396       2.66098119       0.33965221      -0.17879563      -0.75374020
F       14.75607193       9.94318552       3.64173907       0.05977636       0.91222705      -0.03883198
F       15.78673031      11.25728974       2.27917292       0.56176159       0.42666514      -0.54583704
F       14.06398578      10.08860549       1.60706745      -1.07600061      -1.07414411      -0.93017096
H       13.76431408      12.27602602       4.90683605      -0.08797362      -0.03345773       0.14783037
H       13.61039331      12.58049897       2.19167970       0.07633324       0.13209066       0.09111776
O       13.64864946       3.81892273       3.82803555       0.41442406      -0.58725328      -0.48832757
C       12.31896605       3.47350419       3.45148801      -0.21932215      -0.12773066       0.55763272
C       11.68014343       2.61710862       4.52844048      -1.43407560      -0.27540272      -0.58900494
F       11.64444513       3.28345428       5.69509061      -0.05002430       0.27522840      -0.40608090
F       12.39438746       1.51134636       4.77273463       0.53354695      -0.11609536      -0.44211505
F       10.43902248       2.23080267       4.24718722       1.86822084       0.35372227      -0.82200527
C       12.33522332       2.80099285       2.05231883      -0.37964012       0.07884373       0.12221367
F       13.11248280       1.69308685       2.04781321       0.38870039       0.86930352       0.21385788
F       12.79824051       3.62100248       1.13816366      -0.40677142      -0.19626505      -0.95787959
F       11.11619117       2.38530245       1.66587813       0.36732365      -0.73036937      -0.26710191
H       14.12846695       3.03557900       3.95359956      -0.11331675       0.12387906       0.02652963
H       11.78296170       4.38927918       3.41529568       0.16461304       0.05697105      -0.28344797
O        6.96065586      16.34629983      14.04073528       0.09909931      -0.33751666      -0.41298429
C        7.55732146      16.09869386      12.80682744      -0.42394693      -0.30062619      -0.92923854
C        8.67718684      15.06827961      12.94370463       0.45729472      -0.30732955       1.37381573
F        8.18850172      13.92317149      13.42692184       1.98426067      -0.59966121      -0.54171695
F        9.65141662      15.50940214      13.76874585       1.86389763       0.70219524       0.07637414
F        9.25403599      14.82549054      11.75732308       0.51235623      -0.71762112      -0.60337955
C        7.98884553      17.42970200      12.15884444      -0.58296203      -1.06292032       0.72500278
F        8.85299430      18.07931659      12.94525966       1.19575601      -1.61643924      -0.35761319
F        6.91668788      18.23631654      12.03811939      -0.06107716      -0.09860697       1.72960603
F        8.55401396      17.31153764      10.94075298      -1.19034129      -1.83983655      -0.76091028
H        7.61922864      16.89070367      14.51483463       0.18981846      -0.14425895      -0.06363353
H        6.80513357      15.68675949      12.13255284       0.06779026      -0.20907094      -0.14399901
O        1.98919208      15.32319153      15.16074744      -0.05297931       0.14253447       0.03834806
C        2.79578054      16.36232654      14.58555002       0.18024513      -1.00303058      -0.08910002
C        3.31839927      15.95145223      13.22144139       1.02030771      -0.65980716       0.03828905
F        2.31278427      15.69238090      12.42760486      -0.72609711      -0.51948414       0.58546418
F        4.07294147      14.79454494      13.36581957      -0.27783786      -0.78977958       1.23516040
F        4.09221826      16.86342731      12.69926382       0.44789573       0.27250124       0.71482260
C        3.92655934      16.72601382      15.59818718       0.13118178      -1.03889989       0.11968787
F        4.70095804      15.67101234      15.93335050       0.13375850      -0.10959740       0.45259751
F        3.37579566      17.15629491      16.77604675       0.54931393       0.13102613       0.78613845
F        4.71441425      17.69857097      15.20151790       0.78001039      -0.35166940      -2.02706675
H        2.61896187      14.61476668      15.38325037      -0.17149755      -0.21984757      -0.03680430
H        2.10084966      17.21430265      14.53479636      -0.14467472       0.05936020      -0.22219224
O       10.08528266      12.19540902      15.41499555       0.56489050       0.28283180       0.23318151
C       11.26918423      11.65577873      14.93231776       0.11725814       0.49304518      -0.22009338
C       11.14037691      11.30825759      13.47927797       0.03589362       0.05367120       0.19654304
F       10.79178041      12.38535301      12.75537204       1.08771965       0.46555291      -1.04179832
F       10.15007838      10.41543526      13.26534140       0.57129665       0.74493959       0.16204573
F       12.23548942      10.82541503      12.89664334      -0.17146578      -0.02608072      -0.74483072
C       11.71296672      10.50522506      15.79812724       0.74111758      -0.17480338       0.03253354
F       10.82123727       9.54075429      15.78741168       1.08500867       0.58966416       1.52064647
F       11.89338826      10.88963430      17.03745602       0.26651583       0.65222984       0.48099745
F       12.86269554       9.95253412      15.38370576       0.29613890       1.16773405      -0.56401575
H        9.39596780      11.51860712      15.34323992       0.06191979      -0.07254656      -0.06417014
H       12.03001018      12.43185844      14.98560922      -0.27397053       0.00772330      -0.27009342
O        4.71128621      15.61062478       7.23603871      -0.58562976       0.39872211      -0.36345223
C        5.18532174      14.64340021       8.10946150       0.12055692       0.15023579      -0.08358890
C        6.43730743      15.12758507       8.83121008      -0.03690715      -0.54098240      -0.24581848
F        6.12001987      16.26596570       9.50866525      -1.09275272       0.22557857      -1.05023828
F        7.37273077      15.48572633       7.95524141      -0.06836249      -0.03754046      -0.00459781
F        6.95151979      14.27113725       9.68501196       0.26168423      -0.23612289       0.30518067
C        5.44104221      13.31839344       7.36858291      -0.17961761      -0.26795891      -0.01428791
F        6.29745696      13.50567976       6.31605161       0.49683108      -0.93176400       1.19892929
F        4.27259477      12.84121636       6.83336329       0.80889446       0.78656161       0.24729025
F        5.87852722      12.36798617       8.18044399       0.45411014      -1.05578760       0.03909889
H        5.31454829      15.61245673       6.48519125      -0.02250278      -0.03968936       0.15457369
H        4.38917026      14.40208701       8.80638804      -0.34782591       0.23981837       0.20273186
O        9.70471503       4.91666805      15.75976159       0.44753813      -0.29702068      -0.02369431
C       10.58821457       5.97774024      15.50403252      -0.65572063      -0.78364732      -0.27276672
C       10.67423259       6.33045861      14.05007911       0.57888401      -0.10327799       0.43455754
F        9.45137256       6.64578067      13.58490333      -0.42726508      -1.11938944       0.96075401
F       11.10499573       5.27895299      13.29817632       0.55434895      -0.57407768      -0.06716520
F       11.46521141       7.35893028      13.77586608       0.54063084      -0.84552955       0.10449273
C       11.94638989       5.66044443      16.14163610       0.56177977       0.27400181      -0.29373426
F       12.49251312       4.58938365      15.61208637       0.30872438      -0.63842627       0.02274101
F       11.78408992       5.49315245      17.45162469       1.36709204      -0.92677368       1.48198929
F       12.79578807       6.71107600      16.00705948       0.82339731      -0.07076372       0.35865591
H        9.73925312       4.32673289      14.97661975       0.08226424       0.09823810      -0.04026182
H       10.10580112       6.78844996      16.00676287       0.17051174       0.52862498      -0.05672305
O        0.28800773       9.49430060      15.17171836       0.24315679       0.29946900      -0.40284391
C        1.22443356       9.42235436      16.21616872       0.40294019       0.80942353       0.38322599
C        1.61932688      10.80752148      16.69312427       0.02118542      -0.15207759      -0.80762303
F        0.56112407      11.52939037      17.05632147      -1.36574133       0.32920657      -0.51757401
F        2.21615330      11.50280055      15.65925153      -0.31202832       0.44439617       0.16902220
F        2.52314266      10.81047365      17.72847208       0.35297882       0.50531681      -0.34970228
C        2.42761895       8.55856488      15.87118868       0.07583550       0.06512300       0.22839015
F        3.07815264       9.01987853      14.80332018      -1.00704606       0.29808137      -0.00559886
F        1.97314828       7.30424578      15.57884309      -0.09270180      -0.31315253      -0.16217548
F        3.30027321       8.43704604      16.87760770       0.36512383       0.25888488      -0.79373095
H        0.74098618       9.81602681      14.37373859      -0.05106332       0.14915392       0.20078759
H        0.69573924       8.95373278      17.07457003      -0.10264464      -0.05558382       0.09219101
O       12.77462343      15.11098703      13.21228849       0.10335907       0.08686863       1.06154119
C       13.63036956      15.93944866      12.56005360      -0.32667380       0.38853430      -0.20073348
C       14.52187717      16.69649953      13.55829157       0.83389498       0.50621293       0.33013573
F       15.23075015      15.80720464      14.27559276       1.57190365       0.11494701      -0.06642129
F       13.79426373      17.41419349      14.41649723      -0.07694084       1.05435171      -0.98181514
F       15.42734945      17.50000609      12.95503246      -0.16696620      -0.35544611       1.15500225
C       12.86595719      16.86091083      11.57977670       0.40482828       0.27393323       0.18124951
F       12.00334352      17.58572046      12.22815727       0.98226218      -0.09668762       0.36691446
F       12.19943415      16.12596427      10.71165456      -0.13339425      -0.65176011      -0.17420429
F       13.71743505      17.64263204      10.90247302      -0.25879356       0.50719367      -0.03328289
H       11.95813278      15.63124111      13.42386692      -0.09453508       0.07319060       0.27838168
H       14.39153856      15.25501576      12.00466958       0.33844304      -0.09548700       0.29481879
O        7.81397632       2.73553912       2.03482574      -0.24882729      -0.12921905      -0.26391532
C        6.56196809       2.74454287       2.63974615       0.03510761       0.42274978      -1.07445130
C        5.95078843       4.14067087       2.63326778       0.23015748      -0.36137635      -0.19452631
F        5.83390773       4.55040347       1.37955425      -0.39561109       0.49564978      -0.68226777
F        6.74481998       5.00030106       3.29050662       0.58038053       0.82859297      -0.11535862
F        4.72205221       4.14283000       3.19986672       0.04882464       0.27906542       0.09302374
C        6.65800172       2.09734673       4.01926544       0.76248629       0.28117374       0.07480344
F        7.52988184       2.76814835       4.80663604      -0.45490425       1.34653610      -0.57959847
F        7.09838104       0.86208345       3.94628036      -0.80538421       0.75321327      -0.00781394
F        5.46329925       2.04680779       4.64483628      -0.19070891       0.26082661       0.24417438
H        8.46301756       3.04659774       2.67895492      -0.23668304      -0.00244297       0.13749352
H        5.91735442       2.12294733       2.02011919      -0.18077095      -0.15922083       0.05329294
O        8.03399047       6.81910996      10.85396362       0.08290343       0.39131260      -0.11306721
C        6.67919961       6.74561506      11.06000350      -0.71624510       0.15624734       0.56514230
C        6.12998858       5.38740394      10.61569282       0.16207605       0.43524601       0.00603399
F        6.77602100       4.43475712      11.22548539       0.31190590      -0.14072313      -0.36995921
F        6.35119046       5.18614725       9.26352925       0.66258860      -0.29920986      -1.57511051
F        4.81172338       5.20758986      10.84298246      -0.31013794      -0.04055276      -0.01176910
C        5.89792325       7.90019527      10.42982707       0.27655502      -1.23138229       0.16690560
F        6.07260888       7.95134065       9.13045759      -0.36731098      -0.42553697      -1.15523368
F        6.35124553       9.04063647      10.96540469      -0.04492815       0.75978660       0.47248807
F        4.56060638       7.85973044      10.66864168      -1.22498317       1.12875239      -0.29679976
H        8.14289646       6.58765052       9.90532134       0.35052083      -0.09768071       0.13649180
H        6.44913965       6.73678387      12.13673394      -0.14399658       0.01218562       0.09471278
O       13.70197254      14.39709613       6.16115550       0.13022195       0.59286305       0.23675108
C       14.75710113      15.08935517       6.74892280       0.63805775      -0.27658675      -0.16061078
C       14.78164700      16.53430366       6.17929519       0.92775950      -0.33205014      -0.54961783
F       13.65003685      17.12248635       6.51004432      -1.74710773      -0.14169718      -0.43279894
F       14.93684787      16.53630517       4.86979334      -0.94662165       0.30564821      -0.29408020
F       15.77544496      17.26081858       6.71784469      -1.19069147      -0.44395358       1.60454214
C       16.10962320      14.33387084       6.52087967      -0.20833116       0.18572989       0.62700701
F       16.36919623      14.14325563       5.23086802      -1.08126714       0.02061236       1.22977923
F       16.01253743      13.17449098       7.13258578       0.50019476      -0.44124612      -0.15404406
F       17.12404230      15.01261825       7.08006448       0.84720709       1.00233311       1.25604285
H       13.80276845      14.25364836       5.19226869       0.00875278      -0.12346702      -0.12131736
H       14.56029098      15.19960719       7.78235624      -0.09988013      -0.09662348       0.06378122
O        3.09588747       7.54533473       6.16170783       0.06872887       1.08330871      -0.60107463
C        3.54611423       6.20360595       6.06515704       0.33923764       0.61989647      -0.16545073
C        2.97153911       5.39415293       7.25024570       0.35030587       0.33134280      -0.29884758
F        1.64858044       5.40257105       7.23014699      -0.14881422      -0.35196681       0.34993865
F        3.34727877       5.88282272       8.45083576      -1.24365781       0.35361397       0.19454280
F        3.32195820       4.11370873       7.23256536       0.21684036       0.37603967      -0.31770612
C        5.04413893       6.12632316       5.98078484      -0.30656355      -0.29019064      -0.34357055
F        5.63853266       6.72574539       7.03279261      -0.10416933      -1.28380769      -0.86948963
F        5.45178372       6.78720139       4.91581545       0.18618277       0.40613599       0.47490454
F        5.49232924       4.88362620       5.91733693      -0.04438789       0.38479185       0.37631136
H        3.64215940       7.93989627       6.85819953       0.02276165       0.09011790      -0.17406687
H        3.10768978       5.78787890       5.14162464       0.00650650      -0.06813857      -0.05683093
O        9.84980274       4.22287669       9.20003840       0.69807964       1.16818752       0.53730023
C       10.39720455       4.06884933      10.43910622       0.29984393      -0.20523794       0.54398139
C       11.90320228       4.48952878      10.36030624       0.75954706      -0.06832340       1.01458651
F       11.99185532       5.72220968       9.96228367       0.68830906       1.07642687      -0.84682770
F       12.54183873       3.71617300       9.43197294      -0.41442140      -0.11142246       0.89676042
F       12.50869413       4.35005406      11.50258461       0.08827620      -1.26861660      -0.06814086
C       10.20666086       2.64539816      10.97905308      -0.08318426      -0.15880966       0.67683996
F       10.67347327       1.71314731      10.09111270      -0.49014424       0.23213554       1.39793924
F        8.92407981       2.40781420      11.08372251       0.34897638       0.30090575      -0.34365151
F       10.77871311       2.44720581      12.17297087      -0.47427376       0.93152449       0.01343948
H       10.17954859       3.60193932       8.48615664       0.18386043       0.06460376      -0.10608907
H        9.95149139       4.80564051      11.04744088       0.20178579      -0.14696503       0.03598052
O        7.92914222      10.29128993      15.43922813      -0.83154865       0.50031130       0.24115422
C        6.88370534      10.57710476      14.56928544      -0.59789244      -0.86323396       0.71100049
C        5.82631628      11.46629634      15.22487117       1.41572241      -0.22265523       0.51352737
F        6.43605230      12.65480954      15.46094638      -1.11265492      -0.46596902      -0.93009713
F        5.42674091      11.00934263      16.38786951       0.26625445       0.33661651      -0.36161391
F        4.79027597      11.70218085      14.42147469      -0.51136565      -0.15383366       0.05714629
C        6.25246263       9.21911065      14.14069808      -0.16397315      -0.63839961      -0.10312076
F        5.83954807       8.48401734      15.21978402       0.16062020      -1.20441371      -0.58135837
F        7.17566840       8.45230250      13.53006985       0.28048606       0.88076410      -0.05818886
F        5.20940912       9.34609887      13.33867855      -0.93156016       0.41299444       0.15561048
H        7.63026770       9.69521874      16.13065564      -0.23404007       0.31057682      -0.23524206
H        7.16614846      11.02589913      13.67641348      -0.07086358       0.08469041      -0.08391528
