192
Lattice="15.223621154043434 0.0 0.0 0.0 15.223621154043434 0.0 0.0 0.0 15.223621154043434" Properties=species:S:1:pos:R:3:momenta:R:3 Built=T with=T Packmol=T charge=0 spin=1 external_field="0.0 0.0 0.0" pbc="T T T"
O       12.92110372       6.13209809       7.02839520      -0.34916004      -0.45944341      -0.35665238
C       12.82746500       4.77105157       7.11053616       0.05631923       0.05060261      -0.89889392
C       11.33464819       4.47995786       7.63414419       0.10338573      -0.16450122       0.57495941
F       10.40761037       4.97590434       6.76428140       0.22003653      -0.45447273      -1.10983688
F       11.10032935       5.13081283       8.78362911       0.33491637      -0.38079708      -0.94234143
F       11.07947145       3.14043080       7.73650092       0.70568226      -0.35996201      -0.80269635
C       13.94757029       4.23487207       8.04529505      -0.19940038       0.79358019       0.15007948
F       14.16698343       5.04954320       9.09451627      -0.76119677      -0.02984739      -0.19938020
F       15.12617951       4.25567828       7.34877571      -0.68723764      -0.58616564       0.63592137
F       13.80286178       2.93629122       8.44453466       1.01339422      -1.47187778       0.17765171
H       12.79272142       6.47236326       6.07243202      -0.27495343       0.01366258      -0.05348475
H       12.87623343       4.19683166       6.16913873      -0.09625450       0.14239667      -0.20806197
O        3.57719283       8.95483447       2.32184165      -0.75754632      -0.14834781      -1.10805195
C        3.48010241      10.36848494       2.27964582      -0.02895539       1.27325598      -1.58428463
C        2.10479868      10.84819924       1.79335058       0.16702844       0.12895448       0.23293848
F        1.19238179      10.08100117       2.42549208      -0.59552574      -0.07751215       1.25695374
F        1.87099615      10.68384365       0.49330600      -0.51246555      -1.37788104      -0.07626173
F        1.90279980      12.15224095       2.02401694       0.90913675      -0.88031774       0.07042813
C        4.66575268      10.84930103       1.49375496      -0.05500999      -0.06545770      -0.28230952
F        4.83095628      10.24081937       0.29626383      -0.03289675      -0.11097587      -0.20327255
F        5.75259874      10.70315656       2.21218028      -0.01745225       0.13094817       0.02911962
F        4.42564188      12.18727214       1.21482007       0.05819791      -0.07402773       1.29450180
H        3.33043283       8.58944430       1.43841365      -0.03430738      -0.05832937      -0.39589456
H        3.50586142      10.79003286       3.30520912      -0.04047362      -0.06074025      -0.11183630
O        7.70127726      13.12213128      13.92972811       0.49320822       0.10559715       0.42289844
C        8.21984872      13.58461296      12.65416895       0.01320255      -0.18046242      -0.97295719
C        9.61555899      14.21758818      12.80683560       0.36575406      -0.04451430       0.32130439
F       10.39752900      13.48605431      13.62765265       0.46773323      -0.06430970       1.32963960
F        9.61511891      15.51077528      13.26598686       0.66809045       0.64276415       0.35593894
F       10.23001742      14.27726577      11.64669370       1.21055787      -1.21809177       1.49398110
C        7.10790273      14.51379787      12.12551245      -0.81144052      -0.48792317       0.73464842
F        6.81269597      15.37579797      13.07658789       0.26882869      -1.18895028      -0.60616625
F        6.03955871      13.78450947      11.76196269       0.55457993      -0.20976304       0.33358081
F        7.44653750      15.17945863      11.06106326      -0.11017549       0.65833043      -0.25498269
H        8.09532454      12.38444379      14.40992184      -0.21989078      -0.40996136       0.08192643
H        8.37069368      12.80769734      11.85174264      -0.17903073      -0.00659653       0.01949843
O       13.76151082       9.58296718       1.78375318       0.57162477       1.36037436      -0.56783811
C       12.96433823       9.34585865       2.84275263      -0.15894568       0.79862956      -0.32265677
C       13.48293223      10.01378300       4.16148562      -0.24312139      -0.31534863       0.07520273
F       13.79394866      11.30224936       3.90710547      -0.61923160       1.67888377      -0.59974048
F       14.41461354       9.41665460       4.86219506      -1.06155207      -0.79097969      -0.98453689
F       12.42365872       9.98133138       5.03385973       0.60431355       0.24007232      -0.16194138
C       12.77769622       7.78528202       2.96393190      -0.31827061      -0.59612774      -0.33466217
F       13.83301282       7.18201001       3.53327359       0.09974128       1.57376932      -0.03383760
F       12.72429754       7.22629270       1.72506776       0.41368007       0.04164173       0.53281796
F       11.68849403       7.46213563       3.63433406       0.35002837      -0.40995842       1.17184684
H       14.60885309       9.03398078       1.75571584      -0.05939603       0.16238366       0.11999280
H       12.01516645       9.85481599       2.66669587      -0.08433154       0.04211154      -0.07774453
O       10.69754064       4.89625195       1.15923688       0.18351022      -0.64239223      -0.46331724
C       10.59799249       3.91532526       2.15471377      -0.77358363      -0.14821743      -0.48611584
C        9.54962749       4.38258845       3.19610848      -0.13851178      -0.03518340      -0.41893518
F        8.41194327       4.55582502       2.40437870      -0.07104205      -0.47410087       0.08481521
F        9.80171122       5.54137943       3.79593483       0.29853111       0.14963843       1.66617659
F        9.27296304       3.42594610       4.01973231      -0.10654795       0.39730178      -1.25971780
C       11.98921418       3.56527991       2.61567928      -0.73279684       0.18701814       0.54425122
F       12.65837542       4.58650696       3.01671895       0.92820926      -0.01274168       1.30817478
F       12.73146791       2.95880888       1.68385185       1.19937245       1.00448646      -0.61908141
F       11.87979757       2.81179231       3.75788618      -0.43550213      -0.63660057       0.49117514
H       11.29892206       5.58765825       1.46630483       0.20193713       0.39765949      -0.03547985
H       10.13087842       3.03969896       1.63126230       0.01040005      -0.02738503      -0.12347222
O       10.25614089       7.64871273      13.42074567       0.48701878      -0.08227306       1.40807504
C        9.73982707       8.95326042      13.41158975       0.44999504       0.15450479       0.38276762
C        9.61121149       9.41611627      14.80086903      -0.66744414       0.64965230      -0.12307097
F       10.79153395       9.35525188      15.40815361      -1.44167607       1.12820108      -0.45926701
F        8.68918792       8.74281686      15.42970600       0.69969229      -0.07688318       0.39536704
F        9.25079063      10.73824725      14.85205962      -1.02548591       0.46340420      -0.70173185
C        8.43927466       8.86339100      12.65100873       0.34058959       0.72146016       1.69093507
F        7.55294061       7.96565538      13.21082792      -0.59794093       0.40446391      -1.94899733
F        8.67434827       8.44134855      11.43658263      -0.35825420       1.00649349       0.05932574
F        7.81819881      10.06761023      12.65773760       1.56676295       0.40723249      -0.50090611
H        9.86214073       7.16238376      14.16898891      -0.17127740      -0.23691689       0.25476714
H       10.37042379       9.60661515      12.84653024       0.01987494      -0.03911861      -0.11348908
O        4.87044130       1.69063488      11.79299187       0.02436182      -0.20641696      -0.30334177
C        3.55270148       1.38781181      11.61910243       0.66758433       0.36244898      -0.27420770
C        3.20690238       1.62220552      10.16772059      -0.32930910       0.34918152       0.70304860
F        4.09941434       1.00829378       9.40161005      -0.26720427      -0.44756586       0.62594649
F        3.18661602       2.92646404       9.94052688       0.03061380       1.11749686       1.39014747
F        1.97787351       1.13873276       9.84810627      -0.02259859       0.63431417       0.45418148
C        2.62270124       2.18441800      12.64943776       0.00967367      -0.63556912       0.86393520
F        2.30502926       3.37791935      12.25314675      -0.33811879      -0.40331185      -0.30496368
F        3.42562145       2.33181867      13.76731782      -0.99289286       0.98853772       0.97170987
F        1.52389614       1.57409345      12.94904589      -0.42107946      -0.03538619      -0.20145154
H        5.00204598       1.73686938      12.74305389       0.04756100      -0.10947506      -0.05327884
H        3.45595951       0.32776197      11.89497297      -0.13094909       0.13329529      -0.08219163
O        2.87961057       6.54512928      11.83555313       0.08403758       0.27815301      -0.07280781
C        2.43452919       7.65897689      12.41513582       0.28130758      -0.02977490       0.33149957
C        3.56088826       8.67278406      12.43219421       0.40359232      -0.17400476      -0.17329334
F        4.03378960       8.77593830      11.19555394      -1.14669718      -0.06556534       0.11664420
F        4.60368641       8.22572637      13.16267434       1.12814806       0.85650252      -0.11350752
F        3.16543250       9.81569259      12.91304482       0.50037693      -0.72818490       0.05135882
C        1.89023015       7.41129882      13.83259795      -0.34528901      -0.21266582      -1.16820695
F        2.68416430       6.54165709      14.53926791      -1.26868721       0.45568808       0.39211270
F        0.69969423       6.84641508      13.73023386      -0.06904408       0.17349442      -0.99563587
F        1.71071907       8.51950693      14.50545644       0.52644471      -0.67448061       1.30629620
H        3.49615108       6.06788647      12.40311238       0.11153328      -0.16740012      -0.07728990
H        1.62833002       8.12030054      11.89636215       0.00848743       0.15921714       0.12501254
O        4.44142736      15.57570785       6.58760421       0.61726858       0.25514786       0.04972799
C        4.85505100      14.27235502       6.70700578      -0.99655888       0.19020355      -0.72360856
C        6.36931153      14.38242846       7.21179320       0.65361702       0.23608972      -0.16190199
F        6.44116533      14.77247258       8.48323148      -1.21015730      -0.60072830      -0.49783077
F        7.02921338      15.34852738       6.48720354      -0.85092008       0.62262811      -0.64562080
F        7.06691521      13.26536953       7.17585908      -0.14074330       0.41460953      -0.15875204
C        4.75568744      13.46502930       5.41543754       0.19805941       0.22464200      -0.95639368
F        5.65500241      13.79573207       4.51966519       0.62123903      -0.18790187       0.44411696
F        3.53622517      13.58337437       4.83960722      -0.19290364      -0.57635958       0.25789446
F        4.92162188      12.20186518       5.80408395       1.34868755      -0.01188913      -0.13296840
H        3.59630001      15.74893190       7.04905595      -0.06244020       0.03943071      -0.08049438
H        4.23054464      13.77859734       7.43387306      -0.20977037       0.04573615       0.03588728
O       13.25913256      15.12020872       7.87773108      -0.94740073      -0.82100122       0.43440459
C       12.37964121      14.07770696       7.81487323       0.36500603      -0.62009740      -0.58842502
C       12.64828908      13.07179449       6.67078224      -0.24594011      -0.33007269       0.63685932
F       13.74617144      12.33874185       7.01029411      -1.12164120       0.29926182       0.08802052
F       12.82378107      13.65317499       5.49752457      -0.36204704      -0.13584165       0.28858511
F       11.66649534      12.20773802       6.55966481      -0.50519779      -0.44278049      -0.71124166
C       10.87651017      14.53576578       7.58765867       1.04789178       0.05006257       0.64408473
F       10.42727421      14.61766512       6.23206992       0.86767005       1.16957439      -0.23257042
F       10.69904977      15.78003578       7.99658403      -0.23328774       0.78479732       0.90547570
F       10.01551179      13.79661631       8.22356279      -0.09082803       1.42873305       0.44755896
H       13.01819182      15.82578902       7.25285079      -0.20856094      -0.26356975      -0.32480118
H       12.47024447      13.54598711       8.78229856      -0.02244219      -0.15883344       0.26539237
O       14.73282458       7.73263449      10.92113806       0.54548905      -0.10531574      -0.56043381
C       13.51232585       8.18565009      11.49848055       0.29430149       0.82136040      -0.35414874
C       12.46718816       7.86780029      10.40479569       0.18221729      -0.20027582      -0.01040210
F       12.27736195       6.54305968      10.37378073      -0.55347607       0.21539372      -0.82853813
F       12.92406855       8.25795620       9.25778112       0.14552339       0.40033485       0.94145405
F       11.27889250       8.54319166      10.47566318      -0.54524234      -0.30786568       0.00290389
C       13.76032956       9.65303534      12.02419224      -0.09625260      -0.02721979      -0.07270566
F       13.91202427      10.51208576      11.05544833      -0.09611828      -0.13448007      -0.83754800
F       14.80888585       9.56470258      12.87028197       0.35787525       0.14154223       0.09768728
F       12.75680367      10.08000326      12.80688891      -0.03694180      -0.07055200       0.26312533
H       15.10132667       7.01888090      11.41710230      -0.05073952       0.14739916      -0.14436748
H       13.19410680       7.60312893      12.39094181       0.07137493      -0.08640344       0.04140649
O        1.98050914      13.66948831       8.55960209      -0.55029381       0.03522375       0.57034073
C        2.14500236      12.60384050       9.47009128       0.10490367      -0.13247637       0.19189481
C        2.31158666      11.25495207       8.72390146      -0.25118059       0.71279228       1.38351003
F        3.30769562      11.43076562       7.91727788      -0.32587814      -0.49386548       1.03455492
F        1.21335995      10.87105975       8.02718541       0.23809192       0.26565412       0.07824343
F        2.65669852      10.28360021       9.56063699      -0.18715871      -0.51181441      -1.12249888
C        1.09244498      12.70551407      10.57977883      -0.51147701      -0.42191485       0.07020699
F       -0.11831503      12.79283379      10.10132280      -0.27729595      -0.76105557      -0.72661981
F        1.35313119      13.81078982      11.31019792       0.18505434       0.16056418      -0.22328310
F        1.14193112      11.64499756      11.39811705      -1.82591287       0.20861925       0.69201177
H        1.07755171      13.99781439       8.63320270      -0.18526774      -0.33923590      -0.04634054
H        3.13999043      12.74123010      10.02667475       0.10164516      -0.03202369      -0.15855192
O        8.84768627      13.08049435       4.16181325      -0.60442877      -0.02283092      -0.65183131
C        9.59345596      13.68721894       3.15610685       0.67671908       0.19499268      -0.51247815
C        8.58188209      14.23620942       2.25447315      -0.25916605       1.32635246      -0.29460719
F        7.85110671      15.18060317       2.82351437       1.10061249       0.10197727       0.03549051
F        7.75893907      13.29847275       1.73128546       1.26677039       0.45953028       0.92112460
F        9.17640640      14.88254249       1.24036111       1.53305834       0.14752898       0.92149189
C       10.42571836      12.60661187       2.46571474      -0.38727234      -0.06507309       0.03422400
F        9.81741612      11.45707848       2.23309685      -0.93738655      -0.89768199      -0.64088727
F       11.54089662      12.29061373       3.21268845      -1.29137930       0.29416230       1.11684984
F       10.93098613      12.99401260       1.27051201      -0.21125199      -0.71642228      -0.09675958
H        8.85022910      13.57414117       5.00106110       0.02149282       0.21585554       0.06759163
H       10.24012567      14.54781711       3.42888880      -0.22818113       0.22149160      -0.07395404
O        7.47766987       4.62538384       9.04779681       0.51232900      -0.48251355       0.47453809
C        7.06833052       4.26329114      10.31609517       1.14576373      -0.31807323      -0.73829358
C        5.86879956       5.18154118      10.68966382       0.08175967       0.34568252       0.28383685
F        4.85233358       4.96070407       9.89133375      -0.13482567       0.44753644       0.67865033
F        6.24241349       6.42472303      10.59663219       0.72756365      -0.70565502       0.77503893
F        5.36321779       5.09993105      11.97060612       0.52154826      -0.85503783      -0.92578172
C        8.15993457       4.37817842      11.33920035       0.29033712       0.33871754       0.36501637
F        8.63571626       5.62254158      11.41181960       0.02121002       0.52860960       0.15803471
F        9.12958934       3.53662239      11.04671958       0.15223984       0.34521853      -0.51587922
F        7.78207526       4.11159279      12.57940139       0.25453381       0.46507738      -0.49727926
H        7.67649070       5.59752186       9.04230573       0.15385135       0.04783827       0.03120658
H        6.79814053       3.21558351      10.34034625      -0.24901227      -0.08142567       0.03905151
O       12.04521297       3.47573991      11.14567366      -1.10976250      -0.89280383       0.04245758
C       12.53916130       3.13035914      12.39696403       0.58584706       0.33216707      -0.20196097
C       13.04188791       4.25592475      13.19902601       0.47743426       0.31542402       0.76780347
F       12.07479009       5.19086960      13.33597585       0.34868083       0.34819623      -0.48273967
F       14.23185480       4.79717732      12.78328390       1.66264176       0.79139314      -0.02750009
F       13.35571539       3.78500369      14.40438684      -0.48325671      -1.00710219       0.99686238
C       13.44841692       1.91668824      12.11455740       0.55028474      -0.28624982      -0.00768839
F       14.55442270       2.22423069      11.43521306      -2.09122615      -0.03635281      -0.49234271
F       12.81863179       1.10808438      11.30840233       1.01789554      -0.53584354      -0.11901272
F       13.72477743       1.29977904      13.26358135      -0.04465715      -0.87424814      -0.43283223
H       11.16757156       3.94652001      11.27326400      -0.03065835       0.08092438       0.16669131
H       11.71109435       2.67897218      12.94074579      -0.05774315      -0.06626629       0.08690322
O        7.94395005       8.21151447       7.92555681       0.45308183       0.15874761       0.52468519
C        8.32448496       8.33340384       6.59593674       1.44247543       0.87589061       0.87500448
C        8.33251332       9.73603583       5.99313576      -0.07893195       0.11979123      -0.63206640
F        9.16994992      10.60614467       6.68035404       0.56934579      -0.46065917      -0.06649303
F        7.14081090      10.29352111       5.99265063      -0.52701206      -0.36290359       1.05113836
F        8.74584005       9.75208922       4.72950744      -0.53578453      -0.50359377      -0.85629708
C        7.37960630       7.32971056       5.82770573       0.55296277       0.35661492       0.19363400
F        6.14070849       7.60774925       6.13457419      -0.50158170      -0.31711147      -0.33986218
F        7.72809979       6.09628329       6.19726841      -0.11016717      -0.01774698       0.51333716
F        7.43190103       7.36822617       4.45542034      -0.39405952       0.90686126       0.07874594
H        7.17847921       8.79013933       8.09259574      -0.09613792      -0.08305850       0.08257790
H        9.34450413       7.95910295       6.43404476       0.04409733       0.14605722      -0.37447035
