192
Lattice="18.073043482587813 0.0 0.0 0.0 18.073043482587813 0.0 0.0 0.0 18.073043482587813" Properties=species:S:1:pos:R:3:momenta:R:3 Built=T with=T Packmol=T charge=0 spin=1 external_field="0.0 0.0 0.0" pbc="T T T"
O       15.20406752       5.88377335       8.38948000      -0.14509961       0.40261009      -0.68432010
C       14.93186823       7.12599993       7.71146144      -0.12171302      -0.31925208      -0.18462599
C       14.26585614       6.85973698       6.33741636       0.52512754      -0.38995166      -0.16557260
F       13.08700719       6.37901919       6.50826543       0.77903567       1.23394350      -0.45528189
F       14.99296482       6.00047536       5.64774919      -0.06494490      -0.42850559      -0.07446115
F       14.08861627       7.93746904       5.58970882      -0.23475547      -0.68166909      -0.43212325
C       16.33476397       7.93956761       7.53225083      -1.18900913       0.05245092       0.85194488
F       17.19017533       7.24734081       6.77479350       0.97139043      -0.74643793      -0.51045135
F       16.79292301       8.21386660       8.71395001      -0.10839202       0.63560793       0.98504901
F       16.10518321       9.10700522       6.92728850       0.00970782      -1.62333980      -0.71600682
H       15.65577445       5.24259879       7.74558059      -0.11271864       0.05380199       0.47163766
H       14.30496638       7.72594493       8.41304452      -0.03591709      -0.26829256      -0.01780591
O       14.31953380      12.40430867       4.47448884      -0.71563483       0.81905697       0.27122174
C       13.66043701      12.00227518       3.33715580      -0.23395584       0.32483728      -0.73856317
C       12.21867091      11.51872213       3.63709324      -0.47232249       0.80615863      -0.52567562
F       11.56571068      12.55464077       4.23176891       0.21723436       0.04394082       0.55814591
F       12.28099492      10.48211176       4.53012848       0.49032402      -0.16929471      -0.22746671
F       11.52324681      11.20895097       2.52775301      -0.56959902      -1.02765035      -0.03348314
C       14.41553752      10.89473939       2.49808696       0.94288868       0.84099146       0.11273499
F       14.55437704       9.86748355       3.33563417      -0.05364275      -0.11947231       0.75980004
F       15.68827058      11.31942655       2.30377994      -1.13763118      -0.92380619       0.03212078
F       13.91110890      10.51354692       1.34920321      -0.39140441       0.10083703      -1.28216953
H       14.45103544      11.65324459       5.06619246       0.10735424      -0.02109673      -0.11763864
H       13.42823221      12.87731829       2.73508655       0.04027238       0.14158749      -0.04829037
O       12.93402087       2.84298374       4.94065467      -0.80747098      -1.26455898      -0.01896110
C       12.54444493       3.12896970       3.63857828      -0.12726626       0.29685325      -0.71926276
C       11.01017617       3.48355260       3.64267657       0.77251278      -0.96076110       0.35246219
F       10.74490440       4.39459258       4.54221847      -1.02849006      -0.46481448       0.69479570
F       10.24399107       2.38775126       4.01167556       0.80445043      -0.72662356       0.21246308
F       10.52630169       3.93221896       2.47617508      -0.12557470       0.22491141       1.68740694
C       12.90865404       2.08760833       2.56296894       0.90375272       0.14545991       0.16178107
F       12.47046624       0.92042177       2.87105058      -0.04289041      -0.70638957       0.17788612
F       14.25996123       1.98998778       2.52599066      -1.36623959       0.63155677       0.73320712
F       12.57749447       2.47599098       1.32378491      -0.46707384      -0.30126480      -1.02882436
H       12.53901853       1.98676673       5.20639979       0.17359181      -0.02774005       0.27957271
H       13.05114968       4.07135832       3.43427073      -0.09332960       0.26133060       0.11353596
O        6.67662645      16.32869150      13.50958014       0.22792764       1.21118882       0.53364991
C        7.55591228      16.07163338      12.48436835      -0.50973169      -0.29889044       0.29710602
C        8.76015418      15.33954479      13.03490061       0.28174587       0.59535545       0.05090071
F        8.29127523      14.20946264      13.57023855      -0.53940760       0.02899221       1.26868661
F        9.51247730      15.97156310      13.94201458       0.67437880      -0.13925198      -0.16185139
F        9.56920857      15.00940393      11.95382619       0.26701605       0.48352240       0.11971849
C        7.93991436      17.37039287      11.78098237       0.24924921      -0.33514529      -0.21709010
F        8.60383510      18.23904963      12.63328692       0.33889775      -0.27457984       0.61863808
F        6.85225870      18.01695004      11.38798524       0.51585699      -0.25272833      -1.49020564
F        8.72872342      17.20295158      10.74794231       0.08705338      -0.56641716      -0.40447471
H        6.82813406      17.20434044      13.94098159       0.11431858       0.03413479      -0.46678264
H        7.12955209      15.37193022      11.75602834      -0.24223850      -0.08408781       0.38515095
O        1.74950724      14.68891579      14.81237342       0.91864052      -0.04722508       0.64465940
C        2.38856645      15.83931307      14.59753483      -0.02746291       0.40765182      -0.43338065
C        3.07258951      15.84036098      13.20004897      -0.15646748       0.50899762       0.26231753
F        2.16341523      15.66951179      12.19256288       0.24525681      -0.69433266      -0.55744473
F        3.85478478      14.75756190      13.15535020      -0.95278358       0.12922974       1.48292199
F        3.75791026      16.95617258      12.90474217       1.16750996       0.38816178       0.54106039
C        3.49157782      16.15832815      15.72429074       0.36284966      -0.05489661       0.27536245
F        4.37514714      15.18158792      15.74116123      -0.57282982       0.03993222       0.83850008
F        2.86263088      16.21955830      16.93457121       0.84956770      -0.35088455       0.08847744
F        4.17632267      17.28360032      15.62761491       0.67522835       0.65216802       0.60958144
H        2.38412412      13.97012662      14.71096384      -0.05935740       0.11666703       0.27471045
H        1.76562841      16.67692898      14.62892100       0.22677538      -0.08741609       0.12987266
O       10.54861333      12.79344201      15.09585316       0.41972816      -1.31042551      -0.99816686
C       11.66894553      11.98628036      14.83426858      -0.49379056       0.65069808       0.80024870
C       11.55562531      11.50951879      13.39893371      -1.09234132       0.21593482      -0.25068522
F       11.35256919      12.55190829      12.59128613      -0.28762474      -0.30610957       0.74195620
F       10.50695340      10.65321178      13.22140172      -0.90031151       1.60407952      -0.74694410
F       12.61216419      10.87587619      12.99765495      -1.27500080       0.45343965       0.96948521
C       11.86543388      10.90748257      15.84458638      -0.04079006      -0.21671927       0.24899243
F       10.79366668      10.08019077      15.94019711       1.39266609       0.03760730      -0.04234265
F       12.02428075      11.44924911      17.09188843      -0.20115695       0.04820559      -0.43392776
F       12.93788907      10.17437039      15.66718993      -0.22239012       1.55160993      -0.33109592
H        9.73126500      12.28434447      14.98959012      -0.20155512      -0.04769394       0.07624115
H       12.49918442      12.69326925      14.92725814       0.04181603      -0.30991734       0.01150925
O        4.38143478      15.37911816       7.16573201       0.90153736       0.00483654      -0.23209784
C        5.08003601      14.94914104       8.23931458      -0.15616410      -0.29573690      -0.31873483
C        6.55594084      15.44555060       8.31128724       0.47403434       0.83115428      -0.48204417
F        6.56605677      16.75513372       8.42476580      -1.15617806      -0.54616743      -0.66206506
F        7.23905733      14.99060990       7.26141577       0.15387571       1.10080743      -0.86572502
F        7.15653323      14.97223292       9.42249762      -0.85162352       0.15241056      -0.23185632
C        4.91454394      13.41124425       8.37651143      -0.88203104      -0.42798292       0.30896179
F        5.53312707      12.89119614       7.28693353       1.06342661       0.21382308      -0.47098757
F        3.62446131      13.06832626       8.32770987       0.24975745       0.52213423      -0.34124504
F        5.55772785      12.84420879       9.46853222      -0.89708254      -0.16178543      -0.32320373
H        4.79949058      15.11378971       6.33515716       0.01950253       0.01403965       0.16258600
H        4.58666814      15.34072314       9.10861626       0.04443493       0.08175992       0.09575972
O        9.67917633       4.74158451      15.38750910      -0.20805444       1.15023809       0.84757012
C       10.48771543       5.82006865      15.40811779       0.13483137       0.24354133      -0.92672393
C       10.78492007       6.50669000      14.06193132      -0.05987977       0.14851852       1.34210404
F        9.57688703       6.85731055      13.52201474       0.01233711       0.07210659      -0.43227724
F       11.42451489       5.63792846      13.19289591       1.71493744      -0.41214638       0.57907321
F       11.53300601       7.66467619      14.14763697      -1.54658112       0.09557904       1.08318193
C       11.80987205       5.58537909      16.22850092       0.45893340       0.01920064       0.61236366
F       12.56204738       4.62422151      15.67156279       0.94568679       0.45212515       0.88791577
F       11.52778884       5.05853792      17.44173979       0.85274699       0.57136494      -0.00188137
F       12.52162783       6.67885264      16.37223243       0.82295743       0.63395625      -0.38989312
H        9.91316682       4.08230927      14.68585631       0.24251822      -0.12015590       0.18657135
H        9.96880039       6.59227438      15.94578862      -0.14406062      -0.02814890      -0.23302685
O        0.20589321       9.05637149      15.95632510       0.30331343       0.29349107      -0.70653302
C        1.25970260       9.82334815      16.48331175       0.80291081       0.36207868       0.18809383
C        1.48480221      11.21155046      15.84143551      -0.71959034      -0.12462020       0.27953031
F        0.42092278      11.90815301      16.01491106       0.90587574      -0.67232423       1.06743962
F        1.79228410      11.13988567      14.60977224       0.14544237      -0.79122048      -0.73617451
F        2.54842492      11.96503347      16.44780117       0.05267915      -0.81541075       0.00665219
C        2.54965963       8.91446640      16.44824176       0.50690740      -0.74372849      -0.00153066
F        2.85070476       8.71062360      15.13865889       0.42546578      -0.87615592       0.33232095
F        2.33332709       7.76607465      17.06567116       0.75872140       0.20993711      -0.53945780
F        3.63240017       9.46840808      17.02692834       0.84780710      -0.26689517      -0.33225882
H        0.35729897       9.03504513      15.00388905       0.44998383      -0.06612304      -0.16622171
H        1.05529649      10.02724908      17.49742719       0.14065385      -0.07997367       0.15013481
O       13.26606638      15.20157795      13.32618054       0.26902465       0.20031438       0.12698160
C       14.15158155      16.04491428      12.64117868       0.04425384       0.39552465      -0.39111311
C       14.48454397      17.34620522      13.37165297      -0.68475119      -0.16350232       0.36203071
F       14.99103046      17.12232929      14.58900659      -0.51810848       0.09117911      -0.24703995
F       13.40180493      18.04612516      13.54924520       0.36130766       0.30273162       0.97904631
F       15.31281555      18.14274194      12.67070025       0.13064920       0.04944743      -0.92947925
C       13.70461274      16.27198308      11.17464970       0.43600038       0.16130299      -0.50494293
F       12.52546537      16.94876278      11.10554381      -0.64616833      -0.06485631       0.45479487
F       13.54007726      15.13360529      10.55719068      -0.06243057      -1.34947251      -0.73776868
F       14.55793212      16.97792669      10.38621816      -0.05421959       0.27139742      -0.75183376
H       12.38706671      15.54489285      13.36412416       0.03013315      -0.13832403      -0.19740947
H       15.02982221      15.42352888      12.47750771      -0.09967264       0.12763783       0.13886313
O        7.88589636       2.60382316       2.14575833      -0.24359924       1.01696328       0.18090161
C        6.55359902       2.75638205       2.57736105       0.67880008       0.36261952      -0.05710325
C        5.95486987       4.28108876       2.51543558      -0.20666424      -1.00006805       0.17648386
F        6.03333271       4.55998801       1.19662292       0.49719030      -1.02068383      -0.20183858
F        6.77357644       5.11730125       3.19840706       0.04258146       0.02480924      -0.50204957
F        4.69810417       4.42209598       2.84915433      -1.45323064      -0.81699632       0.40528721
C        6.48520799       2.20114591       4.01521950       0.26090887      -0.01638197      -0.07438192
F        7.39809836       2.77960780       4.83007101      -0.04308082      -0.24595209      -0.07267520
F        6.72953335       0.91937236       3.94785077       0.06257057      -0.30629196       0.72925990
F        5.25130034       2.34880904       4.58480575      -0.42997719       0.09736449       0.84515360
H        8.49812464       2.62698447       2.88350682       0.16264604       0.06809718      -0.12154929
H        5.88112912       2.24423382       1.92001626      -0.05075832      -0.06910325      -0.26219728
O        8.03397151       7.01637223      10.35468102      -0.17746202      -0.95895309      -0.01550664
C        6.77636405       6.91107251      10.91274571      -0.37967459       0.27510754       0.33398670
C        6.14691680       5.49676218      10.55536606       0.72372028      -0.01862067      -0.66615502
F        6.89717552       4.52093522      11.18179345       0.06515214      -0.25715511      -0.27190285
F        6.14546198       5.30808497       9.23107965       0.77529982       0.51613263      -1.00399715
F        4.95877529       5.36072032      11.08767790       0.04016235      -0.73501508       0.42161657
C        5.91936304       8.06616634      10.39249066       0.38186430      -1.23074739      -0.73529589
F        5.86411241       8.09298332       9.06445898      -0.20026927      -0.99156939       0.36863381
F        6.46112793       9.24673601      10.78949974       0.53021242      -0.76203879       0.78259330
F        4.64297244       7.94064653      10.75718402       0.59398780       0.32369424      -0.48959777
H        8.05264631       6.91073990       9.42150237      -0.11092369       0.08791886      -0.14974139
H        6.91353191       7.04580228      11.96906558       0.10534029      -0.26837060      -0.01838916
O       13.95178800      14.87698163       5.65593409      -0.29685262       0.83154531      -0.45457082
C       15.02124462      15.58078040       6.26956940       0.57530157      -1.11853964      -0.91502947
C       15.08580784      17.04062182       5.66621510       0.33786589      -0.04918830       0.12930112
F       13.84030328      17.59120766       5.80227823      -0.35712754      -0.63532024       1.06103659
F       15.25349035      17.04917809       4.34598903      -0.26855974      -0.89431519       1.50274464
F       15.98588543      17.78130227       6.30495542      -0.56211605       1.22181852       1.37818096
C       16.40639322      14.85444436       6.17913070       0.31073042      -0.01840397       0.03501444
F       16.76538002      14.62352033       4.91275777       0.91152655       0.86147303      -0.83195483
F       16.41709959      13.69644246       6.80334492      -0.82360173      -1.27084265      -0.05882241
F       17.35868366      15.65729459       6.73909138       0.28767954       0.54718320      -0.52444182
H       14.26338848      14.10914615       5.20511570       0.34819016       0.05894900       0.02882270
H       14.80881951      15.82241305       7.28868062       0.15281939       0.04139938      -0.08641186
O        2.66161833       7.53779118       6.16538989      -0.45177995       1.40466789       0.27593147
C        2.96069343       6.17292377       6.14490316       0.26230029       0.36415102       0.16286607
C        2.68731853       5.53554139       7.54127942       0.10053863       2.02585819      -0.49429732
F        1.28764891       5.60635014       7.78668711       0.81207900      -0.01153623       0.13281461
F        3.32777887       5.98620073       8.56502516       0.35661343      -0.48219664       0.49029364
F        2.92671761       4.23455394       7.45467362      -0.25826277       0.49044241       2.09110679
C        4.42805458       6.09179541       5.67168186       0.01377352       0.24355327      -0.48565814
F        5.33593669       6.70633989       6.48317946       0.14177849      -0.00231613       0.25531340
F        4.56492499       6.65574853       4.47645481      -0.33533078       1.44389697      -0.42528969
F        4.80107890       4.75481068       5.59109403       0.68327548      -0.85767121       0.54959652
H        1.72391098       7.53817238       5.87681058       0.02523358      -0.11687672       0.19750562
H        2.42900248       5.55740499       5.44046872      -0.15326068      -0.24950621      -0.07160752
O        9.58777775       4.19461669       9.20513355       0.48374830       1.38197044      -1.07771104
C       10.39547777       4.12065729      10.32989418      -0.72729914      -0.17492344      -0.39969826
C       11.79521721       4.29338127       9.95595227      -0.29086873       0.58852230       0.49605050
F       11.97686719       5.51116708       9.41801177      -0.05549448      -0.15816301       1.48292737
F       12.14978784       3.40890177       9.03574834       0.49937427      -0.15875024       0.76235010
F       12.63212691       4.18664170      11.01445257      -0.62048119      -0.69118104      -0.16303621
C       10.16655626       2.73930344      11.03420718       0.59441496      -0.08467148      -0.60943193
F       10.44657163       1.69166638      10.28130071       0.52300037      -1.57114169      -0.86226016
F        8.84719430       2.63436437      11.35919450      -0.29908245       0.38886687       0.51485351
F       10.90078090       2.69543864      12.14712533      -0.52666933      -1.60655097       0.81545968
H        9.99902698       3.78619601       8.39938811      -0.15811758       0.06075053       0.13800693
H       10.10122790       4.87680732      11.00486368      -0.23915280      -0.17376469      -0.00607901
O        7.80888212      10.70863087      15.03148762      -0.69834644       0.61342431      -0.81895750
C        6.70926721      10.70962969      14.27101092       0.19003163      -0.55330195       1.34162624
C        5.65473532      11.68274933      14.84425788      -0.30284006       0.10419380       0.27882085
F        6.16415989      12.96607954      14.74185487       0.41442277      -0.29030872       1.60908136
F        5.33587950      11.37804467      16.08452401       1.01733159      -0.65799702       0.09880290
F        4.52612164      11.73025927      14.12802245      -1.10794417      -0.05931906       0.74063875
C        6.15559465       9.27097198      14.11686515      -0.01763831       0.61395368      -0.03250638
F        5.90956108       8.69932145      15.31137110      -0.20815400       0.32117883      -0.12135147
F        7.14635933       8.51172968      13.55345220      -0.59100967       0.09318931       0.57495549
F        5.08817787       9.34609170      13.38131340      -0.67645125      -0.05520147       0.18527723
H        8.19568165       9.81591552      15.04104747      -0.13625939       0.04299316       0.31246587
H        6.91307367      10.99795801      13.24521522       0.24596262      -0.13284765      -0.12680559
