125
Properties=species:S:1:pos:R:3 pbc="F F F"
C        8.50815321       1.41008171       0.51480911
C        7.46084526       1.44693584       1.63671411
C        7.35568974       2.90772310       2.13169282
C        7.88199281       0.63962422       2.87331913
O        7.10824819       0.29096496       3.75764396
O        9.22014744       0.39245110       2.89013190
C        9.66809765      -0.34039109       4.03127526
C        6.04256643       1.00394764       1.15088679
C        5.81480635      -0.35576332       0.38036097
C        6.47458743      -1.52259238       1.12464950
C        6.36753844      -0.17250829      -1.04481398
O        6.02701937       0.73256776      -1.79674077
O        7.27785819      -1.12832773      -1.37374495
C        7.81344733      -1.00313462      -2.69221570
C        4.24368385      -0.53063725       0.27804931
C        3.57091098      -1.83227891      -0.25681936
C        4.12623501      -2.21217186      -1.64157386
C        3.83135966      -3.02552280       0.68986643
O        4.15060111      -4.14910434       0.32239714
O        3.60815932      -2.68091123       1.99005966
C        3.81246534      -3.74219395       2.92430169
C        1.99088373      -1.75615023      -0.30851692
C        1.16293288      -0.55536457      -0.90552356
C        1.09578213       0.58580373       0.12280705
C        1.79046790      -0.06137636      -2.21155176
O        2.31161803       1.03545333      -2.35873879
O        1.68899497      -1.00390592      -3.18892338
C        2.19874376      -0.59700287      -4.46065942
C       -0.28786180      -1.12723018      -1.18137485
C       -1.53254482      -0.25125274      -1.60917090
C       -2.58409258      -1.26901162      -2.11658933
C       -1.15657599       0.63507108      -2.80582521
O       -1.21488909       0.27324386      -3.97440967
O       -0.71754694       1.85632599      -2.40729218
C       -0.33252860       2.73344453      -3.46848102
C       -2.09559689       0.54818415      -0.38047064
C       -3.54164998       1.20602683      -0.32810802
C       -3.78975168       2.02133642      -1.61062636
C       -3.47026002       2.11607520       0.91516554
O       -3.07137968       1.72379839       2.00666307
O       -3.89612756       3.38020806       0.66484197
C       -3.86912407       4.24844257       1.79939630
C       -4.64290610       0.11029081      -0.11381888
C       -6.07515442       0.40633128       0.48658896
C       -6.76352643       1.56369163      -0.24459943
C       -5.95167538       0.74768044       1.98092803
O       -6.31673014       1.80533314       2.47831124
O       -5.38937294      -0.27861810       2.67759235
C       -5.20352275      -0.00729779       4.06773372
C       -6.89966015      -0.93056311       0.32419844
C       -8.43529029      -0.99427694       0.60292566
C       -8.86464904      -2.47987913       0.57526771
C       -9.26870487      -0.29791484      -0.48247908
O      -10.21328570       0.44886804      -0.26169290
O       -8.84215141      -0.64370681      -1.73061315
C       -9.58835027      -0.04294297      -2.79033346
C       -8.81275727      -0.43301672       1.98158732
H        8.77483811       0.38694076       0.23631307
H        9.44020564       1.89940807       0.82315480
H        8.15428031       1.93702802      -0.37755110
H        8.30927837       3.25722443       2.54511703
H        7.07483821       3.58471412       1.31708775
H        6.60525213       3.00692183       2.92491830
H        9.18441332      -1.32146045       4.07086080
H        9.47709426       0.22513652       4.94860236
H       10.74696134      -0.49024027       3.93510600
H        5.38711794       0.99664230       2.03399939
H        5.64608413       1.81164441       0.51743500
H        7.55782510      -1.39491937       1.20925316
H        6.34146192      -2.47249911       0.59975271
H        6.07032744      -1.62990694       2.13544104
H        8.34867495      -0.05450959      -2.79921484
H        7.01752675      -1.08790575      -3.43871851
H        8.52271094      -1.82057267      -2.84800269
H        3.82723055      -0.33626538       1.27545767
H        3.89810343       0.29282768      -0.35643280
H        4.17249002      -1.35296881      -2.31364645
H        3.51225422      -2.98169347      -2.12392503
H        5.13440859      -2.63284886      -1.57256833
H        3.63220801      -3.34829442       3.92823984
H        3.10472925      -4.55582819       2.73804344
H        4.84405296      -4.10449134       2.87450291
H        1.66542390      -2.67245087      -0.82568762
H        1.61261273      -1.89247958       0.71621123
H        0.49234414       0.30202085       0.99167892
H        0.68242739       1.50030376      -0.30835477
H        2.07436178       0.87713070       0.50326088
H        2.10483445      -1.44240392      -5.14764230
H        1.61400144       0.23792755      -4.85674303
H        3.25677723      -0.32737161      -4.38685471
H       -0.17043275      -1.90891133      -1.94629292
H       -0.59333699      -1.68068624      -0.27995521
H       -2.15725707      -1.94823567      -2.86550071
H       -3.42308096      -0.78149400      -2.61890171
H       -2.96316772      -1.89236158      -1.30013763
H       -1.20435384       2.99230876      -4.07698780
H        0.44889703       2.28225448      -4.08623367
H        0.06461398       3.64905376      -3.02203315
H       -2.02070401      -0.11380110       0.49506815
H       -1.39835292       1.36320816      -0.16205814
H       -3.00689403       2.77330930      -1.75512731
H       -3.82477975       1.39078342      -2.50200134
H       -4.72898619       2.57646181      -1.58857698
H       -4.28123488       5.21448564       1.49525741
H       -2.83870136       4.40073769       2.13506793
H       -4.48539671       3.85000001       2.61069620
H       -4.19957768      -0.68746625       0.49819545
H       -4.82373533      -0.34446624      -1.09331894
H       -6.83582171       1.37084064      -1.31962262
H       -6.23629263       2.50911362      -0.09637092
H       -7.77041178       1.74955198       0.13878939
H       -4.58390364       0.88297394       4.21262318
H       -4.68813757      -0.86270979       4.51293458
H       -6.17229043       0.11035226       4.56299915
H       -6.42351139      -1.69430805       0.95622635
H       -6.73886708      -1.29266148      -0.70102503
H       -8.38601491      -3.04654356       1.38194924
H       -9.95021263      -2.58273100       0.69081054
H       -8.59483282      -2.95774161      -0.37368442
H       -9.51024783       1.04776655      -2.74340560
H      -10.63481006      -0.36084260      -2.75009089
H       -9.16021921      -0.37976392      -3.73842971
H       -8.21331508      -0.88923187       2.77631356
H       -8.69201182       0.65280425       2.02963757
H       -9.86593882      -0.63366755       2.21402806
