        4173
  Built with Packmol                                             
  C            0.000000        0.000000       19.000000
  C            1.418000        0.000000       19.000000
  C            2.127000        1.228024       19.000000
  C            3.545000        1.228024       19.000000
  C            0.000000        2.456048       19.000000
  C            1.418000        2.456048       19.000000
  C            2.127000        3.684072       19.000000
  C            3.545000        3.684072       19.000000
  C            0.000000        4.912096       19.000000
  C            1.418000        4.912096       19.000000
  C            2.127000        6.140120       19.000000
  C            3.545000        6.140120       19.000000
  C            0.000000        7.368144       19.000000
  C            1.418000        7.368144       19.000000
  C            2.127000        8.596168       19.000000
  C            3.545000        8.596168       19.000000
  C            0.000000        9.824192       19.000000
  C            1.418000        9.824192       19.000000
  C            2.127000       11.052216       19.000000
  C            3.545000       11.052216       19.000000
  C            0.000000       12.280240       19.000000
  C            1.418000       12.280240       19.000000
  C            2.127000       13.508264       19.000000
  C            3.545000       13.508264       19.000000
  C            0.000000       14.736288       19.000000
  C            1.418000       14.736288       19.000000
  C            2.127000       15.964312       19.000000
  C            3.545000       15.964312       19.000000
  C            0.000000       17.192336       19.000000
  C            1.418000       17.192336       19.000000
  C            2.127000       18.420360       19.000000
  C            3.545000       18.420360       19.000000
  C            0.000000       19.648384       19.000000
  C            1.418000       19.648384       19.000000
  C            2.127000       20.876408       19.000000
  C            3.545000       20.876408       19.000000
  C            0.000000       22.104432       19.000000
  C            1.418000       22.104432       19.000000
  C            2.127000       23.332456       19.000000
  C            3.545000       23.332456       19.000000
  C            0.000000       24.560480       19.000000
  C            1.418000       24.560480       19.000000
  C            2.127000       25.788504       19.000000
  C            3.545000       25.788504       19.000000
  C            0.000000       27.016528       19.000000
  C            1.418000       27.016528       19.000000
  C            2.127000       28.244553       19.000000
  C            3.545000       28.244553       19.000000
  C            0.000000       29.472577       19.000000
  C            1.418000       29.472577       19.000000
  C            2.127000       30.700601       19.000000
  C            3.545000       30.700601       19.000000
  C            0.000000       31.928625       19.000000
  C            1.418000       31.928625       19.000000
  C            2.127000       33.156649       19.000000
  C            3.545000       33.156649       19.000000
  C            4.254000        0.000000       19.000000
  C            5.672000        0.000000       19.000000
  C            6.381000        1.228024       19.000000
  C            7.799000        1.228024       19.000000
  C            4.254000        2.456048       19.000000
  C            5.672000        2.456048       19.000000
  C            6.381000        3.684072       19.000000
  C            7.799000        3.684072       19.000000
  C            4.254000        4.912096       19.000000
  C            5.672000        4.912096       19.000000
  C            6.381000        6.140120       19.000000
  C            7.799000        6.140120       19.000000
  C            4.254000        7.368144       19.000000
  C            5.672000        7.368144       19.000000
  C            6.381000        8.596168       19.000000
  C            7.799000        8.596168       19.000000
  C            4.254000        9.824192       19.000000
  C            5.672000        9.824192       19.000000
  C            6.381000       11.052216       19.000000
  C            7.799000       11.052216       19.000000
  C            4.254000       12.280240       19.000000
  C            5.672000       12.280240       19.000000
  C            6.381000       13.508264       19.000000
  C            7.799000       13.508264       19.000000
  C            4.254000       14.736288       19.000000
  C            5.672000       14.736288       19.000000
  C            6.381000       15.964312       19.000000
  C            7.799000       15.964312       19.000000
  C            4.254000       17.192336       19.000000
  C            5.672000       17.192336       19.000000
  C            6.381000       18.420360       19.000000
  C            7.799000       18.420360       19.000000
  C            4.254000       19.648384       19.000000
  C            5.672000       19.648384       19.000000
  C            6.381000       20.876408       19.000000
  C            7.799000       20.876408       19.000000
  C            4.254000       22.104432       19.000000
  C            5.672000       22.104432       19.000000
  C            6.381000       23.332456       19.000000
  C            7.799000       23.332456       19.000000
  C            4.254000       24.560480       19.000000
  C            5.672000       24.560480       19.000000
  C            6.381000       25.788504       19.000000
  C            7.799000       25.788504       19.000000
  C            4.254000       27.016528       19.000000
  C            5.672000       27.016528       19.000000
  C            6.381000       28.244553       19.000000
  C            7.799000       28.244553       19.000000
  C            4.254000       29.472577       19.000000
  C            5.672000       29.472577       19.000000
  C            6.381000       30.700601       19.000000
  C            7.799000       30.700601       19.000000
  C            4.254000       31.928625       19.000000
  C            5.672000       31.928625       19.000000
  C            6.381000       33.156649       19.000000
  C            7.799000       33.156649       19.000000
  C            8.508000        0.000000       19.000000
  C            9.926000        0.000000       19.000000
  C           10.635000        1.228024       19.000000
  C           12.053000        1.228024       19.000000
  C            8.508000        2.456048       19.000000
  C            9.926000        2.456048       19.000000
  C           10.635000        3.684072       19.000000
  C           12.053000        3.684072       19.000000
  C            8.508000        4.912096       19.000000
  C            9.926000        4.912096       19.000000
  C           10.635000        6.140120       19.000000
  C           12.053000        6.140120       19.000000
  C            8.508000        7.368144       19.000000
  C            9.926000        7.368144       19.000000
  C           10.635000        8.596168       19.000000
  C           12.053000        8.596168       19.000000
  C            8.508000        9.824192       19.000000
  C            9.926000        9.824192       19.000000
  C           10.635000       11.052216       19.000000
  C           12.053000       11.052216       19.000000
  C            8.508000       12.280240       19.000000
  C            9.926000       12.280240       19.000000
  C           10.635000       13.508264       19.000000
  C           12.053000       13.508264       19.000000
  C            8.508000       14.736288       19.000000
  C            9.926000       14.736288       19.000000
  C           10.635000       15.964312       19.000000
  C           12.053000       15.964312       19.000000
  C            8.508000       17.192336       19.000000
  C            9.926000       17.192336       19.000000
  C           10.635000       18.420360       19.000000
  C           12.053000       18.420360       19.000000
  C            8.508000       19.648384       19.000000
  C            9.926000       19.648384       19.000000
  C           10.635000       20.876408       19.000000
  C           12.053000       20.876408       19.000000
  C            8.508000       22.104432       19.000000
  C            9.926000       22.104432       19.000000
  C           10.635000       23.332456       19.000000
  C           12.053000       23.332456       19.000000
  C            8.508000       24.560480       19.000000
  C            9.926000       24.560480       19.000000
  C           10.635000       25.788504       19.000000
  C           12.053000       25.788504       19.000000
  C            8.508000       27.016528       19.000000
  C            9.926000       27.016528       19.000000
  C           10.635000       28.244553       19.000000
  C           12.053000       28.244553       19.000000
  C            8.508000       29.472577       19.000000
  C            9.926000       29.472577       19.000000
  C           10.635000       30.700601       19.000000
  C           12.053000       30.700601       19.000000
  C            8.508000       31.928625       19.000000
  C            9.926000       31.928625       19.000000
  C           10.635000       33.156649       19.000000
  C           12.053000       33.156649       19.000000
  C           12.762000        0.000000       19.000000
  C           14.180000        0.000000       19.000000
  C           14.889000        1.228024       19.000000
  C           16.307000        1.228024       19.000000
  C           12.762000        2.456048       19.000000
  C           14.180000        2.456048       19.000000
  C           14.889000        3.684072       19.000000
  C           16.307000        3.684072       19.000000
  C           12.762000        4.912096       19.000000
  C           14.180000        4.912096       19.000000
  C           14.889000        6.140120       19.000000
  C           16.307000        6.140120       19.000000
  C           12.762000        7.368144       19.000000
  C           14.180000        7.368144       19.000000
  C           14.889000        8.596168       19.000000
  C           16.307000        8.596168       19.000000
  C           12.762000        9.824192       19.000000
  C           14.180000        9.824192       19.000000
  C           14.889000       11.052216       19.000000
  C           16.307000       11.052216       19.000000
  C           12.762000       12.280240       19.000000
  C           14.180000       12.280240       19.000000
  C           14.889000       13.508264       19.000000
  C           16.307000       13.508264       19.000000
  C           12.762000       14.736288       19.000000
  C           14.180000       14.736288       19.000000
  C           14.889000       15.964312       19.000000
  C           16.307000       15.964312       19.000000
  C           12.762000       17.192336       19.000000
  C           14.180000       17.192336       19.000000
  C           14.889000       18.420360       19.000000
  C           16.307000       18.420360       19.000000
  C           12.762000       19.648384       19.000000
  C           14.180000       19.648384       19.000000
  C           14.889000       20.876408       19.000000
  C           16.307000       20.876408       19.000000
  C           12.762000       22.104432       19.000000
  C           14.180000       22.104432       19.000000
  C           14.889000       23.332456       19.000000
  C           16.307000       23.332456       19.000000
  C           12.762000       24.560480       19.000000
  C           14.180000       24.560480       19.000000
  C           14.889000       25.788504       19.000000
  C           16.307000       25.788504       19.000000
  C           12.762000       27.016528       19.000000
  C           14.180000       27.016528       19.000000
  C           14.889000       28.244553       19.000000
  C           16.307000       28.244553       19.000000
  C           12.762000       29.472577       19.000000
  C           14.180000       29.472577       19.000000
  C           14.889000       30.700601       19.000000
  C           16.307000       30.700601       19.000000
  C           12.762000       31.928625       19.000000
  C           14.180000       31.928625       19.000000
  C           14.889000       33.156649       19.000000
  C           16.307000       33.156649       19.000000
  C           17.016000        0.000000       19.000000
  C           18.434000        0.000000       19.000000
  C           19.143000        1.228024       19.000000
  C           20.561000        1.228024       19.000000
  C           17.016000        2.456048       19.000000
  C           18.434000        2.456048       19.000000
  C           19.143000        3.684072       19.000000
  C           20.561000        3.684072       19.000000
  C           17.016000        4.912096       19.000000
  C           18.434000        4.912096       19.000000
  C           19.143000        6.140120       19.000000
  C           20.561000        6.140120       19.000000
  C           17.016000        7.368144       19.000000
  C           18.434000        7.368144       19.000000
  C           19.143000        8.596168       19.000000
  C           20.561000        8.596168       19.000000
  C           17.016000        9.824192       19.000000
  C           18.434000        9.824192       19.000000
  C           19.143000       11.052216       19.000000
  C           20.561000       11.052216       19.000000
  C           17.016000       12.280240       19.000000
  C           18.434000       12.280240       19.000000
  C           19.143000       13.508264       19.000000
  C           20.561000       13.508264       19.000000
  C           17.016000       14.736288       19.000000
  C           18.434000       14.736288       19.000000
  C           19.143000       15.964312       19.000000
  C           20.561000       15.964312       19.000000
  C           17.016000       17.192336       19.000000
  C           18.434000       17.192336       19.000000
  C           19.143000       18.420360       19.000000
  C           20.561000       18.420360       19.000000
  C           17.016000       19.648384       19.000000
  C           18.434000       19.648384       19.000000
  C           19.143000       20.876408       19.000000
  C           20.561000       20.876408       19.000000
  C           17.016000       22.104432       19.000000
  C           18.434000       22.104432       19.000000
  C           19.143000       23.332456       19.000000
  C           20.561000       23.332456       19.000000
  C           17.016000       24.560480       19.000000
  C           18.434000       24.560480       19.000000
  C           19.143000       25.788504       19.000000
  C           20.561000       25.788504       19.000000
  C           17.016000       27.016528       19.000000
  C           18.434000       27.016528       19.000000
  C           19.143000       28.244553       19.000000
  C           20.561000       28.244553       19.000000
  C           17.016000       29.472577       19.000000
  C           18.434000       29.472577       19.000000
  C           19.143000       30.700601       19.000000
  C           20.561000       30.700601       19.000000
  C           17.016000       31.928625       19.000000
  C           18.434000       31.928625       19.000000
  C           19.143000       33.156649       19.000000
  C           20.561000       33.156649       19.000000
  C           21.270000        0.000000       19.000000
  C           22.688000        0.000000       19.000000
  C           23.397000        1.228024       19.000000
  C           24.815000        1.228024       19.000000
  C           21.270000        2.456048       19.000000
  C           22.688000        2.456048       19.000000
  C           23.397000        3.684072       19.000000
  C           24.815000        3.684072       19.000000
  C           21.270000        4.912096       19.000000
  C           22.688000        4.912096       19.000000
  C           23.397000        6.140120       19.000000
  C           24.815000        6.140120       19.000000
  C           21.270000        7.368144       19.000000
  C           22.688000        7.368144       19.000000
  C           23.397000        8.596168       19.000000
  C           24.815000        8.596168       19.000000
  C           21.270000        9.824192       19.000000
  C           22.688000        9.824192       19.000000
  C           23.397000       11.052216       19.000000
  C           24.815000       11.052216       19.000000
  C           21.270000       12.280240       19.000000
  C           22.688000       12.280240       19.000000
  C           23.397000       13.508264       19.000000
  C           24.815000       13.508264       19.000000
  C           21.270000       14.736288       19.000000
  C           22.688000       14.736288       19.000000
  C           23.397000       15.964312       19.000000
  C           24.815000       15.964312       19.000000
  C           21.270000       17.192336       19.000000
  C           22.688000       17.192336       19.000000
  C           23.397000       18.420360       19.000000
  C           24.815000       18.420360       19.000000
  C           21.270000       19.648384       19.000000
  C           22.688000       19.648384       19.000000
  C           23.397000       20.876408       19.000000
  C           24.815000       20.876408       19.000000
  C           21.270000       22.104432       19.000000
  C           22.688000       22.104432       19.000000
  C           23.397000       23.332456       19.000000
  C           24.815000       23.332456       19.000000
  C           21.270000       24.560480       19.000000
  C           22.688000       24.560480       19.000000
  C           23.397000       25.788504       19.000000
  C           24.815000       25.788504       19.000000
  C           21.270000       27.016528       19.000000
  C           22.688000       27.016528       19.000000
  C           23.397000       28.244553       19.000000
  C           24.815000       28.244553       19.000000
  C           21.270000       29.472577       19.000000
  C           22.688000       29.472577       19.000000
  C           23.397000       30.700601       19.000000
  C           24.815000       30.700601       19.000000
  C           21.270000       31.928625       19.000000
  C           22.688000       31.928625       19.000000
  C           23.397000       33.156649       19.000000
  C           24.815000       33.156649       19.000000
  C           25.524000        0.000000       19.000000
  C           26.942000        0.000000       19.000000
  C           27.651000        1.228024       19.000000
  C           29.069000        1.228024       19.000000
  C           25.524000        2.456048       19.000000
  C           26.942000        2.456048       19.000000
  C           27.651000        3.684072       19.000000
  C           29.069000        3.684072       19.000000
  C           25.524000        4.912096       19.000000
  C           26.942000        4.912096       19.000000
  C           27.651000        6.140120       19.000000
  C           29.069000        6.140120       19.000000
  C           25.524000        7.368144       19.000000
  C           26.942000        7.368144       19.000000
  C           27.651000        8.596168       19.000000
  C           29.069000        8.596168       19.000000
  C           25.524000        9.824192       19.000000
  C           26.942000        9.824192       19.000000
  C           27.651000       11.052216       19.000000
  C           29.069000       11.052216       19.000000
  C           25.524000       12.280240       19.000000
  C           26.942000       12.280240       19.000000
  C           27.651000       13.508264       19.000000
  C           29.069000       13.508264       19.000000
  C           25.524000       14.736288       19.000000
  C           26.942000       14.736288       19.000000
  C           27.651000       15.964312       19.000000
  C           29.069000       15.964312       19.000000
  C           25.524000       17.192336       19.000000
  C           26.942000       17.192336       19.000000
  C           27.651000       18.420360       19.000000
  C           29.069000       18.420360       19.000000
  C           25.524000       19.648384       19.000000
  C           26.942000       19.648384       19.000000
  C           27.651000       20.876408       19.000000
  C           29.069000       20.876408       19.000000
  C           25.524000       22.104432       19.000000
  C           26.942000       22.104432       19.000000
  C           27.651000       23.332456       19.000000
  C           29.069000       23.332456       19.000000
  C           25.524000       24.560480       19.000000
  C           26.942000       24.560480       19.000000
  C           27.651000       25.788504       19.000000
  C           29.069000       25.788504       19.000000
  C           25.524000       27.016528       19.000000
  C           26.942000       27.016528       19.000000
  C           27.651000       28.244553       19.000000
  C           29.069000       28.244553       19.000000
  C           25.524000       29.472577       19.000000
  C           26.942000       29.472577       19.000000
  C           27.651000       30.700601       19.000000
  C           29.069000       30.700601       19.000000
  C           25.524000       31.928625       19.000000
  C           26.942000       31.928625       19.000000
  C           27.651000       33.156649       19.000000
  C           29.069000       33.156649       19.000000
  C           29.778000        0.000000       19.000000
  C           31.196000        0.000000       19.000000
  C           31.905000        1.228024       19.000000
  C           33.323000        1.228024       19.000000
  C           29.778000        2.456048       19.000000
  C           31.196000        2.456048       19.000000
  C           31.905000        3.684072       19.000000
  C           33.323000        3.684072       19.000000
  C           29.778000        4.912096       19.000000
  C           31.196000        4.912096       19.000000
  C           31.905000        6.140120       19.000000
  C           33.323000        6.140120       19.000000
  C           29.778000        7.368144       19.000000
  C           31.196000        7.368144       19.000000
  C           31.905000        8.596168       19.000000
  C           33.323000        8.596168       19.000000
  C           29.778000        9.824192       19.000000
  C           31.196000        9.824192       19.000000
  C           31.905000       11.052216       19.000000
  C           33.323000       11.052216       19.000000
  C           29.778000       12.280240       19.000000
  C           31.196000       12.280240       19.000000
  C           31.905000       13.508264       19.000000
  C           33.323000       13.508264       19.000000
  C           29.778000       14.736288       19.000000
  C           31.196000       14.736288       19.000000
  C           31.905000       15.964312       19.000000
  C           33.323000       15.964312       19.000000
  C           29.778000       17.192336       19.000000
  C           31.196000       17.192336       19.000000
  C           31.905000       18.420360       19.000000
  C           33.323000       18.420360       19.000000
  C           29.778000       19.648384       19.000000
  C           31.196000       19.648384       19.000000
  C           31.905000       20.876408       19.000000
  C           33.323000       20.876408       19.000000
  C           29.778000       22.104432       19.000000
  C           31.196000       22.104432       19.000000
  C           31.905000       23.332456       19.000000
  C           33.323000       23.332456       19.000000
  C           29.778000       24.560480       19.000000
  C           31.196000       24.560480       19.000000
  C           31.905000       25.788504       19.000000
  C           33.323000       25.788504       19.000000
  C           29.778000       27.016528       19.000000
  C           31.196000       27.016528       19.000000
  C           31.905000       28.244553       19.000000
  C           33.323000       28.244553       19.000000
  C           29.778000       29.472577       19.000000
  C           31.196000       29.472577       19.000000
  C           31.905000       30.700601       19.000000
  C           33.323000       30.700601       19.000000
  C           29.778000       31.928625       19.000000
  C           31.196000       31.928625       19.000000
  C           31.905000       33.156649       19.000000
  C           33.323000       33.156649       19.000000
  C           12.001857       18.439189       24.913646
  C           13.540489       18.299965       24.978743
  C           14.111145       18.863438       23.670802
  C           13.959620       19.110988       26.214004
  O           13.808771       18.723511       27.366643
  O           14.493326       20.316309       25.877801
  C           14.918161       21.103143       26.991774
  C           13.875199       16.787735       25.181910
  C           15.348082       16.224805       25.076451
  C           15.768993       16.139318       23.599095
  C           15.220468       14.778702       25.610191
  O           15.163222       13.778347       24.905984
  O           15.120192       14.765677       26.967926
  C           14.941673       13.472268       27.545490
  C           16.347026       17.058269       25.941529
  C           17.901360       16.790053       25.993965
  C           18.412468       17.612266       27.205706
  C           18.183842       15.311554       26.302970
  O           18.295265       14.846450       27.429859
  O           18.271989       14.574022       25.164451
  C           18.547123       13.186393       25.367719
  C           18.594263       17.285720       24.674515
  C           20.137919       17.537103       24.608686
  C           20.955334       16.327037       25.085262
  C           20.499047       18.840791       25.334965
  O           19.852361       19.877119       25.229684
  O           21.628975       18.718003       26.081388
  C           22.008663       19.907744       26.774544
  C           20.514939       17.793100       23.130169
  H           11.525399       18.030307       25.812538
  H           11.700722       19.491022       24.840076
  H           11.590936       17.910564       24.046176
  H           15.195628       18.996172       23.720455
  H           13.690838       19.851522       23.446257
  H           13.873670       18.214452       22.821186
  H           14.066388       21.349825       27.633119
  H           15.342947       22.033998       26.606183
  H           15.693261       20.577500       27.558463
  H           13.475409       16.502159       26.166372
  H           13.260144       16.211863       24.473087
  H           14.937345       15.805637       22.967069
  H           16.115240       17.097397       23.207020
  H           16.569397       15.410779       23.441094
  H           14.015267       13.016378       27.182740
  H           14.866699       13.593407       28.629576
  H           15.799980       12.830912       27.327770
  H           16.249053       18.106933       25.639896
  H           15.974634       17.027724       26.975009
  H           18.257828       18.685465       27.052829
  H           19.470442       17.432973       27.414534
  H           17.878159       17.341372       28.125118
  H           17.760172       12.717504       25.964154
  H           19.523153       13.059478       25.846086
  H           18.574871       12.701110       24.388359
  H           18.365945       16.578998       23.870579
  H           18.099388       18.220525       24.374506
  H           22.029052       16.484264       24.925414
  H           20.824224       16.130377       26.152642
  H           20.684247       15.422762       24.530886
  H           22.230064       20.710406       26.064271
  H           22.915102       19.691498       27.346592
  H           21.222626       20.211747       27.472926
  H           20.315003       16.912318       22.509577
  H           19.946652       18.632557       22.712368
  H           21.578342       18.040937       23.029200
  C           17.146987        9.732059       11.283477
  N           18.084402        8.635305       11.246016
  C           19.446232        8.965796       10.925506
  C           17.669351        7.384379       11.502786
  O           16.537191        7.063710       11.775592
  H           17.445701       10.463946       12.037338
  H           16.169334        9.326404       11.536863
  H           17.097142       10.225027       10.309981
  H           19.502089        9.430392        9.936974
  H           20.057724        8.065495       10.926641
  H           19.849743        9.668694       11.659862
  H           18.495303        6.650979       11.437560
  C           17.389119        7.179128        5.735662
  N           18.471396        7.919338        6.338809
  C           19.251310        8.746835        5.459311
  C           18.707438        7.815317        7.656563
  O           18.077968        7.133291        8.429637
  H           16.669768        7.860876        5.276369
  H           16.898578        6.606767        6.520735
  H           17.771385        6.498585        4.971511
  H           19.714761        8.138994        4.677066
  H           20.033440        9.253505        6.021471
  H           18.615992        9.497758        4.981136
  H           19.565084        8.437502        7.975400
  C           26.828771       15.135856        4.862273
  N           26.435741       13.747135        4.863704
  C           25.518286       13.340950        5.893181
  C           26.922511       12.907580        3.935688
  O           27.693508       13.206806        3.055311
  H           25.955672       15.779536        4.733552
  H           27.517736       15.286415        4.033282
  H           27.324489       15.393239        5.801002
  H           25.951092       13.522025        6.881137
  H           25.295199       12.280227        5.795385
  H           24.585818       13.907325        5.816447
  H           26.534260       11.879087        4.061352
  C            4.306812        9.848249        5.492906
  N            2.927879       10.188955        5.748804
  C            1.983824        9.105134        5.723845
  C            2.582336       11.463195        5.993598
  O            3.341899       12.401912        6.023815
  H            4.669863        9.139224        6.240350
  H            4.891833       10.764516        5.545552
  H            4.412356        9.403589        4.500770
  H            1.986883        8.620866        4.743212
  H            0.982538        9.479096        5.928896
  H            2.243727        8.357186        6.478291
  H            1.495617       11.572222        6.171032
  C            3.265479       29.051291        1.553867
  N            3.390409       29.673233        2.850247
  C            2.256908       29.561811        3.727339
  C            4.522078       30.314009        3.184531
  O            5.495800       30.430864        2.479373
  H            3.094355       27.977720        1.660437
  H            4.194322       29.220120        1.012283
  H            2.433505       29.490163        0.998523
  H            1.375248       30.018722        3.269001
  H            2.464768       30.065046        4.669685
  H            2.034390       28.510192        3.929199
  H            4.472926       30.739104        4.204925
  C            5.551615       13.250423        3.860222
  N            5.062119       12.366575        2.829578
  C            5.924089       12.161358        1.697578
  C            3.858896       11.784134        2.956195
  O            3.104751       11.928996        3.888567
  H            6.484334       12.867329        4.280305
  H            4.795112       13.303317        4.640909
  H            5.728592       14.248998        3.454363
  H            6.124325       13.111879        1.195003
  H            5.453616       11.481140        0.990171
  H            6.878110       11.733786        2.018811
  H            3.618082       11.136007        2.092328
  C           32.338002       27.072175        9.073512
  N           32.417110       25.632303        9.014105
  C           32.101995       24.921885       10.223460
  C           32.770263       25.022936        7.870878
  O           33.042499       25.580575        6.834556
  H           31.324901       27.388471        9.331930
  H           32.601863       27.461268        8.091906
  H           33.033219       27.462176        9.820351
  H           32.782769       25.217950       11.026615
  H           32.194923       23.849888       10.060200
  H           31.078872       25.144437       10.539456
  H           32.787893       23.921533        7.975420
  C            7.649114       22.305279        3.158759
  N            7.759330       20.876100        2.990478
  C            7.603582       20.373591        1.652659
  C            7.995644       20.088350        4.051901
  O            8.132662       20.468551        5.190193
  H            8.414470       22.818814        2.572492
  H            7.788575       22.528275        4.214879
  H            6.664105       22.652478        2.838750
  H            6.617703       20.637812        1.259726
  H            7.705832       19.290083        1.647952
  H            8.363539       20.803719        0.994160
  H            8.054507       19.019663        3.771240
  C           29.544322       12.106729       10.526476
  N           30.644222       11.463052        9.849039
  C           31.749423       12.303867        9.477432
  C           30.601945       10.145011        9.596068
  O           29.694892        9.403614        9.890384
  H           29.883547       12.558211       11.461509
  H           28.794028       11.347659       10.739636
  H           29.108855       12.883848        9.894298
  H           31.414262       13.095493        8.801296
  H           32.514252       11.713327        8.976666
  H           32.186947       12.770698       10.364453
  H           31.511405        9.792909        9.073350
  C           17.562324       16.099854       15.899291
  N           17.950829       14.711299       15.836039
  C           19.347206       14.426429       16.024489
  C           17.027830       13.762384       15.610995
  O           15.847094       13.957867       15.447635
  H           17.807761       16.520750       16.876942
  H           16.487044       16.152723       15.739466
  H           18.075656       16.675475       15.125763
  H           19.944663       14.931006       15.259890
  H           19.520685       13.354179       15.956292
  H           19.677459       14.776683       17.006538
  H           17.470881       12.748699       15.589209
  C           21.118716       32.685815        4.173640
  N           21.101854       32.849781        2.739816
  C           19.842834       32.625901        2.083098
  C           22.223666       33.194281        2.087229
  O           23.299819       33.391431        2.599152
  H           20.424747       33.384754        4.645961
  H           22.130624       32.886987        4.520249
  H           20.835358       31.666268        4.444614
  H           19.496435       31.604298        2.263377
  H           19.950466       32.777264        1.010731
  H           19.086888       33.318337        2.464206
  H           22.059326       33.282799        0.996595
  C            5.749899       10.275340       14.337979
  N            5.158879        9.426008       15.344136
  C            3.740273        9.212767       15.251310
  C            5.926046        8.880789       16.301843
  O            7.118772        9.033709       16.416116
  H            5.591304        9.854892       13.342356
  H            6.817331       10.339085       14.540690
  H            5.310284       11.274595       14.375703
  H            3.207166       10.164938       15.324338
  H            3.408554        8.560654       16.057025
  H            3.487462        8.748910       14.293663
  H            5.337493        8.256030       17.000133
  C           29.505844       30.605436        4.730589
  N           29.185428       30.772512        3.333292
  C           29.114551       32.123926        2.848328
  C           28.971100       29.697773        2.557398
  O           29.020605       28.547812        2.923701
  H           30.484339       31.037472        4.952145
  H           29.522187       29.538213        4.943507
  H           28.753247       31.091447        5.355558
  H           28.347593       32.683064        3.391749
  H           28.867619       32.126372        1.788382
  H           30.074207       32.629227        2.989381
  H           28.736563       29.979230        1.513319
  C           28.459005       17.726098        3.764328
  N           28.028437       18.895863        3.036811
  C           27.776094       20.078322        3.814401
  C           27.882236       18.844534        1.703018
  O           28.083115       17.873831        1.012784
  H           29.396497       17.925967        4.288118
  H           28.607499       16.922463        3.045520
  H           27.701269       17.429434        4.493041
  H           26.990531       19.888258        4.551240
  H           27.459369       20.891054        3.163541
  H           28.681374       20.383503        4.346846
  H           27.548049       19.812617        1.284136
  C            3.566302        6.164864        6.325708
  N            4.301773        6.435611        5.113767
  C            5.735337        6.440106        5.220557
  C            3.646567        6.666719        3.964721
  O            2.446057        6.672263        3.831372
  H            3.824248        5.177914        6.716336
  H            2.505192        6.195671        6.085581
  H            3.791334        6.917278        7.084937
  H            6.060916        7.201578        5.934927
  H            6.180012        6.654084        4.250534
  H            6.093742        5.466714        5.567282
  H            4.338796        6.858191        3.123005
  C           30.231697       32.784217       12.834798
  N           31.197198       32.139830       11.977130
  C           32.132282       31.254019       12.615478
  C           31.191745       32.379716       10.655980
  O           30.425520       33.114936       10.080316
  H           29.614792       32.039251       13.342390
  H           29.601328       33.415731       12.211589
  H           30.736486       33.397764       13.584427
  H           32.721067       31.795929       13.361018
  H           32.807023       30.828837       11.874930
  H           31.602273       30.440933       13.119608
  H           31.985830       31.818044       10.128457
  C           23.332957       23.355268       15.698022
  N           22.923301       24.656509       16.169165
  C           23.881214       25.719553       16.031791
  C           21.702824       24.827165       16.702387
  O           20.869396       23.963148       16.836208
  H           23.565034       23.391204       14.631230
  H           22.509330       22.664532       15.868578
  H           24.215976       23.012822       16.242266
  H           24.793653       25.483074       16.586498
  H           23.464748       26.647878       16.418099
  H           24.144393       25.860474       14.979630
  H           21.529930       25.873504       17.017998
  C            2.227569       21.534022       13.248098
  N            2.946661       20.677932       14.160806
  C            3.952556       21.306724       14.972796
  C            2.663270       19.366778       14.220609
  O            1.827943       18.799340       13.557825
  H            1.699985       22.318224       13.795707
  H            1.508832       20.918710       12.710161
  H            2.915512       21.998122       12.537788
  H            4.717762       21.767058       14.341355
  H            4.425357       20.568345       15.617561
  H            3.505377       22.086333       15.596018
  H            3.292165       18.839211       14.962560
  C           23.448350       11.178394       13.396666
  N           22.737182       10.150802       14.118687
  C           22.761534       10.240626       15.553215
  C           22.097504        9.177187       13.450931
  O           22.052021        9.064738       12.249131
  H           23.033588       12.162593       13.625839
  H           23.338300       10.975375       12.333069
  H           24.507659       11.168578       13.663054
  H           23.791012       10.194430       15.919557
  H           22.196004        9.418224       15.987147
  H           22.320756       11.185874       15.882435
  H           21.598946        8.463417       14.133793
  C           25.918435        6.745318        6.636483
  N           26.863341        7.665351        6.050215
  C           28.106576        7.841190        6.750200
  C           26.561847        8.305743        4.909157
  O           25.531371        8.187263        4.290191
  H           26.350646        5.744259        6.701835
  H           25.037255        6.720686        5.998141
  H           25.635048        7.075926        7.638274
  H           27.923850        8.216381        7.761144
  H           28.735399        8.552885        6.218655
  H           28.637594        6.888159        6.827127
  H           27.378722        8.975832        4.580486
  C            9.508550       13.324016        8.859433
  N           10.496018       14.376139        8.828343
  C           10.009280       15.718209        8.997058
  C           11.793056       14.078555        8.649047
  O           12.243561       12.967271        8.503680
  H            8.987601       13.317693        9.819520
  H           10.026153       12.376864        8.719592
  H            8.777614       13.462772        8.059635
  H            9.295150       15.965755        8.206549
  H           10.838049       16.422439        8.956227
  H            9.504593       15.821048        9.961880
  H           12.430470       14.983005        8.647552
  C           26.734505       28.606876        4.532515
  N           25.820832       28.308162        3.455949
  C           26.402807       27.806619        2.240923
  C           24.501923       28.501431        3.617626
  O           23.972529       28.920004        4.619412
  H           27.280760       27.708872        4.829820
  H           26.149579       28.972847        5.374234
  H           27.450294       29.372315        4.224384
  H           27.109541       28.533048        1.829835
  H           25.623325       27.618256        1.505128
  H           26.940445       26.873911        2.433707
  H           23.928081       28.230052        2.711323
  C           21.173625        3.820095        1.993570
  N           22.340219        4.646391        2.191847
  C           23.615708        3.991792        2.086207
  C           22.202162        5.954961        2.459421
  O           21.151789        6.543436        2.556642
  H           21.183633        3.379012        0.994300
  H           20.294657        4.452404        2.103868
  H           21.142921        3.018736        2.735242
  H           23.695453        3.192592        2.828558
  H           24.416989        4.709057        2.253376
  H           23.736056        3.551935        1.092120
  H           23.179273        6.458393        2.586453
  C           28.966877        3.478016       10.892206
  N           28.685855        2.673325       12.056903
  C           29.132945        3.194327       13.319915
  C           28.038203        1.504110       11.928461
  O           27.646101        1.030639       10.888693
  H           28.489245        4.456465       10.979956
  H           28.571040        2.956058       10.023046
  H           30.043946        3.617729       10.775595
  H           30.218449        3.327758       13.313274
  H           28.867434        2.507011       14.120893
  H           28.667770        4.164324       13.517103
  H           27.894167        0.999738       12.902724
  C           29.137549       15.054275        8.157678
  N           29.196424       14.324918        6.913655
  C           28.940590       12.912142        6.985372
  C           29.478493       14.966668        5.768401
  O           29.699330       16.149612        5.663934
  H           28.144101       14.968689        8.603695
  H           29.351091       16.099420        7.941720
  H           29.877620       14.667892        8.862091
  H           29.668267       12.426914        7.642033
  H           29.011797       12.470311        5.993313
  H           27.939233       12.726935        7.384307
  H           29.489034       14.281267        4.899815
  C           12.779423       12.098428        5.353151
  N           12.352001       10.753416        5.655266
  C           11.137643       10.620972        6.413108
  C           13.076901        9.704733        5.233607
  O           14.100623        9.771367        4.595962
  H           12.019867       12.617029        4.763810
  H           13.703150       12.034066        4.781179
  H           12.957869       12.658174        6.274040
  H           11.237747       11.119087        7.381625
  H           10.915852        9.568556        6.579532
  H           10.302175       11.078050        5.875300
  H           12.628446        8.740209        5.538419
  C           22.471490       19.979827       16.271436
  N           21.842506       20.414210       15.047218
  C           20.468577       20.826177       15.142783
  C           22.536371       20.419637       13.897638
  O           23.689572       20.082375       13.773462
  H           22.468096       20.785484       17.009067
  H           23.498111       19.703255       16.038789
  H           21.945265       19.116844       16.685614
  H           19.849812       20.003368       15.511944
  H           20.102500       21.130588       14.164116
  H           20.371293       21.667690       15.834561
  H           21.926456       20.775842       13.045905
  C           28.598076       29.509329       10.147164
  N           28.345746       30.202819       11.387495
  C           27.840523       31.544458       11.281268
  C           28.582623       29.594128       12.560695
  O           29.005951       28.470778       12.694547
  H           27.677714       29.420109        9.565640
  H           28.972909       28.516919       10.390448
  H           29.342186       30.046002        9.554308
  H           28.547341       32.174593       10.733999
  H           27.689246       31.964721       12.273720
  H           26.887177       31.550317       10.745299
  H           28.343508       30.245622       13.422499
  C           27.308103        2.172562        1.602048
  N           26.588128        2.662476        2.752979
  C           26.088968        1.671693        3.667155
  C           26.413349        3.982333        2.927456
  O           26.815276        4.846655        2.185540
  H           28.188584        1.606852        1.914970
  H           27.618589        3.032868        1.012100
  H           26.667363        1.526699        0.997476
  H           25.396206        0.997345        3.155784
  H           25.566773        2.154876        4.490754
  H           26.913493        1.077292        4.070902
  H           25.845190        4.207845        3.849772
  C           16.416438       11.640372        5.338591
  N           16.793108       10.871925        6.500757
  C           15.726223       10.228957        7.218309
  C           18.083298       10.784853        6.862477
  O           19.008776       11.308088        6.289108
  H           15.924242       11.001644        4.601729
  H           17.323638       12.060517        4.908437
  H           15.736670       12.448143        5.618978
  H           15.009736       10.971821        7.580199
  H           16.127039        9.682193        8.069698
  H           15.196824        9.529066        6.565581
  H           18.219736       10.165099        7.768908
  C           13.346939        9.867598       11.317665
  N           12.035520       10.352849       11.675063
  C           11.668607       10.248971       13.061106
  C           11.227658       10.868088       10.734371
  O           11.495979       10.973750        9.561393
  H           14.118846       10.421034       11.857167
  H           13.475697       10.012973       10.246753
  H           13.439067        8.805602       11.556143
  H           11.689901        9.203834       13.382664
  H           10.665327       10.643235       13.210944
  H           12.367923       10.815086       13.682907
  H           10.258433       11.197702       11.154234
  C           11.058136       12.233928        2.700332
  N           12.455017       12.584870        2.607685
  C           13.330655       11.591032        2.049049
  C           12.877906       13.786778        3.031471
  O           12.177478       14.648894        3.506016
  H           10.651002       12.022908        1.708915
  H           10.530503       13.079023        3.138492
  H           10.926977       11.353171        3.332992
  H           13.299331       10.676712        2.648384
  H           14.352728       11.964454        2.029361
  H           13.024068       11.344717        1.028510
  H           13.968998       13.913918        2.898495
  C            1.991315       21.667054        9.689300
  N            2.726116       20.427000        9.762468
  C            4.075966       20.450870        9.268639
  C            2.145894       19.328381       10.271774
  O            1.016955       19.264972       10.696642
  H            2.492554       22.442755       10.272604
  H            0.997546       21.490139       10.096351
  H            1.907671       22.000588        8.652501
  H            4.089445       20.735371        8.212683
  H            4.528156       19.466551        9.374038
  H            4.672812       21.176396        9.828596
  H            2.827515       18.456800       10.263575
  C            3.140710       25.438279       11.558156
  N            4.569590       25.239144       11.599003
  C            5.368884       26.389714       11.921257
  C            5.089185       24.027615       11.343597
  O            4.455157       23.036722       11.069415
  H            2.774173       25.774294       12.530750
  H            2.678637       24.486251       11.303799
  H            2.880655       26.184064       10.803589
  H            5.206445       27.183310       11.186420
  H            6.423634       26.121450       11.922639
  H            5.100236       26.774598       12.909112
  H            6.193597       24.026505       11.411422
  C           15.687028       31.114348        9.952102
  N           15.310434       31.869697        8.781356
  C           16.094461       31.650347        7.596570
  C           14.275633       32.723767        8.833935
  O           13.592062       32.937548        9.806594
  H           15.609945       30.042537        9.755954
  H           15.007659       31.387071       10.757488
  H           16.713107       31.349100       10.244075
  H           17.142189       31.903567        7.781798
  H           15.720885       32.269601        6.783284
  H           16.041880       30.600385        7.294943
  H           14.104998       33.229869        7.864878
  C           19.492452       17.006186        2.224608
  N           18.883687       18.314411        2.255811
  C           19.777971       19.439350        2.219727
  C           17.547706       18.435265        2.315487
  O           16.761791       17.518556        2.347430
  H           20.073053       16.877092        1.308403
  H           18.694756       16.266486        2.257638
  H           20.151888       16.871404        3.084941
  H           20.456288       19.413378        3.077267
  H           19.209940       20.367258        2.247903
  H           20.377656       19.419049        1.305325
  H           17.226697       19.494024        2.333122
  C           17.483169        7.961013       14.197232
  N           16.311658        7.544299       14.929989
  C           15.377251        6.709552       14.225280
  C           16.137564        7.935841       16.202545
  O           16.896066        8.635284       16.830630
  H           18.063647        7.092032       13.879252
  H           18.086795        8.580351       14.858007
  H           17.196494        8.538617       13.315537
  H           14.997849        7.227235       13.339715
  H           14.539301        6.459762       14.873284
  H           15.862760        5.784394       13.901972
  H           15.198285        7.540903       16.633945
  C           10.290631       18.841479       11.597008
  N           11.662500       19.281670       11.511978
  C           12.652225       18.260501       11.301764
  C           11.960683       20.585766       11.627876
  O           11.161817       21.474350       11.804707
  H            9.991535       18.343389       10.671998
  H            9.667929       19.719935       11.755507
  H           10.163335       18.147774       12.431133
  H           12.629477       17.534933       12.119810
  H           13.643527       18.707227       11.254626
  H           12.458118       17.730043       10.365227
  H           13.047949       20.772534       11.542460
  C           15.855522       23.468460        1.664241
  N           17.293799       23.540965        1.568721
  C           18.015729       22.323309        1.819045
  C           17.891388       24.703061        1.259800
  O           17.323848       25.746937        1.042406
  H           15.460601       22.751349        0.941065
  H           15.456954       24.458416        1.450474
  H           15.554623       23.162258        2.668679
  H           17.809049       21.959756        2.829628
  H           19.085356       22.497738        1.719344
  H           17.715267       21.549912        1.106484
  H           18.993059       24.606750        1.222750
  C            4.557420        1.855772        1.966977
  N            5.741180        2.622309        2.273820
  C            6.974608        1.889510        2.364332
  C            5.655999        3.949562        2.458635
  O            4.642192        4.602843        2.391868
  H            4.663867        1.359955        0.999491
  H            3.714511        2.543467        1.933093
  H            4.382036        1.100073        2.735972
  H            6.908623        1.129553        3.148090
  H            7.793525        2.566965        2.598629
  H            7.189721        1.388762        1.416101
  H            6.640123        4.401383        2.685978
  C           25.144780        8.673437       12.723704
  N           26.573507        8.679386       12.927970
  C           27.158305        9.927848       13.335258
  C           27.286585        7.557624       12.737747
  O           26.835991        6.490123       12.396509
  H           24.626064        8.941266       13.646958
  H           24.855448        7.668644       12.421639
  H           24.868008        9.384213       11.941790
  H           26.968436       10.699595       12.583911
  H           28.233547        9.812587       13.457883
  H           26.727116       10.257793       14.284666
  H           28.364916        7.712990       12.931109
  C           12.256202       17.111476       14.714713
  N           12.812356       18.381246       15.116454
  C           13.866842       18.339916       16.092611
  C           12.343578       19.521436       14.584263
  O           11.461044       19.600808       13.763366
  H           13.028734       16.479795       14.270450
  H           11.477611       17.306233       13.979573
  H           11.825598       16.594031       15.574961
  H           13.512343       17.872287       17.015551
  H           14.205942       19.349445       16.316952
  H           14.712364       17.758346       15.714413
  H           12.863454       20.411859       14.985765
  C            1.892788       25.316108        3.860837
  N            3.175372       24.911494        3.337113
  C            4.316739       25.662936        3.783373
  C            3.259125       23.881769        2.479404
  O            2.327476       23.225095        2.079595
  H            1.880599       25.229695        4.949680
  H            1.136595       24.659421        3.434808
  H            1.676594       26.350479        3.584191
  H            4.209369       26.716186        3.508961
  H            5.222763       25.270303        3.325743
  H            4.412843       25.598300        4.870917
  H            4.301791       23.687430        2.164116
  C            4.917632       30.833171       12.689413
  N            3.577156       30.405044       13.010119
  C            3.367555       28.987930       13.130064
  C            2.602059       31.312348       13.180404
  O            2.734837       32.509445       13.088943
  H            5.617473       30.507843       13.462445
  H            4.915992       31.920115       12.633589
  H            5.231345       30.418228       11.728891
  H            3.616587       28.485991       12.190807
  H            2.326146       28.785065       13.372514
  H            4.001718       28.575376       13.919875
  H            1.631391       30.838845       13.421086
  C            6.938352       31.716234       15.831327
  N            6.689481       30.295761       15.773541
  C            7.839962       29.438539       15.863530
  C            5.434835       29.835756       15.642121
  O            4.442295       30.519616       15.563157
  H            7.416144       31.981896       16.777019
  H            5.980073       32.226033       15.751501
  H            7.586024       32.024123       15.007360
  H            8.533713       29.646120       15.043905
  H            7.532319       28.396012       15.809122
  H            8.364271       29.604004       16.808985
  H            5.398641       28.730257       15.612267
  C           15.000871       26.790188        2.663866
  N           14.541402       26.920912        4.025784
  C           13.280120       27.583678        4.216676
  C           15.280823       26.436210        5.036394
  O           16.343564       25.873934        4.920360
  H           14.285580       26.213196        2.073413
  H           15.958317       26.272999        2.683303
  H           15.126252       27.774515        2.207166
  H           13.323669       28.603880        3.824941
  H           13.037460       27.623511        5.276863
  H           12.485175       27.046600        3.691533
  H           14.804088       26.608646        6.019916
  C           25.094912        4.962710       16.307053
  N           24.805527        6.345523       16.011917
  C           23.533673        6.618515       15.400039
  C           25.702220        7.300175       16.307884
  O           26.779899        7.114652       16.820940
  H           24.354379        4.557265       17.000176
  H           26.082501        4.918679       16.762349
  H           25.087645        4.367326       15.391269
  H           23.451158        6.093402       14.444208
  H           23.426722        7.687360       15.225115
  H           22.719792        6.282847       16.048953
  H           25.344145        8.308373       16.025668
  C           20.990192       17.062371       10.692676
  N           20.743274       18.318200       10.025634
  C           21.764407       19.322393       10.149795
  C           19.607080       18.502537        9.334190
  O           18.725227       17.687275        9.204879
  H           21.896572       16.594368       10.301980
  H           20.136343       16.413259       10.507849
  H           21.105626       17.217420       11.767772
  H           21.920892       19.577365       11.201777
  H           21.470742       20.220411        9.609618
  H           22.709791       18.955923        9.739778
  H           19.556601       19.509726        8.878834
  C           11.942882       30.884113       10.450841
  N           11.550505       29.536871       10.788480
  C           10.232171       29.370886       11.337092
  C           12.399699       28.516526       10.586539
  O           13.513558       28.611768       10.129064
  H           11.268814       31.300968        9.699136
  H           12.954811       30.846481       10.051906
  H           11.923084       31.521134       11.337975
  H           10.130728       29.944307       12.262869
  H           10.048125       28.319928       11.551755
  H            9.478154       29.724712       10.628269
  H           11.963368       27.546369       10.891068
  C           30.041530       26.320320        6.676434
  N           30.341672       27.731806        6.701784
  C           29.298066       28.601419        7.172095
  C           31.544379       28.172821        6.299274
  O           32.447296       27.478051        5.897934
  H           29.805730       25.962105        7.681061
  H           30.920250       25.799398        6.300857
  H           29.191003       26.122652        6.020137
  H           28.409382       28.504037        6.542077
  H           29.636040       29.635638        7.146976
  H           29.022520       28.343903        8.198703
  H           31.629669       29.273481        6.374098
  C           24.921902       13.303413       16.202450
  N           23.904189       14.307610       16.399604
  C           22.540291       13.874474       16.262834
  C           24.251363       15.570796       16.694300
  O           25.382508       15.976039       16.818102
  H           24.807076       12.495794       16.928922
  H           25.891010       13.779971       16.337681
  H           24.856837       12.886679       15.194831
  H           22.366520       13.477086       15.258817
  H           21.865407       14.711341       16.432109
  H           22.316891       13.087212       16.988420
  H           23.368535       16.226497       16.816769
  C           12.315120       32.772948        2.207176
  N           12.835231       31.426982        2.177479
  C           14.243083       31.277424        2.426711
  C           12.016181       30.392919        1.926712
  O           10.830194       30.474157        1.712534
  H           12.478382       33.223693        3.188690
  H           11.247333       32.722249        2.002662
  H           12.803947       33.387901        1.448178
  H           14.821912       31.829708        1.680987
  H           14.519681       30.225897        2.379245
  H           14.497187       31.665927        3.416995
  H           12.553428       29.425651        1.935949
  C            1.678480       20.962494        3.258828
  N            1.504687       21.017535        4.690536
  C            1.705418       22.297898        5.312556
  C            1.172547       19.909619        5.372604
  O            0.994854       18.816537        4.890281
  H            0.972476       21.632189        2.762580
  H            1.494704       19.938250        2.939896
  H            2.695492       21.253372        2.986298
  H            2.722941       22.654388        5.128902
  H            1.548497       22.218450        6.386581
  H            1.004383       23.032223        4.905761
  H            1.074297       20.103467        6.457545
  C           10.907401        3.358267        7.852927
  N           10.963975        4.463019        6.925919
  C           11.967729        4.388684        5.899526
  C           10.107073        5.489672        7.047228
  O            9.250606        5.591550        7.892878
  H           10.701976        2.425437        7.322999
  H           10.106140        3.558623        8.561732
  H           11.854075        3.261071        8.389170
  H           12.964514        4.331993        6.346034
  H           11.916074        5.270702        5.264040
  H           11.815395        3.498519        5.282625
  H           10.268509        6.259729        6.269232
  C           13.045900       10.621489       16.020410
  N           14.086509       10.492844       15.028642
  C           14.971936       11.615311       14.878250
  C           14.191114        9.367909       14.302975
  O           13.469960        8.403495       14.397206
  H           13.479660       10.774720       17.011151
  H           12.465079        9.701061       16.015425
  H           12.394842       11.465927       15.783251
  H           14.408368       12.508701       14.594685
  H           15.710931       11.405569       14.107301
  H           15.490376       11.819281       15.819409
  H           15.032152        9.413105       13.585382
  C           10.567372        7.433164       11.924278
  N            9.540434        8.437402       11.783122
  C            9.182235        8.804577       10.440212
  C            8.971798        8.978221       12.872700
  O            9.242531        8.699026       14.016287
  H           10.256702        6.500055       11.448897
  H           10.725286        7.265132       12.987948
  H           11.498793        7.772560       11.465518
  H           10.052412        9.201475        9.909712
  H            8.403402        9.564569       10.457475
  H            8.813536        7.932261        9.893137
  H            8.204241        9.730857       12.610552
  C            6.568797       21.394872       11.977330
  N            7.112340       20.161249       12.492843
  C            7.169158       20.033413       13.923563
  C            7.533158       19.205153       11.649157
  O            7.503413       19.271708       10.443452
  H            5.538493       21.528483       12.314698
  H            6.592151       21.340962       10.890539
  H            7.165920       22.245294       12.314113
  H            7.789221       20.826118       14.351706
  H            7.594139       19.068765       14.194323
  H            6.166005       20.111163       14.352287
  H            7.923338       18.319737       12.185930
  C           24.354906       13.500876        1.951685
  N           23.568882       14.708063        2.040478
  C           24.287543       15.949812        1.950384
  C           22.237464       14.635720        2.198925
  O           21.595598       13.615610        2.279054
  H           24.878772       13.456033        0.994215
  H           23.676121       12.654245        2.035539
  H           25.088552       13.462740        2.760081
  H           25.024020       16.022069        2.755708
  H           23.596014       16.786482        2.029357
  H           24.814782       16.015376        0.994411
  H           21.770188       15.637373        2.250632
  C           23.207537       18.188558        4.101558
  N           23.962563       19.161060        3.348434
  C           23.259164       20.348863        2.947329
  C           25.253279       18.933570        3.056351
  O           25.881017       17.951458        3.373270
  H           22.840031       18.627739        5.031748
  H           23.870088       17.355534        4.328851
  H           22.356817       17.830253        3.517530
  H           22.405447       20.089733        2.314727
  H           23.924678       21.004866        2.389460
  H           22.887410       20.885153        3.825029
  H           25.700543       19.763193        2.476688
  C           26.663890       27.025875        7.959717
  N           25.329883       26.480776        7.880271
  C           24.567593       26.817982        6.709059
  C           24.859289       25.702941        8.868465
  O           25.464960       25.395658        9.867353
  H           27.268637       26.679146        7.118732
  H           27.108225       26.684961        8.892943
  H           26.631471       28.117661        7.947605
  H           24.443945       27.902144        6.635113
  H           23.584418       26.353901        6.758691
  H           25.079465       26.467351        5.808387
  H           23.826260       25.359375        8.670624
  C           17.007099       32.698729       12.198485
  N           18.224949       32.647399       11.425680
  C           19.404553       32.201531       12.115801
  C           18.217962       33.005280       10.131506
  O           17.251369       33.384815        9.514508
  H           16.754452       31.706523       12.579131
  H           16.211877       33.051316       11.544367
  H           17.118420       33.384714       13.041235
  H           19.623190       32.861350       12.960196
  H           20.255639       32.203726       11.437483
  H           19.260160       31.187502       12.499287
  H           19.219609       32.915094        9.670097
  C           30.091040        3.701899        7.772699
  N           30.585646        5.054894        7.684436
  C           30.258966        5.930103        8.777058
  C           31.310121        5.440054        6.621516
  O           31.606651        4.738471        5.684025
  H           30.489842        3.206874        8.661013
  H           30.417055        3.169031        6.881446
  H           28.999877        3.696885        7.823022
  H           29.173943        6.022829        8.878501
  H           30.682048        6.917464        8.602166
  H           30.660053        5.534083        9.714321
  H           31.619355        6.500145        6.691575
  C           15.945481       25.914084        8.928983
  N           16.695829       25.082413        8.018861
  C           15.952671       24.081137        7.303534
  C           18.018373       25.263855        7.874051
  O           18.679952       26.091328        8.454256
  H           15.171243       26.466198        8.391468
  H           16.639460       26.614785        9.389392
  H           15.474273       25.304244        9.703097
  H           15.475305       23.389582        8.003562
  H           16.618301       23.518739        6.651529
  H           15.173060       24.548532        6.695329
  H           18.457524       24.556130        7.145629
  C           13.760824       18.125009        3.763476
  N           14.009524       16.959408        4.577443
  C           15.158656       16.168166        4.231085
  C           13.188269       16.661219        5.597068
  O           12.214132       17.297489        5.921501
  H           14.606048       18.814933        3.816362
  H           12.866905       18.614078        4.145951
  H           13.602467       17.836513        2.721897
  H           15.068205       15.794357        3.207245
  H           15.245181       15.321137        4.908967
  H           16.069187       16.770248        4.298878
  H           13.502792       15.743442        6.129128
  C           20.006459       22.237039        7.421945
  N           21.079949       22.842400        6.670827
  C           21.706482       22.020962        5.671214
  C           21.446808       24.109670        6.920735
  O           20.948206       24.833168        7.749581
  H           19.196051       21.935754        6.754367
  H           19.638339       22.975631        8.131548
  H           20.366641       21.358686        7.962277
  H           22.139869       21.127809        6.130145
  H           22.496393       22.579297        5.172445
  H           20.972305       21.703384        4.925362
  H           22.279685       24.437099        6.270017
  C            9.864438        9.116477        1.849153
  N           10.503163        7.997133        2.498861
  C           11.299765        8.296750        3.657388
  C           10.338884        6.754455        2.017427
  O            9.679761        6.459407        1.049160
  H            9.183207        9.620152        2.538668
  H            9.304051        8.732816        0.998661
  H           10.611770        9.833192        1.501289
  H           12.110517        8.982067        3.394353
  H           11.729033        7.381526        4.060576
  H           10.685648        8.769579        4.429046
  H           10.885762        6.001386        2.615874
  C           12.617750       24.125185        3.876502
  N           11.434479       23.758582        4.617105
  C           11.588761       22.721857        5.600939
  C           10.267463       24.375966        4.372307
  O           10.094492       25.249881        3.556593
  H           13.393767       24.490126        4.553120
  H           12.343018       24.913577        3.178272
  H           13.003806       23.265630        3.323942
  H           11.934446       21.797971        5.128602
  H           10.636878       22.531163        6.092896
  H           12.323398       23.019300        6.354596
  H            9.451716       23.991909        5.013700
  C           11.076120       26.132855        6.141884
  N           11.700608       26.774874        7.273629
  C           12.563182       25.955666        8.080719
  C           11.464411       28.071973        7.528106
  O           10.748373       28.794835        6.877109
  H           11.833603       25.753937        5.452075
  H           10.460790       26.874312        5.635746
  H           10.449242       25.301654        6.472527
  H           12.006020       25.111114        8.496011
  H           12.974839       26.542817        8.899412
  H           13.386796       25.562228        7.478198
  H           12.009238       28.425523        8.423926
  C           16.178265        8.953433        2.155263
  N           17.605315        8.824512        2.328261
  C           18.361154       10.046954        2.357848
  C           18.162546        7.609093        2.451814
  O           17.565618        6.559169        2.432508
  H           15.745544        9.534184        2.972989
  H           15.750959        7.952448        2.153434
  H           15.951760        9.449378        1.208728
  H           18.229927       10.597752        1.422131
  H           19.418631        9.827387        2.492007
  H           18.024242       10.682337        3.181828
  H           19.260406        7.666200        2.577392
  C           32.166069       20.938096        6.930269
  N           31.507546       19.655298        6.868654
  C           32.358358       18.496570        6.868601
  C           30.167586       19.587029        6.815185
  O           29.417124       20.533517        6.813094
  H           32.756679       21.020417        7.845473
  H           31.397059       21.708245        6.922479
  H           32.824994       21.070665        6.069201
  H           33.032006       18.519652        6.007305
  H           31.755101       17.592044        6.819813
  H           32.963867       18.469538        7.778981
  H           29.806225       18.542109        6.771728
  C            5.889276       22.772812        5.689829
  N            6.908357       23.416548        6.483615
  C            7.172767       22.843821        7.775359
  C            7.554829       24.492652        6.007077
  O            7.364034       25.004779        4.929876
  H            6.161366       21.734191        5.488760
  H            5.805904       23.315962        4.750359
  H            4.929434       22.794043        6.210835
  H            6.269229       22.861919        8.391361
  H            7.954391       23.408645        8.279844
  H            7.497972       21.804809        7.671151
  H            8.305489       24.877258        6.723258
  C           20.583477       29.366822       10.216559
  N           19.162026       29.221194       10.013360
  C           18.617214       29.829890        8.830482
  C           18.419174       28.545265       10.904598
  O           18.835822       28.019649       11.909172
  H           21.135511       28.918456        9.387450
  H           20.841528       28.858039       11.143444
  H           20.852044       30.422922       10.292196
  H           18.801193       30.907968        8.838548
  H           17.543892       29.656070        8.783234
  H           19.083930       29.407394        7.936145
  H           17.350815       28.516275       10.618075
  C           25.928184       28.460687       11.083081
  N           25.335561       29.774874       11.151864
  C           25.225590       30.361560       12.459624
  C           24.920092       30.386760       10.031153
  O           24.993592       29.930580        8.915117
  H           26.949170       28.481588       11.470826
  H           25.941399       28.155270       10.038518
  H           25.341649       27.746504       11.665417
  H           24.611470       29.730947       13.108738
  H           24.766849       31.345915       12.388424
  H           26.214832       30.464127       12.914647
  H           24.488865       31.384548       10.238009
  C           21.140965       13.749739       10.897066
  N           20.967862       12.882036       12.037306
  C           20.497772       13.498973       13.247651
  C           21.241839       11.571495       11.935160
  O           21.637867       11.013794       10.939586
  H           20.191983       14.217960       10.626144
  H           21.497575       13.142498       10.067214
  H           21.871715       14.530691       11.119132
  H           21.196180       14.274283       13.575197
  H           20.405860       12.752535       14.034321
  H           19.520795       13.962362       13.083482
  H           21.062848       11.034303       12.885799
  C           22.268045       12.510027        6.239662
  N           21.713807       13.765899        5.793987
  C           20.585995       14.267190        6.531063
  C           22.250433       14.404216        4.741563
  O           23.195740       14.019046        4.095750
  H           22.617663       12.591744        7.271304
  H           23.105940       12.265974        5.589326
  H           21.517032       11.719012        6.180759
  H           19.758335       13.553342        6.491514
  H           20.255461       15.213570        6.107295
  H           20.856120       14.423814        7.579236
  H           21.723028       15.350541        4.516528
  C           14.505416        2.089995        6.763828
  N           15.672790        2.539088        7.483948
  C           15.799019        2.091869        8.844313
  C           16.572793        3.332843        6.881485
  O           16.505315        3.730885        5.743044
  H           14.488716        0.999317        6.706047
  H           14.552196        2.507306        5.759722
  H           13.595074        2.433344        7.260401
  H           14.943831        2.429792        9.436450
  H           16.711358        2.490490        9.283865
  H           15.835159        0.999477        8.883528
  H           17.411296        3.595386        7.554025
  C           25.953598       32.146505        4.517634
  N           24.730708       31.487070        4.126856
  C           24.660677       31.016343        2.770374
  C           23.731759       31.339210        5.011870
  O           23.749250       31.718921        6.158408
  H           26.803969       31.469629        4.408537
  H           25.854496       32.441785        5.560493
  H           26.123369       33.032297        3.901399
  H           24.777817       31.849998        2.072189
  H           23.698976       30.539356        2.591261
  H           25.456658       30.291375        2.578017
  H           22.860912       30.817186        4.572047
  C           25.831216       13.764079        9.842213
  N           25.822888       13.675294       11.282723
  C           27.036904       14.049174       11.955710
  C           24.719820       13.260692       11.926431
  O           23.681284       12.937863       11.400826
  H           26.026674       14.790645        9.524166
  H           24.852352       13.451655        9.483351
  H           26.599771       13.110215        9.423907
  H           27.863986       13.412207       11.629562
  H           26.913646       13.942937       13.031808
  H           27.292370       15.088288       11.729559
  H           24.860948       13.243353       13.023750
  C            5.299273        1.944665        9.769319
  N            5.536110        3.349959        9.997527
  C            5.930241        4.128127        8.854879
  C            5.386056        3.868136       11.227157
  O            5.057201        3.251356       12.212284
  H            4.496368        1.806096        9.041764
  H            5.011943        1.496608       10.718662
  H            6.204510        1.460735        9.395754
  H            6.862319        3.740395        8.434095
  H            6.079921        5.166230        9.145405
  H            5.158594        4.084860        8.081022
  H            5.600795        4.953357       11.249728
  C            4.203417       16.501963       14.401246
  N            4.755386       16.734337       13.088100
  C            6.163180       16.489315       12.931212
  C            3.964061       17.157342       12.089158
  O            2.779229       17.374947       12.177802
  H            4.343881       15.459381       14.695336
  H            3.139728       16.728859       14.360622
  H            4.686980       17.147124       15.138219
  H            6.738024       17.129777       13.606140
  H            6.465013       16.696881       11.906381
  H            6.395810       15.446401       13.164405
  H            4.523767       17.291541       11.144146
  C           25.574769        2.491608       11.985665
  N           24.722032        3.626704       12.245313
  C           23.587259        3.395314       13.096947
  C           25.005678        4.821477       11.702105
  O           25.946590        5.058722       10.982774
  H           25.994302        2.108059       12.918445
  H           26.380314        2.822320       11.332753
  H           25.010834        1.694682       11.495685
  H           22.933960        2.634039       12.661255
  H           23.021006        4.316456       13.220730
  H           23.914887        3.046346       14.080332
  H           24.266933        5.593915       11.988326
  C           28.703965       17.819452        9.660575
  N           28.690674       18.546874       10.907051
  C           27.439070       18.587496       11.613003
  C           29.808892       19.142023       11.352469
  O           30.878826       19.132504       10.791943
  H           28.438338       16.772973        9.826467
  H           29.710355       17.879233        9.250487
  H           27.994969       18.258296        8.954929
  H           26.668648       19.056199       10.994187
  H           27.548818       19.159652       12.532275
  H           27.110872       17.574718       11.863467
  H           29.647968       19.659911       12.316949
  C           19.053043       20.368431       11.903574
  N           18.035604       21.219526       12.472324
  C           16.692469       20.707218       12.464593
  C           18.364274       22.421197       12.973299
  O           19.477671       22.888842       12.999629
  H           19.107550       19.422757       12.447563
  H           20.005463       20.889287       11.982126
  H           18.834766       20.161990       10.853368
  H           16.366934       20.509515       11.439359
  H           16.015808       21.430447       12.915742
  H           16.639016       19.772195       13.029429
  H           17.484154       22.959346       13.373438
  C            1.605301        3.549951        6.829935
  N            2.028096        3.406376        5.457474
  C            2.831668        2.254551        5.150712
  C            1.669977        4.321370        4.542296
  O            0.997408        5.301454        4.757059
  H            1.000040        2.693166        7.134522
  H            1.011843        4.459407        6.902483
  H            2.472029        3.625307        7.490464
  H            3.753260        2.266266        5.739521
  H            3.089267        2.251535        4.093309
  H            2.285078        1.336538        5.384501
  H            2.065428        4.080653        3.537308
  C            4.083078       17.917911        4.122633
  N            4.270164       19.303592        4.480276
  C            4.135987       19.630423        5.873728
  C            4.553774       20.212136        3.533108
  O            4.675010       19.980668        2.353802
  H            4.816704       17.289616        4.632764
  H            4.214941       17.830880        3.045784
  H            3.079203       17.585282        4.396107
  H            3.135432       19.370199        6.230572
  H            4.297039       20.696365        6.023048
  H            4.868438       19.075295        6.466614
  H            4.669458       21.228876        3.954040
  C           30.101760       22.901375       12.109415
  N           30.075516       22.468546       13.486001
  C           31.088867       23.011748       14.348894
  C           29.138018       21.602281       13.902768
  O           28.270472       21.122718       13.212536
  H           29.975595       23.984626       12.047399
  H           29.282238       22.408826       11.589468
  H           31.049562       22.626789       11.640939
  H           32.083962       22.747867       13.979680
  H           30.970705       22.616784       15.356121
  H           31.012772       24.102190       14.385085
  H           29.242214       21.362829       14.978005
  C           18.992600       13.054452        1.721926
  N           18.305176       13.509093        2.906734
  C           19.130444       13.952235        3.997187
  C           16.963170       13.503976        2.951520
  O           16.233550       13.140755        2.060024
  H           19.605992       13.856441        1.305083
  H           18.240489       12.755347        0.994306
  H           19.634028       12.201890        1.956243
  H           19.784209       13.142189        4.332718
  H           18.506754       14.269693        4.830672
  H           19.756246       14.792458        3.683240
  H           16.578334       13.878241        3.919071
  C           14.903087       29.170915       12.660360
  N           15.026501       27.966458       13.445901
  C           14.101651       27.813573       14.535768
  C           15.968515       27.058308       13.144426
  O           16.763743       27.147298       12.239589
  H           13.913261       29.227883       12.201891
  H           15.663682       29.140889       11.882440
  H           15.055575       30.052589       13.286932
  H           14.212304       28.637356       15.246615
  H           14.288259       26.874430       15.053122
  H           13.072946       27.814785       14.164379
  H           15.943559       26.190428       13.830348
  C           30.616368       27.309803        1.623490
  N           31.149397       28.412822        2.386544
  C           31.686719       29.513453        1.633930
  C           31.127356       28.377380        3.728659
  O           30.686311       27.474343        4.398765
  H           29.793943       27.646994        0.988578
  H           30.251374       26.563587        2.326701
  H           31.393513       26.870026        0.994334
  H           32.510003       29.173888        0.999057
  H           32.057200       30.281190        2.310531
  H           30.914570       29.948843        0.993315
  H           31.568304       29.288486        4.175625
  C            3.435657       24.628931        7.537768
  N            4.107385       25.902676        7.634604
  C            3.386219       27.047085        7.148006
  C            5.341789       25.976005        8.157940
  O            5.981834       25.041448        8.577444
  H            2.506259       24.642920        8.111545
  H            4.101924       23.869164        7.942005
  H            3.206075       24.396730        6.495382
  H            3.147826       26.923550        6.087783
  H            3.987474       27.945817        7.271454
  H            2.449822       27.169100        7.699765
  H            5.728161       27.012806        8.167307
  C            8.164069       12.556828       13.716524
  N            8.469455       13.516272       12.682489
  C            9.839198       13.941785       12.586184
  C            7.498300       13.965526       11.871291
  O            6.337459       13.634886       11.917801
  H            8.735975       11.638418       13.566056
  H            7.099671       12.336113       13.662598
  H            8.403034       12.966886       14.700365
  H           10.158354       14.410303       13.521489
  H            9.949413       14.660697       11.776564
  H           10.490431       13.085270       12.390116
  H            7.879511       14.693637       11.130441
  C           25.144034       17.123842        9.413745
  N           24.547298       16.458347        8.280588
  C           24.938802       16.929822        6.980216
  C           23.675600       15.454743        8.470149
  O           23.320089       15.028456        9.542962
  H           26.230973       17.018117        9.389624
  H           24.752824       16.659474       10.317008
  H           24.890344       18.186301        9.409551
  H           24.681635       17.986670        6.865747
  H           24.428614       16.357496        6.207806
  H           26.018795       16.821508        6.845874
  H           23.302195       15.042533        7.513604
  C           32.403025       27.987845       12.669707
  N           32.184594       27.348504       13.945070
  C           31.590425       28.156819       14.974692
  C           32.531200       26.063565       14.123419
  O           33.031771       25.350112       13.287087
  H           31.455975       28.332231       12.248174
  H           32.853808       27.255502       12.002598
  H           33.073925       28.842637       12.781147
  H           32.221113       29.024461       15.188221
  H           31.474540       27.572836       15.885736
  H           30.607351       28.515375       14.656624
  H           32.305220       25.710585       15.147463
  C           18.233953        4.291446       12.513116
  N           17.557880        4.458363       11.248962
  C           16.151630        4.160711       11.229111
  C           18.240021        4.872018       10.168876
  O           19.419232        5.132363       10.142021
  H           17.795318        4.945726       13.269892
  H           19.280617        4.552412       12.368350
  H           18.158907        3.255825       12.852311
  H           15.979381        3.119496       11.516110
  H           15.751368        4.321501       10.229910
  H           15.616736        4.805025       11.932612
  H           17.592986        4.953685        9.275006
  C           22.669682       17.051653       14.457121
  N           23.914495       16.591323       13.890060
  C           23.816993       15.678635       12.783703
  C           25.083710       17.015334       14.396185
  O           25.210255       17.779920       15.322701
  H           22.080003       17.580474       13.704910
  H           22.906508       17.728223       15.276103
  H           22.087917       16.208383       14.836121
  H           23.281401       14.773477       13.083696
  H           24.812155       15.401797       12.440950
  H           23.273506       16.142020       11.955414
  H           25.949731       16.580201       13.862336
  C           32.013770        5.730830       11.854119
  N           32.387385        6.798623       10.957878
  C           32.314742        8.133983       11.485201
  C           32.777466        6.520710        9.703440
  O           32.852545        5.415709        9.221388
  H           32.663714        5.724338       12.732029
  H           32.119791        4.791076       11.315428
  H           30.978046        5.850684       12.179857
  H           31.292930        8.362964       11.800847
  H           32.617597        8.851268       10.724776
  H           32.974236        8.236942       12.351591
  H           33.032138        7.435398        9.135272
  C           27.803701       25.104922       13.903470
  N           28.673476       25.566566       12.848294
  C           28.172837       25.447869       11.505981
  C           29.880839       26.074675       13.143443
  O           30.339151       26.192191       14.254828
  H           26.867275       25.667317       13.899743
  H           28.317534       25.259230       14.850429
  H           27.580781       24.043050       13.777260
  H           27.960027       24.401173       11.270814
  H           28.909739       25.824862       10.799355
  H           27.248366       26.021237       11.392983
  H           30.433574       26.385847       12.236810
  C           28.652305        6.238773        2.224823
  N           28.596636        5.449213        3.431685
  C           29.712966        4.578447        3.680895
  C           27.540624        5.549424        4.254977
  O           26.583987        6.266743        4.083692
  H           29.525693        6.894686        2.237734
  H           27.746101        6.839711        2.177572
  H           28.707578        5.590951        1.347060
  H           29.821830        3.857227        2.865938
  H           29.561606        4.036856        4.612687
  H           30.637827        5.157590        3.754306
  H           27.636538        4.887199        5.136218
  C           12.764225       22.957123       13.951344
  N           13.739625       23.531678       13.056078
  C           13.285444       23.846984       11.729114
  C           14.996796       23.746103       13.476265
  O           15.419039       23.496367       14.580067
  H           11.926474       23.643351       14.094380
  H           13.254072       22.776229       14.906276
  H           12.386360       22.014140       13.549851
  H           12.924623       22.945117       11.226512
  H           14.101528       24.271688       11.147650
  H           12.465926       24.570112       11.769635
  H           15.629641       24.189451       12.684257
  C            7.942853       26.931993       13.527504
  N            7.411970       25.707832       14.077609
  C            6.709522       25.817378       15.327048
  C            7.584930       24.545683       13.427603
  O            8.167271       24.409553       12.378134
  H            7.138117       27.645985       13.338268
  H            8.441115       26.688092       12.591121
  H            8.660858       27.380774       14.217619
  H            7.369329       26.221755       16.099899
  H            6.356606       24.837413       15.642621
  H            5.850529       26.486282       15.222820
  H            7.125502       23.695684       13.966820
  C           29.786726       30.642328       16.177030
  N           28.362902       30.408047       16.206341
  C           27.522431       31.518079       15.848616
  C           27.884868       29.202585       16.554703
  O           28.554288       28.245142       16.861654
  H           30.106129       30.926980       15.171968
  H           30.282608       29.718482       16.468878
  H           30.057020       31.438435       16.874418
  H           27.693219       32.358435       16.527437
  H           26.475641       31.225878       15.906202
  H           27.742204       31.848303       14.829392
  H           26.779036       29.171782       16.532058
  C           12.714584        6.048259        9.054874
  N           13.562101        7.122377        8.595519
  C           14.844391        6.746229        8.065636
  C           13.140764        8.394854        8.674840
  O           12.073512        8.753785        9.112079
  H           12.491877        5.360773        8.235753
  H           11.789562        6.487810        9.423243
  H           13.202533        5.494816        9.860357
  H           15.429084        6.218125        8.824190
  H           15.392333        7.632991        7.752781
  H           14.720265        6.084428        7.203791
  H           13.893690        9.106763        8.286747
  C            9.280541       18.123645       16.117857
  N            8.432926       17.018610       15.739085
  C            9.020396       16.022634       14.885013
  C            7.166432       16.957834       16.181026
  O            6.634627       17.771299       16.898311
  H           10.156007       17.763793       16.663073
  H            8.699589       18.785313       16.757588
  H            9.613361       18.670328       15.232666
  H            9.348058       16.473992       13.944227
  H            8.292700       15.243242       14.667130
  H            9.889299       15.569806       15.370935
  H            6.639838       16.057979       15.810505
  C           11.347676       19.421958        2.071169
  N           10.850107       20.628240        2.687877
  C           11.019045       21.846314        1.943372
  C           10.265442       20.576480        3.895562
  O           10.103712       19.576586        4.553659
  H           10.843140       19.244024        1.118815
  H           11.148334       18.594280        2.749238
  H           12.422874       19.499053        1.894531
  H           12.080121       22.032280        1.754428
  H           10.608774       22.684541        2.503300
  H           10.504474       21.777908        0.980718
  H            9.935018       21.574627        4.240308
  C           17.300707       14.998531       11.359424
  N           16.320387       15.992083       10.992208
  C           16.567245       17.334518       11.443275
  C           15.246083       15.643299       10.266100
  O           15.000974       14.529673        9.867607
  H           18.279708       15.259002       10.950883
  H           16.977218       14.043639       10.949423
  H           17.378269       14.922283       12.446330
  H           16.617954       17.365303       12.535359
  H           15.767189       17.992331       11.109123
  H           17.517062       17.701147       11.043781
  H           14.584664       16.506489       10.061762
  C           21.572677       26.291636        9.590684
  N           22.216601       27.113945       10.586772
  C           21.951959       26.783367       11.960531
  C           23.014771       28.126574       10.211915
  O           23.263424       28.437802        9.071587
  H           21.883999       25.249946        9.696299
  H           21.867713       26.662461        8.610884
  H           20.486580       26.349735        9.691747
  H           20.881042       26.857482       12.169839
  H           22.487327       27.466336       12.617342
  H           22.274845       25.760538       12.174377
  H           23.436814       28.666428       11.080687
  C           12.744581       14.555272       11.584302
  N           13.956387       13.884847       11.990599
  C           14.713252       14.508466       13.041687
  C           14.325738       12.739627       11.394727
  O           13.720469       12.183053       10.509903
  H           12.051182       14.633024       12.424748
  H           12.289076       13.967736       10.789392
  H           12.968833       15.558484       11.214881
  H           15.023100       15.513649       12.742077
  H           15.600174       13.917615       13.262438
  H           14.107821       14.590584       13.948811
  H           15.271935       12.342363       11.808514
  C            5.853468       28.137626        4.614022
  N            6.888583       28.809877        5.362109
  C            6.803722       30.243336        5.429394
  C            7.864253       28.099859        5.951137
  O            7.972718       26.897247        5.919531
  H            4.873019       28.343110        5.049558
  H            6.053446       27.068562        4.654960
  H            5.856829       28.470625        3.573688
  H            6.844028       30.674081        4.424905
  H            7.631606       30.637956        6.015355
  H            5.862763       30.546893        5.896956
  H            8.583929       28.747494        6.486826
  C           18.012731       27.770580        6.006502
  N           16.885494       28.433111        5.395429
  C           17.032952       28.809486        4.015889
  C           15.773308       28.668829        6.109916
  O           15.608115       28.369918        7.268536
  H           18.238868       26.839684        5.481630
  H           17.750619       27.551685        7.039917
  H           18.894018       28.415489        5.981584
  H           17.874476       29.497965        3.897566
  H           16.126099       29.297988        3.664535
  H           17.221021       27.926236        3.398909
  H           14.996248       29.181611        5.511952
  C           15.026375        3.365399        1.641592
  N           13.959096        4.197542        2.143067
  C           12.955101        3.543966        2.937650
  C           13.938351        5.510266        1.861397
  O           14.759982        6.098067        1.199241
  H           15.573657        2.907028        2.468377
  H           15.699305        3.997627        1.065382
  H           14.626401        2.576996        1.000003
  H           12.463354        2.757972        2.357510
  H           12.206381        4.265763        3.258424
  H           13.408161        3.087150        3.822082
  H           13.064150        6.017944        2.311244
  C            1.715526       15.111564       11.793223
  N            2.635538       14.417722       12.662235
  C            2.061019       13.725518       13.783534
  C            3.953223       14.439895       12.404888
  O            4.476461       15.007825       11.476063
  H            1.000139       14.410723       11.357060
  H            2.295253       15.580854       11.000600
  H            1.169171       15.877045       12.348858
  H            1.523907       14.426703       14.428527
  H            2.844804       13.242567       14.363970
  H            1.355312       12.964177       13.439292
  H            4.532438       13.866790       13.153478
  C           25.749949       21.676971       12.759679
  N           25.545626       22.973135       13.360704
  C           25.089822       24.020516       12.487911
  C           25.779592       23.153522       14.670564
  O           26.162321       22.302723       15.437831
  H           24.816918       21.303173       12.331982
  H           26.091083       20.998204       13.539081
  H           26.503458       21.736381       11.971079
  H           25.810402       24.183867       11.681533
  H           24.971814       24.946326       13.047747
  H           24.128228       23.751776       12.041503
  H           25.580315       24.194384       14.988716
  C           20.457165       25.581162       14.440808
  N           19.729595       26.180734       15.533592
  C           18.546729       25.491301       15.971817
  C           20.165367       27.323823       16.087183
  O           21.151748       27.934228       15.750293
  H           20.797632       24.579541       14.712899
  H           21.317361       26.212695       14.226812
  H           19.824333       25.512259       13.553131
  H           17.827284       25.411890       15.151903
  H           18.084220       26.032365       16.795105
  H           18.798068       24.481585       16.308669
  H           19.509065       27.663153       16.910863
  C           24.099940        3.079894        6.448154
  N           24.181422        2.207434        7.594974
  C           22.945472        1.635510        8.055259
  C           25.367827        1.965895        8.175589
  O           26.427659        2.424766        7.821707
  H           23.698922        2.541354        5.586554
  H           25.105773        3.429593        6.223260
  H           23.455334        3.934922        6.664037
  H           22.243831        2.424928        8.339307
  H           23.128769        0.999549        8.919217
  H           22.486791        1.034968        7.264610
  H           25.275631        1.281395        9.040046
  C            7.504156       10.649413        7.533603
  N            7.124850       11.970624        7.973544
  C            6.756268       12.907476        6.947392
  C            7.128100       12.272536        9.281921
  O            7.430168       11.517133       10.174759
  H            6.679010       10.173591        6.998887
  H            7.752788       10.062855        8.416042
  H            8.372386       10.701720        6.872818
  H            7.588677       13.059199        6.254398
  H            6.491305       13.863743        7.394398
  H            5.899684       12.532434        6.380142
  H            6.815988       13.317678        9.467909
  C           21.715687        5.959191       10.828356
  N           22.323040        4.722615       10.398214
  C           23.342602        4.825137        9.389991
  C           21.930256        3.556023       10.934681
  O           21.079365        3.425471       11.782017
  H           22.468586        6.626502       11.253838
  H           20.971735        5.719370       11.585712
  H           21.232171        6.460037        9.986595
  H           22.935618        5.280598        8.482752
  H           23.725604        3.836015        9.146240
  H           24.168831        5.446633        9.746718
  H           22.482009        2.696419       10.509268
  C           12.949004       32.047620       13.907550
  N           11.663163       31.429475       14.125568
  C           11.648484       29.995123       14.220177
  C           10.559573       32.187296       14.229532
  O           10.527544       33.392547       14.156179
  H           13.630320       31.810964       14.727914
  H           12.797314       33.124284       13.859074
  H           13.386805       31.697510       12.970027
  H           12.033230       29.549421       13.298502
  H           10.631612       29.643437       14.383741
  H           12.276115       29.662584       15.051839
  H            9.651036       31.577708       14.394731
  C           23.444224       22.469871        8.230759
  N           24.455731       21.491492        8.551150
  C           24.633531       20.420235        7.609170
  C           25.173801       21.608676        9.679714
  O           25.056813       22.490912       10.496422
  H           23.675303       22.961539        7.283099
  H           23.429647       23.208280        9.030200
  H           22.463803       21.994335        8.154373
  H           23.704825       19.853289        7.498524
  H           25.417479       19.748381        7.953414
  H           24.913189       20.817993        6.629505
  H           25.908632       20.789021        9.791590
  C           16.507198       28.258761       16.342773
  N           16.786451       29.341963       15.430790
  C           17.920288       29.174167       14.563156
  C           16.005542       30.434260       15.421845
  O           15.045546       30.615319       16.132243
  H           16.307790       27.337214       15.791244
  H           15.629482       28.531652       16.925619
  H           17.354556       28.095580       17.012513
  H           18.833399       29.046119       15.151371
  H           18.032477       30.048101       13.924313
  H           17.789339       28.289715       13.933265
  H           16.339759       31.177803       14.673668
  C           10.859094       26.011768       16.242623
  N           12.028986       25.628078       15.489525
  C           13.095611       25.011931       16.230608
  C           12.082324       25.850984       14.166468
  O           11.210689       26.364622       13.506569
  H           10.406597       25.137776       16.716522
  H           10.148769       26.459238       15.549966
  H           11.123405       26.737608       17.014952
  H           13.459271       25.689736       17.008102
  H           13.919574       24.767286       15.562999
  H           12.744315       24.094045       16.710444
  H           13.036470       25.505804       13.725127
  C           27.624790       21.598476        7.951579
  N           28.941781       22.035721        8.348279
  C           29.305418       23.380487        7.993451
  C           29.757441       21.201640        9.013125
  O           29.492115       20.066731        9.330334
  H           26.859241       22.228985        8.409389
  H           27.499378       20.570963        8.287816
  H           27.518820       21.643209        6.865317
  H           29.270377       23.509911        6.908008
  H           30.313427       23.597524        8.341704
  H           28.612503       24.094168        8.448085
  H           30.730199       21.672811        9.249908
  C            1.770680       12.152386       10.692436
  N            2.391398       10.961101       10.164638
  C            3.245665       11.135194        9.021638
  C            2.159425        9.769243       10.737941
  O            1.450361        9.579052       11.697156
  H            2.530485       12.868600       11.013262
  H            1.161561       11.860678       11.545928
  H            1.138249       12.620903        9.934995
  H            2.682397       11.563800        8.187857
  H            3.655134       10.175062        8.713502
  H            4.071029       11.810858        9.263336
  H            2.700587        8.950244       10.227343
  C            7.203330       17.555193        6.329959
  N            7.823144       16.467816        5.611307
  C            9.217208       16.619756        5.295028
  C            7.103139       15.386205        5.272596
  O            5.932400       15.218562        5.518165
  H            7.697105       17.707229        7.292386
  H            6.159327       17.294540        6.493314
  H            7.263102       18.479063        5.750228
  H            9.371371       17.505563        4.672336
  H            9.574088       15.744038        4.756307
  H            9.804249       16.735728        6.210505
  H            7.709026       14.637798        4.727514
  C            2.553057        3.672186       12.393172
  N            2.500095        4.784153       11.474616
  C            2.019863        6.031433       12.003958
  C            2.887577        4.624113       10.198976
  O            3.296443        3.595971        9.714425
  H            3.217708        3.899427       13.229709
  H            2.933117        2.808992       11.850017
  H            1.556534        3.450053       12.781493
  H            0.999740        5.916656       12.381239
  H            2.024071        6.792165       11.225668
  H            2.656618        6.364864       12.828295
  H            2.792079        5.559287        9.615318
  C            9.852426        4.337342       15.909691
  N            8.424119        4.541662       15.874871
  C            7.604606        3.367772       16.004917
  C            7.923272        5.778743       15.727239
  O            8.574612        6.789759       15.614812
  H           10.150653        3.887596       16.859420
  H           10.330857        5.308810       15.800522
  H           10.164354        3.682352       15.093061
  H            7.817793        2.663775       15.195532
  H            6.552251        3.642383       15.964847
  H            7.804130        2.868489       16.957320
  H            6.816816        5.780686       15.718430
  C           21.280811       29.911902       13.767341
  N           22.540016       30.223228       14.400190
  C           22.865910       31.617374       14.529349
  C           23.339555       29.235205       14.833276
  O           23.104504       28.053701       14.744759
  H           20.452303       30.345225       14.332143
  H           21.178451       28.828604       13.743790
  H           21.258870       30.303457       12.747832
  H           22.910487       32.090185       13.544144
  H           23.831783       31.729948       15.018105
  H           22.106006       32.131842       15.124355
  H           24.266992       29.623560       15.295193
  C           32.124242       15.200444       13.215276
  N           31.345212       15.487744       12.034771
  C           31.980002       16.293147       11.027349
  C           30.095575       15.010286       11.918775
  O           29.525680       14.331453       12.739411
  H           33.033608       14.656726       12.949532
  H           31.513899       14.588281       13.876565
  H           32.400143       16.126218       13.725194
  H           32.255993       17.268330       11.438461
  H           31.302072       16.443269       10.189291
  H           32.887818       15.802638       10.664808
  H           29.623077       15.310410       10.964313
  C            8.426885        4.361007        5.213175
  N            7.961566        2.995928        5.268473
  C            6.541592        2.806348        5.387911
  C            8.839148        1.981389        5.208695
  O           10.037402        2.096192        5.108467
  H            7.998911        4.875502        4.349850
  H            9.511403        4.340112        5.124006
  H            8.145040        4.897479        6.121996
  H            6.170782        3.277588        6.302569
  H            6.309549        1.743532        5.420225
  H            6.025034        3.255669        4.535008
  H            8.339071        0.995797        5.262153
  C            4.553634        7.906483       11.672630
  N            4.956100        8.569099       10.455264
  C            5.383364        9.936021       10.579767
  C            4.919995        7.910772        9.285514
  O            4.568544        6.764730        9.136828
  H            5.381481        7.880645       12.384808
  H            4.260683        6.889783       11.417547
  H            3.708584        8.426843       12.129040
  H            4.577937       10.549925       10.992773
  H            5.661028       10.329406        9.603745
  H            6.246505       10.005137       11.247881
  H            5.255545        8.543556        8.442117
  C            7.430387        6.267584       12.399406
  N            8.468883        5.342866       12.012826
  C            9.193422        4.708759       13.080292
  C            8.716881        5.112064       10.713503
  O            8.133250        5.622302        9.787183
  H            6.669137        5.759255       12.995473
  H            6.978880        6.660720       11.490478
  H            7.849416        7.089352       12.984477
  H            9.689022        5.459807       13.701961
  H            9.946202        4.037390       12.671572
  H            8.511795        4.133154       13.712928
  H            9.536947        4.383183       10.570146
  C           19.971763       18.516147        5.799703
  N           20.092025       17.492596        6.810100
  C           21.381038       17.351868        7.430724
  C           19.032951       16.730600        7.127490
  O           17.934734       16.815464        6.631753
  H           20.190655       19.498722        6.223764
  H           18.948846       18.499336        5.428321
  H           20.662910       18.322716        4.976238
  H           22.139790       17.111138        6.680718
  H           21.352407       16.554822        8.171240
  H           21.668755       18.284103        7.925014
  H           19.273840       15.991764        7.915158
  C            1.600809       29.036474        9.770179
  N            2.944585       29.562286        9.798636
  C            3.075692       30.976582       10.020241
  C            3.993401       28.742371        9.623318
  O            3.927867       27.551070        9.434783
  H            1.098182       29.221723       10.722147
  H            1.666091       27.964221        9.595311
  H            1.025123       29.503378        8.967819
  H            2.561561       31.534095        9.232197
  H            4.127257       31.257075       10.021483
  H            2.634430       31.253166       10.981986
  H            4.956891       29.284418        9.670219
  C            2.911836       15.161819        4.013253
  N            2.864376       15.968474        2.817395
  C            3.880566       15.716140        1.832400
  C            1.905887       16.896881        2.667821
  O            1.035177       17.140651        3.468745
  H            2.808063       14.103357        3.764086
  H            2.087330       15.467633        4.654527
  H            3.858140       15.312112        4.537767
  H            4.873464       15.885510        2.258583
  H            3.745329       16.379194        0.980029
  H            3.826102       14.679881        1.486906
  H            1.995465       17.435171        1.705248
  C            5.933416        9.179894        2.257578
  N            6.843603        8.290418        2.938322
  C            7.185762        7.074323        2.252341
  C            7.325311        8.615559        4.148799
  O            7.064247        9.624745        4.759066
  H            6.356741        9.502375        1.303641
  H            5.773575       10.046266        2.896654
  H            4.979363        8.681232        2.072335
  H            6.287560        6.480590        2.060294
  H            7.873679        6.486790        2.857355
  H            7.661373        7.299612        1.293589
  H            8.008594        7.841059        4.545789
  C           21.802906        7.116172        6.849928
  N           22.144835        8.517961        6.816894
  C           22.698754        9.014542        5.586807
  C           21.941829        9.287271        7.898542
  O           21.479963        8.911188        8.949390
  H           21.052876        6.888182        6.089224
  H           21.400242        6.894468        7.836475
  H           22.688775        6.502842        6.670327
  H           23.623706        8.483492        5.344704
  H           22.916305       10.076929        5.678852
  H           21.992038        8.867833        4.765105
  H           22.250025       10.335925        7.726301
  C           30.567584       22.232662        4.332463
  N           30.541695       23.668888        4.192447
  C           29.248753       24.273869        4.022644
  C           31.686285       24.370261        4.224104
  O           32.791134       23.902667        4.364467
  H           29.993295       21.924167        5.208943
  H           31.605665       21.928028        4.451423
  H           30.145754       21.754978        3.445291
  H           28.762181       23.884918        3.123684
  H           29.352497       25.353110        3.928081
  H           28.610118       24.053667        4.882773
  H           31.511471       25.456325        4.104805
  C           17.235951       18.920475       15.104617
  N           16.564717       20.195547       15.186208
  C           17.295833       21.267131       15.805650
  C           15.321760       20.335766       14.697935
  O           14.673224       19.463537       14.171006
  H           18.155537       19.009789       14.521882
  H           16.561732       18.219533       14.616073
  H           17.482751       18.554392       16.103750
  H           17.551917       21.006464       16.836494
  H           16.694012       22.173913       15.810737
  H           18.222962       21.460679       15.258717
  H           14.936942       21.364685       14.830478
  C           10.715586       27.761973        1.679215
  N            9.931868       26.552342        1.754035
  C            8.580977       26.691112        2.225595
  C           10.470541       25.376432        1.393368
  O           11.598675       25.215813        0.992677
  H           10.249731       28.477075        0.997450
  H           11.703973       27.496382        1.308919
  H           10.806040       28.219900        2.666796
  H            8.572291       27.106655        3.237235
  H            8.090149       25.719845        2.239531
  H            8.017424       27.363166        1.572207
  H            9.754299       24.540217        1.503230
  C           20.881525       28.790715        4.818552
  N           20.888888       29.657629        5.972426
  C           21.961768       29.468463        6.910336
  C           19.926843       30.581354        6.128039
  O           19.009551       30.773190        5.365929
  H           21.794960       28.924601        4.234680
  H           20.018332       29.053316        4.209862
  H           20.807085       27.745449        5.126890
  H           21.941587       28.450931        7.310819
  H           21.864501       30.173170        7.733984
  H           22.926905       29.627032        6.420916
  H           20.061946       31.169786        7.055305
  C            3.063355       16.980585        7.619096
  N            3.233318       15.560112        7.809854
  C            2.042517       14.757236        7.747287
  C            4.455821       15.051053        8.032018
  O            5.480108       15.688437        8.092142
  H            2.635341       17.185078        6.635134
  H            4.044075       17.446613        7.693745
  H            2.403520       17.392470        8.386014
  H            1.331472       15.071266        8.516680
  H            2.291545       13.709486        7.904364
  H            1.562695       14.864414        6.770329
  H            4.431488       13.952135        8.158963
  C           15.367152       18.373588        6.694437
  N           15.774939       18.957512        7.949730
  C           14.723296       19.323149        8.859064
  C           17.078399       19.134649        8.219225
  O           17.991922       18.842197        7.485070
  H           14.807975       17.451106        6.866319
  H           16.266033       18.153346        6.121661
  H           14.739012       19.070740        6.135317
  H           14.060306       20.060069        8.396940
  H           15.147289       19.750433        9.765775
  H           14.129091       18.444624        9.126048
  H           17.238626       19.590699        9.214551
  C           12.508193       30.473371        6.081858
  N           11.538428       31.540527        6.020576
  C           10.190798       31.205065        6.391912
  C           11.912562       32.770229        5.632160
  O           13.031456       33.094123        5.312461
  H           12.583512       30.084011        7.099661
  H           13.470296       30.879266        5.774982
  H           12.223641       29.659986        5.410569
  H            9.800833       30.419453        5.738531
  H            9.552322       32.082404        6.307699
  H           10.159775       30.842381        7.423252
  H           11.065517       33.482155        5.633907
  C            8.743071       32.606828        8.974620
  N            8.673075       32.713455       10.412240
  C            7.399745       32.428614       11.015586
  C            9.761654       33.063182       11.116299
  O           10.848203       33.310481       10.650152
  H            8.499052       31.591252        8.654846
  H            9.759750       32.849805        8.671480
  H            8.045208       33.304178        8.505702
  H            6.637081       33.114129       10.635351
  H            7.466675       32.540425       12.096088
  H            7.089752       31.405634       10.784107
  H            9.558111       33.103884       12.203149
  C            9.046515       23.197537       10.551043
  N            9.462188       24.579616       10.560704
  C            9.132480       25.357016        9.397315
  C           10.120842       25.078323       11.619231
  O           10.417227       24.461396       12.614517
  H            7.960201       23.126265       10.461391
  H            9.364928       22.747147       11.489301
  H            9.507491       22.666117        9.715407
  H            9.592287       24.920954        8.505916
  H            9.493343       26.376809        9.516763
  H            8.049000       25.379909        9.249971
  H           10.374047       26.147081       11.485174
  C           25.275297       10.231321        7.459399
  N           25.405821       10.390374        8.887924
  C           26.516744        9.722181        9.509134
  C           24.516413       11.131667        9.567961
  O           23.570857       11.708632        9.086221
  H           26.160094       10.619309        6.949698
  H           24.397125       10.789732        7.140715
  H           25.151171        9.176911        7.202481
  H           26.453815        8.643340        9.340884
  H           26.513355        9.912349       10.580717
  H           27.460126       10.082006        9.088753
  H           24.742974       11.162920       10.650560
  C           30.070656       17.874338       14.544380
  N           28.860899       17.384525       15.160491
  C           28.511221       16.016713       14.889667
  C           28.125778       18.193750       15.940084
  O           28.382884       19.346546       16.193059
  H           30.931892       17.290662       14.877232
  H           30.198460       18.913728       14.840859
  H           29.997643       17.810837       13.456340
  H           28.372712       15.865321       13.815394
  H           27.586793       15.760260       15.403604
  H           29.304546       15.346495       15.232609
  H           27.230331       17.682718       16.341765
  C           32.031722       12.097252       15.134638
  N           31.104948       13.004718       15.767582
  C           29.717460       12.629961       15.736505
  C           31.552403       14.131190       16.345387
  O           32.706874       14.483152       16.393909
  H           31.992590       11.116228       15.613445
  H           33.031395       12.514488       15.240158
  H           31.792406       11.984987       14.074770
  H           29.372328       12.535330       14.703019
  H           29.116861       13.384614       16.240734
  H           29.571997       11.668818       16.237712
  H           30.730848       14.725746       16.787968
  C           26.075906       24.938720        3.866248
  N           25.706013       23.815427        4.693541
  C           24.937826       22.778004        4.060949
  C           26.078141       23.776205        5.983112
  O           26.722283       24.624482        6.552801
  H           26.687198       24.607411        3.023780
  H           26.647591       25.631449        4.480958
  H           25.184513       25.440254        3.482742
  H           23.995512       23.181527        3.679663
  H           24.718721       21.988136        4.776888
  H           25.494311       22.350841        3.221889
  H           25.724281       22.858455        6.489911
  C           17.353135       20.671502        5.211006
  N           16.954873       22.041375        4.992245
  C           15.543482       22.312355        5.025035
  C           17.882952       22.986602        4.772637
  O           19.076191       22.802351        4.737009
  H           17.022024       20.330106        6.194372
  H           18.439268       20.627445        5.156779
  H           16.922222       20.021861        4.445841
  H           15.027090       21.732510        4.254786
  H           15.363719       23.371146        4.848645
  H           15.126636       22.039956        5.998793
  H           17.431203       23.985432        4.622340
  C           19.190209        3.603138        5.599595
  N           20.474418        3.207011        5.073371
  C           21.422700        4.260674        4.834440
  C           20.733872        1.911856        4.831979
  O           19.967410        0.997010        5.018070
  H           19.310094        4.100432        6.564748
  H           18.589740        2.704113        5.725121
  H           18.688354        4.284498        4.908882
  H           21.020795        4.977312        4.112591
  H           22.348566        3.845721        4.440674
  H           21.640923        4.793721        5.764174
  H           21.754304        1.760096        4.431961
  C           12.111035       21.900643        8.632315
  N           11.581786       20.839660        7.809374
  C           10.286209       20.332502        8.171041
  C           12.291553       20.375911        6.768135
  O           13.381205       20.772855        6.430298
  H           11.449594       22.769576        8.606877
  H           13.087229       22.174206        8.236368
  H           12.216901       21.565009        9.666403
  H           10.305797       19.930081        9.187820
  H            9.991584       19.541024        7.484581
  H            9.540478       21.131533        8.131035
  H           11.761458       19.566309        6.231600
  C           21.543487       23.290094        2.407694
  N           22.060749       24.566667        2.838764
  C           23.066012       25.166561        2.004435
  C           21.602625       25.133961        3.966289
  O           20.760841       24.665181        4.694770
  H           21.078225       23.379414        1.423443
  H           20.799594       22.969256        3.134503
  H           22.346087       22.550977        2.355406
  H           23.937511       24.510243        1.927626
  H           23.379040       26.119859        2.425983
  H           22.672928       25.336533        0.998076
  H           22.089116       26.106823        4.169250
  C           31.946656       12.750561        5.099536
  N           31.519754       11.731949        4.170448
  C           30.439886       12.080360        3.287823
  C           32.123705       10.532720        4.160176
  O           33.032426       10.199435        4.882800
  H           32.294460       13.635734        4.562230
  H           32.762129       12.340411        5.692281
  H           31.123266       13.035651        5.758282
  H           29.547507       12.341625        3.863641
  H           30.205585       11.240220        2.636874
  H           30.715674       12.940155        2.670686
  H           31.691902        9.856595        3.398121
  C           16.576994       14.222331        7.396271
  N           16.676582       13.222108        8.431963
  C           18.000167       12.911883        8.899314
  C           15.568345       12.633369        8.909674
  O           14.439844       12.863998        8.545896
  H           16.984729       15.174083        7.744288
  H           15.523603       14.345004        7.151557
  H           17.124721       13.905641        6.505823
  H           18.616780       12.540647        8.075823
  H           17.951842       12.149598        9.674590
  H           18.477148       13.805808        9.311081
  H           15.798840       11.890460        9.696621
  C           18.674349       24.823760       11.206604
  N           18.773826       23.491513       10.660489
  C           17.535098       22.828671       10.355986
  C           19.978372       22.932681       10.461013
  O           21.041204       23.453364       10.702496
  H           18.163450       25.486823       10.504803
  H           19.684708       25.188221       11.382413
  H           18.121609       24.809846       12.148666
  H           16.925662       22.728534       11.258608
  H           17.732913       21.837333        9.952766
  H           16.967397       23.403762        9.618998
  H           19.898530       21.912936       10.039029
  C           29.497433       24.454351       26.064911
  N           29.180186       25.701952       25.412328
  C           27.868239       26.237364       25.654526
  C           30.088868       26.302288       24.626894
  O           31.199869       25.887650       24.397134
  H           29.432030       24.563607       27.149799
  H           30.513773       24.181764       25.786854
  H           28.807940       23.669957       25.744723
  H           27.102144       25.531501       25.321327
  H           27.743077       27.173916       25.114459
  H           27.724622       26.422837       26.722767
  H           29.706290       27.246912       24.196026
  C           10.398097        3.759973       30.965098
  N           11.797673        3.616395       30.643239
  C           12.623378        4.776811       30.838630
  C           12.267975        2.444236       30.187310
  O           11.610343        1.446849       30.009047
  H           10.273527        4.022082       32.018177
  H            9.911025        2.807081       30.766796
  H            9.942656        4.538568       30.349015
  H           12.266216        5.605837       30.221122
  H           13.652385        4.551597       30.564969
  H           12.596228        5.090685       31.885965
  H           13.354920        2.483496       29.983998
  C            6.214682       26.611800       26.997747
  N            6.058427       25.177358       26.966437
  C            5.097053       24.656812       26.032990
  C            6.790494       24.401318       27.781823
  O            7.607260       24.796763       28.579039
  H            6.538034       26.981936       26.022228
  H            6.969133       26.848653       27.745591
  H            5.271131       27.092811       27.265208
  H            4.101538       25.053385       26.251727
  H            5.065696       23.570870       26.097894
  H            5.365165       24.942799       25.011965
  H            6.563895       23.326736       27.646717
  C            2.345232       26.131177       23.969986
  N            2.830067       26.833581       22.806120
  C            1.919367       27.759486       22.189796
  C            4.073226       26.607896       22.351549
  O            4.868884       25.840398       22.838287
  H            2.081998       26.837903       24.760201
  H            3.140392       25.474747       24.318391
  H            1.464466       25.536446       23.717512
  H            1.014536       27.240664       21.860752
  H            2.390833       28.226761       21.327334
  H            1.630470       28.538751       22.900746
  H            4.304854       27.215337       21.456177
  C           26.103771        9.273859       22.112513
  N           25.775229       10.677174       22.188597
  C           24.385881       11.019369       22.050224
  C           26.743967       11.587166       22.379583
  O           27.920771       11.343170       22.500560
  H           25.595325        8.719300       22.904436
  H           27.181015        9.176696       22.233640
  H           25.806259        8.864096       21.144641
  H           24.006425       10.683681       21.080950
  H           24.259212       12.097799       22.123776
  H           23.796039       10.539259       22.836192
  H           26.344052       12.618201       22.416482
  C           13.482118       30.705464       26.689828
  N           12.552051       31.482389       27.473654
  C           12.563117       32.903836       27.259413
  C           11.734238       30.874129       28.347847
  O           11.692528       29.685420       28.558248
  H           13.282091       30.832678       25.623525
  H           13.354934       29.659385       26.962057
  H           14.508707       31.015224       26.898055
  H           13.550579       33.314967       27.487567
  H           11.825513       33.382504       27.900728
  H           12.327137       33.132890       26.216335
  H           11.079706       31.594124       28.874651
  C           25.869510       19.080564       32.612656
  N           26.496164       17.811930       32.328238
  C           27.895176       17.702980       32.640370
  C           25.777633       16.808380       31.799453
  O           24.602900       16.857571       31.522650
  H           25.940747       19.311176       33.677992
  H           24.822391       19.006992       32.325090
  H           26.349709       19.879652       32.043390
  H           28.469198       18.444036       32.076899
  H           28.256997       16.708791       32.385141
  H           28.061291       17.877032       33.707271
  H           26.388942       15.900562       31.636680
  C            5.056263       24.922629       29.820156
  N            5.404442       24.045713       30.912315
  C            6.601045       23.265302       30.752220
  C            4.626742       23.988491       32.005439
  O            3.615457       24.625508       32.180223
  H            5.850095       25.653265       29.649292
  H            4.136759       25.439685       30.087986
  H            4.899230       24.348101       28.904485
  H            6.518254       22.618237       29.874371
  H            6.761789       22.645849       31.632508
  H            7.466657       23.920026       30.617250
  H            5.017166       23.275604       32.756231
  C           26.694411        6.827510       32.836320
  N           25.509048        7.631082       33.015784
  C           24.248457        6.965687       32.829527
  C           25.617355        8.929660       33.339784
  O           26.654337        9.526580       33.505296
  H           26.704389        5.997944       33.546895
  H           27.558993        7.465624       33.009160
  H           26.733372        6.426110       31.821158
  H           24.176947        6.563965       31.814800
  H           23.430881        7.665993       32.989549
  H           24.148043        6.136907       33.536073
  H           24.628812        9.415760       33.443787
  C           12.752538        1.636911       34.365648
  N           14.137399        1.947970       34.104067
  C           14.417841        2.647223       32.879759
  C           15.087102        1.586961       34.981990
  O           14.895279        0.999732       36.019970
  H           12.159372        2.552535       34.420245
  H           12.702765        1.113269       35.318479
  H           12.348947        0.998798       33.576268
  H           14.084480        2.058190       32.020646
  H           15.487592        2.826363       32.790259
  H           13.895394        3.607906       32.862441
  H           16.097647        1.890985       34.649279
  C           29.785160        7.020972       36.341151
  N           31.127806        7.515138       36.151091
  C           32.071746        6.600617       35.568717
  C           31.441936        8.769849       36.511695
  O           30.681213        9.569097       37.003163
  H           29.345703        6.731919       35.383800
  H           29.195618        7.820395       36.786043
  H           29.787841        6.154810       37.006697
  H           32.175180        5.710532       36.195786
  H           33.044306        7.079839       35.474167
  H           31.734183        6.286149       34.577089
  H           32.503051        9.007593       36.307150
  C           23.490466       17.093139       36.170955
  N           23.958997       16.518266       34.932803
  C           25.382946       16.389455       34.783448
  C           23.080616       16.135222       33.992198
  O           21.879073       16.225452       34.076999
  H           23.810270       16.484291       37.019615
  H           22.403154       17.123783       36.133802
  H           23.880790       18.105988       36.293348
  H           25.862282       17.370341       34.848749
  H           25.617150       15.946578       33.817283
  H           25.791942       15.752842       35.573139
  H           23.583438       15.714231       33.100983
  C           32.098585        7.375296       25.900827
  N           31.409476        6.952661       27.096456
  C           32.106516        6.024786       27.944815
  C           30.181751        7.423122       27.369166
  O           29.561736        8.202003       26.685087
  H           33.035806        7.874624       26.156725
  H           31.449539        8.068891       25.369574
  H           32.316617        6.516404       25.262107
  H           32.331487        5.104786       27.397866
  H           31.493814        5.779259       28.810136
  H           33.048815        6.459494       28.290166
  H           29.780200        7.012732       28.315033
  C           15.994693       14.368924       32.188108
  N           15.542750       13.158205       32.830703
  C           16.535801       12.144497       33.060437
  C           14.253826       13.021639       33.181471
  O           13.388881       13.846602       33.007278
  H           16.763441       14.857152       32.791311
  H           15.137389       15.031435       32.084790
  H           16.405915       14.146483       31.200884
  H           16.977740       11.823627       32.112862
  H           16.082471       11.283118       33.547247
  H           17.334340       12.532460       33.699174
  H           14.055366       12.045109       33.662439
  C           23.812929       26.371138       35.333636
  N           24.459746       25.317602       36.078423
  C           23.654737       24.170313       36.398142
  C           25.748196       25.438137       36.436729
  O           26.459081       26.382791       36.189124
  H           23.459265       25.996112       34.370583
  H           24.543560       27.161227       35.170834
  H           22.963444       26.768472       35.893723
  H           22.792852       24.467175       37.002453
  H           24.244324       23.446244       36.957229
  H           23.287391       23.696817       35.483252
  H           26.106848       24.556275       37.000657
  C           17.894819       10.514480       21.710006
  N           19.289887       10.156041       21.618756
  C           20.239789       11.205723       21.868527
  C           19.644167        8.897213       21.314040
  O           18.880164        7.987078       21.097267
  H           17.658728       10.877281       22.712918
  H           17.307142        9.623454       21.497231
  H           17.652734       11.294057       20.984162
  H           20.101477       12.021624       21.153446
  H           21.253291       10.820997       21.772263
  H           20.107452       11.605925       22.877729
  H           20.742972        8.771547       21.279935
  C           27.612440       20.463014       29.550374
  N           26.287625       20.723109       29.040239
  C           26.156552       21.825873       28.127406
  C           25.255246       19.953607       29.421124
  O           25.321408       19.019522       30.184109
  H           28.298986       20.236022       28.731640
  H           27.549542       19.607889       30.220724
  H           27.987560       21.330315       30.098342
  H           26.471392       22.756555       28.607897
  H           25.120000       21.925876       27.811138
  H           26.782014       21.665092       27.244734
  H           24.305131       20.270553       28.950853
  C           21.135805       13.815361       31.108948
  N           20.413876       13.198852       30.021862
  C           19.135676       13.769730       29.695005
  C           20.940600       12.148064       29.372694
  O           22.008708       11.638462       29.614537
  H           21.343298       14.863810       30.883343
  H           22.073502       13.277162       31.233969
  H           20.555861       13.758905       32.032892
  H           18.464429       13.717490       30.556901
  H           18.686796       13.226645       28.865528
  H           19.249832       14.819536       29.410327
  H           20.276733       11.782434       28.566517
  C           27.724126       28.859120       32.932879
  N           29.112834       28.565078       33.193741
  C           29.380756       27.569390       34.195417
  C           30.077182       29.208444       32.516153
  O           29.896200       30.049781       31.668547
  H           27.202456       27.963362       32.588388
  H           27.684927       29.623684       32.159270
  H           27.235787       29.228801       33.837343
  H           28.962392       27.876504       35.158130
  H           30.454757       27.432212       34.305741
  H           28.929145       26.614342       33.912405
  H           31.088924       28.880526       32.821399
  C           26.985663       21.658151       23.460677
  N           28.036204       20.676298       23.584564
  C           28.233297       20.108705       24.890521
  C           28.770764       20.335831       22.513342
  O           28.638631       20.787204       21.400759
  H           26.021013       21.220838       23.727891
  H           26.960507       21.990450       22.424573
  H           27.181852       22.511561       24.113667
  H           28.480678       20.892372       25.612209
  H           29.046301       19.385697       24.863132
  H           27.322842       19.604991       25.227429
  H           29.535458       19.574712       22.758838
  C           12.198696        6.808031       27.322606
  N           13.541968        6.312612       27.140392
  C           14.483233        6.611091       28.185124
  C           13.859057        5.612886       26.039097
  O           13.100644        5.340445       25.139306
  H           11.757148        6.389227       28.229708
  H           11.611389        6.504627       26.457978
  H           12.200809        7.897688       27.399017
  H           14.585991        7.693166       28.306446
  H           15.456546        6.190074       27.940432
  H           14.143475        6.188608       29.134986
  H           14.920290        5.299664       26.037105
  C           15.874540       27.579421       21.719029
  N           16.905647       26.913352       22.478101
  C           18.017766       26.392714       21.730667
  C           16.797377       26.804781       23.812081
  O           15.882023       27.226946       24.477620
  H           16.287085       28.440513       21.188442
  H           15.109926       27.914061       22.417563
  H           15.431695       26.893743       20.993130
  H           17.672855       25.656200       20.999402
  H           18.727453       25.915273       22.403617
  H           18.526028       27.198969       21.194209
  H           17.659163       26.272035       24.256866
  C           25.565213        7.781005       35.869992
  N           24.511095        8.765019       35.810227
  C           23.175483        8.289934       36.048905
  C           24.801115       10.048538       35.542870
  O           25.906806       10.488956       35.336675
  H           25.601300        7.319894       36.859573
  H           26.506910        8.288783       35.670155
  H           25.403539        7.002452       35.121052
  H           22.905322        7.528757       35.311486
  H           22.469052        9.114849       35.978641
  H           23.102575        7.845378       37.045509
  H           23.896040       10.684927       35.529624
  C            4.836092        3.692576       25.750159
  N            3.485025        3.246513       25.507944
  C            3.334256        2.059809       24.710740
  C            2.447624        3.930259       26.017162
  O            2.529720        4.929684       26.690546
  H            5.403353        2.922772       26.278184
  H            4.785719        4.591659       26.361451
  H            5.338060        3.919455       24.806894
  H            3.773584        2.208865       23.720317
  H            2.278807        1.820599       24.595534
  H            3.838710        1.214763       25.187802
  H            1.476612        3.472008       25.749824
  C           12.758523       16.609578       36.063095
  N           13.884426       16.227378       35.244996
  C           14.778545       17.281771       34.850868
  C           14.055269       14.943660       34.890181
  O           13.329639       14.028672       35.198880
  H           13.101054       17.055273       36.999697
  H           12.181547       15.711736       36.276506
  H           12.130544       17.330866       35.535288
  H           14.241826       18.038825       34.272105
  H           15.584251       16.877776       34.240874
  H           15.209822       17.763944       35.732727
  H           14.957507       14.801809       34.265543
  C           14.422426       30.092695       30.021414
  N           14.942466       31.405004       29.720705
  C           16.364604       31.504870       29.536092
  C           14.110459       32.454689       29.626162
  O           12.912251       32.414781       29.773621
  H           14.652487       29.396234       29.211964
  H           13.343124       30.179137       30.131866
  H           14.855774       29.713895       30.949809
  H           16.888810       31.184297       30.440860
  H           16.639772       32.534517       29.315693
  H           16.686047       30.867457       28.707513
  H           14.649385       33.392205       29.391751
  C           30.834371       30.425425       35.205761
  N           31.648212       31.497381       34.684615
  C           32.331205       31.240650       33.446011
  C           31.738583       32.660187       35.349994
  O           31.182693       32.916914       36.391202
  H           30.045716       30.165258       34.496161
  H           30.387757       30.768519       36.137098
  H           31.445611       29.540669       35.397559
  H           33.007495       30.387989       33.554486
  H           32.910069       32.114225       33.152327
  H           31.611220       31.010961       32.655423
  H           32.395195       33.385031       34.832510
  C           19.855113       22.265663       33.938968
  N           19.253362       22.199096       35.249116
  C           19.326355       23.390594       36.050076
  C           18.664814       21.065770       35.664080
  O           18.581526       20.044471       35.024510
  H           19.375304       23.041030       33.337484
  H           19.719799       21.297531       33.460454
  H           20.921585       22.487773       34.019581
  H           20.369772       23.669198       36.222780
  H           18.842801       23.223381       37.010639
  H           18.827492       24.221022       35.542445
  H           18.249305       21.163101       36.684965
  C           13.683223       16.312633       29.630098
  N           13.025395       17.448501       30.230172
  C           11.823676       17.907047       29.588193
  C           13.538762       18.021171       31.330860
  O           14.543687       17.668397       31.900698
  H           13.017942       15.446297       29.622567
  H           14.567471       16.087746       30.223476
  H           13.979958       16.541514       28.604059
  H           12.033224       18.203536       28.556520
  H           11.418207       18.762499       30.125096
  H           11.073700       17.111151       29.572394
  H           12.929359       18.877695       31.676290
  C            4.856582       27.811965       30.931145
  N            3.500994       27.460442       31.280187
  C            3.206347       27.355234       32.683272
  C            2.589536       27.250084       30.316856
  O            2.794522       27.327870       29.129014
  H            5.117873       28.786713       31.349223
  H            4.921517       27.852003       29.845444
  H            5.555118       27.063415       31.311823
  H            3.834343       26.589354       33.147184
  H            2.161142       27.086967       32.824855
  H            3.398231       28.308193       33.184484
  H            1.597913       26.989454       30.732890
  C            8.531195       17.892590       30.238694
  N            7.775920       17.062258       29.331430
  C            6.705290       16.293588       29.905389
  C            8.086320       17.034899       28.025322
  O            8.975757       17.663489       27.503005
  H            7.879186       18.627591       30.716033
  H            9.297468       18.406113       29.661038
  H            9.003649       17.281988       31.011447
  H            7.092794       15.612985       30.668792
  H            6.210054       15.709898       29.131752
  H            5.971243       16.955109       30.374143
  H            7.424072       16.356283       27.455029
  C           32.184267       15.850514       27.378903
  N           32.478113       16.282316       28.724348
  C           32.360468       15.289279       29.757095
  C           32.839531       17.553735       28.960746
  O           32.950330       18.417971       28.124171
  H           32.862155       15.048245       27.078857
  H           32.316390       16.705245       26.718189
  H           31.155277       15.490532       27.309695
  H           31.339943       14.897647       29.793389
  H           32.604478       15.726659       30.723338
  H           33.042404       14.456505       29.563145
  H           33.032503       17.737995       30.034589
  C           32.323614       11.900315       30.700646
  N           31.233804       11.267578       31.404193
  C           30.058210       12.066748       31.618291
  C           31.348384        9.996631       31.822018
  O           32.315989        9.291229       31.663312
  H           32.005412       12.209037       29.702330
  H           33.131888       11.176179       30.617669
  H           32.673714       12.777758       31.249025
  H           30.305098       12.956786       32.203990
  H           29.308136       11.488873       32.154870
  H           29.638528       12.389536       30.661296
  H           30.437516        9.647201       32.344076
  C            8.925526       23.500600       24.052411
  N            8.452758       24.837968       23.786035
  C            8.647787       25.807269       24.829563
  C            7.866083       25.124622       22.612726
  O            7.682899       24.342027       21.711046
  H           10.002254       23.505916       24.236321
  H            8.708327       22.889961       23.178048
  H            8.418207       23.083132       24.925076
  H            8.132735       25.492703       25.741668
  H            8.254652       26.773214       24.518335
  H            9.712684       25.914390       25.054694
  H            7.556308       26.185087       22.551237
  C           11.070954        4.214544       36.274002
  N           12.273944        4.457620       35.514562
  C           12.192967        5.460448       34.487766
  C           13.391917        3.763541       35.781776
  O           13.502880        2.914331       36.633578
  H           10.755334        5.123826       36.790514
  H           11.289152        3.437747       37.004442
  H           10.264927        3.881780       35.616138
  H           11.432857        5.188485       33.749909
  H           13.153422        5.556579       33.985022
  H           11.921995        6.427316       34.921248
  H           14.230447        4.056383       35.121898
  C           19.150850        1.553928       23.244920
  N           18.749334        2.863032       22.788794
  C           19.801248        3.742970       22.357844
  C           17.451077        3.205801       22.781617
  O           16.537540        2.498651       23.134359
  H           19.663893        1.012414       22.446957
  H           18.252549        1.011669       23.534016
  H           19.819822        1.637723       24.104368
  H           20.505227        3.922767       23.175311
  H           19.382194        4.695119       22.038040
  H           20.349701        3.299072       21.522190
  H           17.295305        4.235514       22.407781
  C           28.343663        5.615253       29.814903
  N           27.133993        6.013774       29.136007
  C           27.286574        6.925726       28.035283
  C           25.945585        5.536741       29.539912
  O           25.773154        4.770641       30.457733
  H           29.022062        5.112071       29.122243
  H           28.066945        4.931415       30.615128
  H           28.849210        6.486655       30.237132
  H           27.750304        7.856446       28.374223
  H           26.313949        7.153687       27.603424
  H           27.922709        6.485417       27.262221
  H           25.111016        5.928198       28.927880
  C           29.480619        6.375889       23.666676
  N           29.041183        7.750611       23.659225
  C           29.672250        8.620853       22.704781
  C           28.089868        8.159125       24.514287
  O           27.534933        7.462542       25.330287
  H           29.297200        5.911242       22.695257
  H           28.916457        5.849784       24.434466
  H           30.547757        6.317477       23.892511
  H           30.750762        8.660936       22.881898
  H           29.263608        9.625897       22.790598
  H           29.503441        8.255749       21.687743
  H           27.856397        9.233936       24.393464
  C           20.591156       25.594219       33.508628
  N           20.565546       26.400149       32.311614
  C           20.127338       27.760834       32.463409
  C           20.938851       25.871928       31.134908
  O           21.312726       24.736188       30.963587
  H           21.268380       26.029087       34.247176
  H           20.940847       24.600768       33.234152
  H           19.591124       25.522938       33.942278
  H           19.106911       27.790019       32.855893
  H           20.149168       28.268311       31.500883
  H           20.779828       28.294855       33.160003
  H           20.867731       26.605019       30.309168
  C           25.888219       24.370856       33.287332
  N           25.129118       24.342493       32.060147
  C           23.790238       23.826128       32.145588
  C           25.678331       24.783955       30.917129
  O           26.797046       25.224575       30.801510
  H           25.389788       24.997815       34.030087
  H           26.870062       24.783147       33.062462
  H           25.999067       23.361922       33.691014
  H           23.803475       22.792795       32.503655
  H           23.317751       23.853289       31.165545
  H           23.195776       24.424456       32.841852
  H           24.980903       24.701429       30.062079
  C           28.515868       17.227272       21.938771
  N           27.930594       15.911005       22.027758
  C           26.496871       15.839710       21.951049
  C           28.716399       14.832093       22.174293
  O           29.922253       14.847429       22.242983
  H           28.259673       17.695297       20.985612
  H           29.596207       17.117314       22.011869
  H           28.156887       17.860503       22.753232
  H           26.043660       16.415330       22.763100
  H           26.171155       14.804182       22.028890
  H           26.146183       16.250553       21.000054
  H           28.130068       13.895245       22.227758
  C           25.958028       17.662894       25.170422
  N           25.154256       18.841176       24.949919
  C           24.526397       18.957868       23.662010
  C           25.022866       19.759264       25.920930
  O           25.531955       19.700322       27.014727
  H           25.349590       16.761356       25.069289
  H           26.361512       17.718741       26.179702
  H           26.778476       17.620283       24.450530
  H           25.281256       18.968122       22.870652
  H           23.950207       19.879760       23.611152
  H           23.856069       18.111416       23.487813
  H           24.380031       20.604305       25.609487
  C           24.832788       10.291805       30.733085
  N           26.153091        9.709002       30.720487
  C           27.253280       10.607525       30.941329
  C           26.306777        8.391742       30.510198
  O           25.411654        7.603101       30.320892
  H           24.629569       10.755801       31.700869
  H           24.114557        9.493995       30.553612
  H           24.742005       11.048359       29.950411
  H           27.270435       11.383956       30.171247
  H           28.193133       10.059647       30.910132
  H           27.158286       11.092154       31.917176
  H           27.371057        8.089555       30.528055
  C            2.329297       10.871558       28.057169
  N            3.482579       10.896708       27.189801
  C            4.105774        9.630978       26.913963
  C            3.921757       12.061069       26.685419
  O            3.428777       13.144417       26.891248
  H            1.538683       10.255257       27.623236
  H            1.974012       11.894213       28.169038
  H            2.596889       10.468301       29.036441
  H            4.449820        9.166326       27.842346
  H            4.959195        9.772526       26.253581
  H            3.394349        8.953835       26.432800
  H            4.810498       11.925543       26.040362
  C           29.077975        9.763932       34.741304
  N           29.923841       10.779264       35.321505
  C           31.154563       11.059298       34.633440
  C           29.547618       11.408373       36.446535
  O           28.524410       11.204085       37.055098
  H           28.778613       10.048575       33.730089
  H           28.194276        9.667498       35.369272
  H           29.603392        8.807149       34.700107
  H           31.773979       10.159446       34.580961
  H           31.706154       11.836451       35.159033
  H           30.951331       11.397658       33.613453
  H           30.293136       12.158280       36.772371
  C           30.098843       20.494200       32.517691
  N           31.429963       20.791043       32.045434
  C           32.037710       19.814275       31.183403
  C           32.037546       21.930553       32.413364
  O           31.563942       22.776195       33.134215
  H           29.409591       20.390907       31.676586
  H           29.778615       21.318667       33.151942
  H           30.096523       19.566739       33.094757
  H           32.118847       18.852074       31.696970
  H           33.033449       20.143214       30.892250
  H           31.433690       19.674111       30.282471
  H           33.049826       22.021610       31.975955
  C           16.111503       30.155731       23.834058
  N           17.096064       30.144171       22.778821
  C           16.928741       31.117659       21.734381
  C           18.102257       29.255407       22.805042
  O           18.279491       28.422461       23.661679
  H           16.110448       31.121425       24.344578
  H           16.371471       29.370186       24.541095
  H           15.114940       29.967347       23.428388
  H           15.965565       30.978093       21.235404
  H           17.724516       31.014957       20.999083
  H           16.958497       32.129184       22.149226
  H           18.776298       29.365130       21.934434
  C           22.798929       22.742402       28.622557
  N           21.564262       23.481486       28.733785
  C           20.396357       22.728225       29.101382
  C           21.546081       24.803364       28.498579
  O           22.502086       25.473191       28.188059
  H           23.051836       22.275799       29.577290
  H           23.582590       23.443086       28.340629
  H           22.711358       21.965505       27.859697
  H           20.201324       21.945006       28.363347
  H           19.530829       23.385907       29.154142
  H           20.540925       22.254498       30.076496
  H           20.533991       25.233348       28.621526
  C           19.853010        8.730914       29.540145
  N           20.481118        7.652348       30.264849
  C           19.987522        6.328396       30.000190
  C           21.472217        7.910610       31.133202
  O           21.916127        9.005482       31.384671
  H           19.978580        8.591761       28.464011
  H           20.330441        9.660111       29.845464
  H           18.786149        8.775166       29.770459
  H           18.923686        6.263239       30.245493
  H           20.532367        5.601483       30.599530
  H           20.113032        6.080312       28.942425
  H           21.855384        6.989706       31.612208
  C           12.557441       10.263505       24.218903
  N           13.720416        9.707610       24.868126
  C           13.842788        8.275410       24.849134
  C           14.620079       10.517556       25.449165
  O           14.555746       11.723125       25.487918
  H           12.544695        9.992227       23.160867
  H           12.606768       11.346352       24.316757
  H           11.643974        9.894977       24.691089
  H           12.984115        7.813923       25.344991
  H           14.752013        7.972814       25.365090
  H           13.882504        7.910924       23.818727
  H           15.455012        9.952126       25.904690
  C            6.136390       11.413756       34.534010
  N            7.006461       11.328999       33.385615
  C            7.022431       10.074492       32.683839
  C            7.747765       12.387766       33.021616
  O            7.764275       13.457704       33.581971
  H            5.098665       11.240361       34.240316
  H            6.234168       12.413396       34.953206
  H            6.421615       10.673081       35.284505
  H            7.342355        9.269484       33.351502
  H            7.709923       10.127925       31.841837
  H            6.022827        9.835298       32.310016
  H            8.363263       12.176094       32.126806
  C           26.514268       31.990177       30.287554
  N           26.969821       32.403961       28.982075
  C           26.127555       32.058946       27.869383
  C           28.125774       33.074788       28.852552
  O           28.861890       33.384198       29.758884
  H           25.545898       32.441662       30.514746
  H           27.250583       32.320683       31.017740
  H           26.418318       30.902952       30.331473
  H           26.007774       30.973714       27.805449
  H           26.569254       32.419786       26.942472
  H           25.137612       32.508443       27.988252
  H           28.345038       33.324807       27.797213
  C            9.397795       21.465719       29.475343
  N            9.881562       21.422929       28.116241
  C           10.770303       20.342624       27.785163
  C            9.499524       22.360904       27.234616
  O            8.756231       23.283317       27.470637
  H            8.838897       20.557098       29.710369
  H            8.743493       22.330387       29.569173
  H           10.231660       21.560647       30.174523
  H           11.665814       20.381457       28.411836
  H           11.068003       20.412549       26.740677
  H           10.276653       19.380507       27.948885
  H            9.948285       22.199919       26.236105
  C            5.330108       22.874842       23.521785
  N            4.688566       22.044400       24.512648
  C            5.423513       20.891615       24.957024
  C            3.467941       22.363669       24.972162
  O            2.817157       23.320758       24.626478
  H            6.272067       23.271036       23.907711
  H            4.656580       23.697729       23.289874
  H            5.531445       22.300448       22.614740
  H            5.635626       20.227869       24.114044
  H            4.844838       20.344749       25.699008
  H            6.374331       21.195948       25.403668
  H            3.104524       21.638465       25.724715
  C           10.018746       26.714163       28.011657
  N           11.218358       25.990376       27.665125
  C           11.064127       24.588533       27.386595
  C           12.399520       26.627096       27.615556
  O           12.573014       27.800883       27.841746
  H            9.294442       26.665651       27.195430
  H           10.295515       27.751211       28.191925
  H            9.566648       26.294422       28.913111
  H           10.653224       24.070803       28.257962
  H           12.028945       24.150062       27.138933
  H           10.381722       24.441074       26.544725
  H           13.226797       25.946947       27.337460
  C           24.288415       13.166761       24.637813
  N           23.061589       13.645209       24.047047
  C           21.869096       12.904031       24.355508
  C           23.072413       14.729798       23.255490
  O           24.049718       15.380255       22.971205
  H           24.218926       13.182989       25.727815
  H           25.092876       13.824570       24.314246
  H           24.496968       12.145741       24.310372
  H           21.968502       11.867550       24.020857
  H           21.012140       13.354148       23.858027
  H           21.691183       12.902116       25.434632
  H           22.062876       14.977447       22.876239
  C           24.919563       15.728635       28.094836
  N           23.484018       15.870847       28.050021
  C           22.977912       17.188387       27.777118
  C           22.693989       14.805087       28.257436
  O           23.077047       13.683234       28.489275
  H           25.361002       16.008486       27.135664
  H           25.144647       14.685533       28.308940
  H           25.341619       16.362004       28.878359
  H           23.316362       17.891814       28.543151
  H           21.889709       17.174397       27.767851
  H           23.335696       17.539208       26.804966
  H           21.620377       15.064908       28.192788
  C           29.357229       16.424777       29.281085
  N           28.556677       17.333949       28.496519
  C           29.079492       17.701860       27.208948
  C           27.389423       17.791531       28.977299
  O           26.914546       17.508411       30.051250
  H           29.492815       15.479913       28.750007
  H           28.834336       16.244063       30.218364
  H           30.337595       16.860103       29.487408
  H           30.051656       18.190693       27.318970
  H           28.395277       18.386496       26.711363
  H           29.209062       16.814073       26.583481
  H           26.888189       18.477217       28.268126
  C           31.932291       19.398258       25.018812
  N           31.713608       20.812515       25.206094
  C           31.717231       21.288298       26.562614
  C           31.520395       21.611428       24.144293
  O           31.509714       21.253564       22.990665
  H           32.905978       19.106316       25.418684
  H           31.901566       19.194891       23.950045
  H           31.153752       18.821527       25.523247
  H           30.932183       20.793207       27.141189
  H           31.543705       22.362558       26.580571
  H           32.679876       21.077256       27.036894
  H           31.366622       22.666356       24.440617
  C           16.816225       19.785451       30.437479
  N           16.108544       19.778802       31.695320
  C           16.859828       19.374042       32.852157
  C           14.815725       20.138384       31.743617
  O           14.148676       20.484311       30.797880
  H           17.663536       20.473539       30.479837
  H           16.121128       20.110613       29.665679
  H           17.183244       18.784240       30.200688
  H           17.235380       18.354871       32.724033
  H           16.227205       19.407674       33.737100
  H           17.714428       20.039800       33.002457
  H           14.407646       20.084684       32.770708
  C            4.431674       16.083421       23.653268
  N            5.294974       15.677504       24.736303
  C            6.655653       15.368076       24.390850
  C            4.816587       15.604241       25.988817
  O            3.682842       15.854795       26.321806
  H            4.815894       16.988557       23.177560
  H            3.445523       16.281027       24.069229
  H            4.360589       15.291379       22.904394
  H            6.687317       14.546416       23.669714
  H            7.208563       15.076358       25.281725
  H            7.141441       16.239204       23.942173
  H            5.590135       15.280526       26.710731
  C            8.706091        9.474126       24.406089
  N            8.504639       10.822371       24.880087
  C            7.297418       11.068526       25.620732
  C            9.419366       11.771221       24.623240
  O           10.444819       11.607451       24.006261
  H            8.741347        8.775746       25.245266
  H            9.652807        9.447313       23.869828
  H            7.896642        9.180926       23.733763
  H            6.421537       10.842094       25.006137
  H            7.253894       12.112574       25.924930
  H            7.264058       10.437961       26.513727
  H            9.131128       12.751793       25.047180
  C           25.450008       26.504669       28.028236
  N           25.688564       25.394087       27.137888
  C           24.770373       25.241176       26.042408
  C           26.724573       24.567495       27.353399
  O           27.518097       24.659760       28.259403
  H           25.500795       27.449382       27.482220
  H           26.219883       26.486603       28.797347
  H           24.465881       26.416030       28.493889
  H           23.752269       25.100892       26.416506
  H           25.047526       24.376379       25.442593
  H           24.784506       26.131571       25.407458
  H           26.781619       23.765811       26.592889
  C           16.457118        3.407992       27.718404
  N           16.459382        2.493128       26.602143
  C           17.610104        1.641256       26.472973
  C           15.422646        2.467451       25.749187
  O           14.438607        3.164267       25.820952
  H           16.510718        2.859544       28.661551
  H           15.530579        3.977776       27.680493
  H           17.308340        4.089608       27.655034
  H           18.516889        2.241992       26.358856
  H           17.501317        0.998616       25.601397
  H           17.721329        1.015113       27.362771
  H           15.563579        1.719150       24.946373
  C            5.351070       20.454637       33.092247
  N            4.803748       19.132227       32.905999
  C            3.398687       19.054800       32.612159
  C            5.596642       18.053512       33.009467
  O            6.779299       18.073878       33.254307
  H            5.217279       21.053858       32.188793
  H            6.413149       20.348836       33.305229
  H            4.858902       20.957245       33.927921
  H            2.815582       19.499582       33.423529
  H            3.100272       18.014996       32.492900
  H            3.173034       19.595947       31.688901
  H            5.040544       17.111588       32.842547
  C           17.881704       11.391170       36.096969
  N           17.575755       12.801466       36.075007
  C           16.182832       13.156293       36.094876
  C           18.567344       13.706118       36.037995
  O           19.747989       13.451561       36.020240
  H           17.484533       10.928479       37.003262
  H           18.964701       11.284720       36.078175
  H           17.450232       10.893355       35.225644
  H           15.670483       12.733693       35.225927
  H           16.074399       14.239038       36.075576
  H           15.704698       12.768724       36.998945
  H           18.182929       14.743606       36.024913
  C           16.889768        4.505606       30.540025
  N           17.635701        3.273159       30.627656
  C           19.067836        3.391299       30.667192
  C           16.990873        2.096054       30.668081
  O           15.791948        1.952286       30.637306
  H           17.097801        5.140004       31.404581
  H           15.831139        4.253729       30.519327
  H           17.154386        5.048042       29.629566
  H           19.433243        3.889191       29.764560
  H           19.520933        2.403946       30.732792
  H           19.376802        3.980915       31.534981
  H           17.690307        1.241252       30.734664
  C           20.380022        9.479495       34.342211
  N           20.090942        8.381210       35.232841
  C           19.319863        8.691947       36.405620
  C           20.535874        7.146786       34.947802
  O           21.185292        6.842959       33.975701
  H           19.453894        9.918285       33.964130
  H           20.964310        9.089556       33.510874
  H           20.952712       10.251340       34.861324
  H           19.840916        9.433647       37.017625
  H           19.165030        7.792331       36.998229
  H           18.345978        9.101455       36.122750
  H           20.238651        6.409914       35.717871
  C           18.230438       30.704326       36.232005
  N           18.706430       31.464832       35.101481
  C           19.077325       32.830034       35.356804
  C           18.785070       30.893079       33.889075
  O           18.484376       29.751902       33.631520
  H           18.999450       30.648856       37.005787
  H           17.992238       29.701459       35.882598
  H           17.335148       31.166886       36.653536
  H           18.221890       33.390098       35.745037
  H           19.418633       33.301104       34.436984
  H           19.881884       32.873405       36.096377
  H           19.165643       31.594685       33.122759
  C           22.637647        2.008779       30.539366
  N           23.794056        2.647628       31.120409
  C           25.063888        2.018670       30.878606
  C           23.652258        3.770241       31.843352
  O           22.606369        4.330287       32.070293
  H           22.730589        1.967350       29.451781
  H           21.761939        2.596600       30.808008
  H           22.528507        0.992803       30.925469
  H           25.064711        0.999230       31.274722
  H           25.857647        2.585028       31.361982
  H           25.266267        1.971256       29.804847
  H           24.621502        4.144591       32.223818
  C           30.125074       27.242476       28.461069
  N           30.623116       26.975919       29.789196
  C           29.658613       27.008110       30.854668
  C           31.926311       26.715341       29.981015
  O           32.768440       26.678570       29.115853
  H           29.369576       26.504736       28.181501
  H           30.965246       27.182651       27.771796
  H           29.682562       28.239978       28.412398
  H           29.188732       27.994033       30.912396
  H           30.145707       26.793923       31.804052
  H           28.876556       26.263281       30.682094
  H           32.160737       26.531267       31.046608
  C           22.240131       12.487054       34.307639
  N           23.210540       13.047146       35.217377
  C           24.545249       13.212700       34.709758
  C           22.848629       13.384184       36.465752
  O           21.740809       13.262018       36.931419
  H           22.131082       13.123461       33.426566
  H           21.288518       12.424936       34.832176
  H           22.547665       11.488599       33.988724
  H           24.957514       12.247424       34.402442
  H           25.185476       13.640341       35.478978
  H           24.542006       13.878054       33.841738
  H           23.694564       13.799201       37.045823
  C           23.457787       28.871856       26.121780
  N           23.043843       29.851885       25.146478
  C           22.925738       31.207715       25.609414
  C           22.790911       29.479264       23.881491
  O           22.877563       28.353714       23.451765
  H           24.443821       29.122132       26.519643
  H           23.500275       27.904455       25.624894
  H           22.742676       28.828250       26.946347
  H           22.190080       31.271190       26.416224
  H           22.609279       31.853531       24.792566
  H           23.886823       31.564308       25.990624
  H           22.484702       30.334541       23.249775
  C           31.787543       28.625825       24.383919
  N           31.102494       29.832456       23.986717
  C           29.699865       29.708396       23.697284
  C           31.773570       30.992481       23.902976
  O           32.949372       31.140416       24.136731
  H           31.345219       28.218285       25.295761
  H           32.830149       28.879187       24.566529
  H           31.726933       27.874567       23.593266
  H           29.541839       29.000898       22.878358
  H           29.292146       30.675874       23.410546
  H           29.161116       29.343726       24.576449
  H           31.120643       31.828361       23.587827
  C            8.137451       16.203002       35.274536
  N            6.733574       16.512312       35.402895
  C            6.407627       17.784567       35.987409
  C            5.808428       15.632563       34.986771
  O            6.038508       14.555232       34.491335
  H            8.634639       16.941257       34.641307
  H            8.221457       15.217623       34.820072
  H            8.617885       16.195343       36.255515
  H            6.814593       17.853008       37.000256
  H            5.327189       17.907258       36.032888
  H            6.831306       18.596989       35.390223
  H            4.778962       16.004737       35.148064
  C           17.570831        9.768348       24.710746
  N           16.605384        9.258765       23.766681
  C           16.737456        7.875840       23.397076
  C           15.647613       10.064458       23.280320
  O           15.501190       11.229492       23.563680
  H           17.512289        9.216890       25.651841
  H           17.341685       10.817396       24.888387
  H           18.582403        9.678107       24.308536
  H           17.714597        7.696233       22.939800
  H           15.960206        7.605183       22.684971
  H           16.647252        7.236212       24.279631
  H           14.982784        9.537653       22.569823
  C            8.898149       30.670205       29.797655
  N            8.896526       31.504620       28.620043
  C            8.322397       32.814792       28.762723
  C            9.413353       31.046737       27.468416
  O            9.904302       29.955184       27.305564
  H            9.468568       31.143478       30.600044
  H            9.360365       29.721061       29.532987
  H            7.876720       30.495662       30.143218
  H            7.274771       32.739585       29.067664
  H            8.376284       33.349682       27.816438
  H            8.862501       33.385722       29.523309
  H            9.342690       31.793800       26.655256
  C           26.017157        9.857615       27.732816
  N           24.878830       10.191326       26.910703
  C           23.798534       10.882225       27.560435
  C           24.865246        9.857535       25.610160
  O           25.749667        9.278235       25.025994
  H           26.467848       10.762667       28.146280
  H           26.742506        9.343582       27.104959
  H           25.716123        9.203570       28.554277
  H           23.398818       10.277785       28.379609
  H           23.000881       11.080107       26.846951
  H           24.148601       11.832847       27.972667
  H           23.931703       10.176522       25.109090
  C           11.262296        8.893090       36.305813
  N            9.853376        9.177979       36.435442
  C            9.446267       10.532483       36.178320
  C            8.997112        8.202779       36.780128
  O            9.296430        7.054260       37.004520
  H           11.602173        9.102765       35.289095
  H           11.411031        7.838359       36.529390
  H           11.840515        9.500300       37.005922
  H            9.946498       11.217352       36.868891
  H            8.369635       10.627931       36.305683
  H            9.708774       10.820844       35.156506
  H            7.954264        8.567691       36.840408
  C           11.773271       10.748322       33.361979
  N           12.426011        9.463612       33.281552
  C           13.852730        9.456597       33.457499
  C           11.705130        8.354085       33.052876
  O           10.507607        8.315541       32.899614
  H           11.939912       11.200449       34.342289
  H           10.707154       10.590603       33.210041
  H           12.156958       11.420360       32.591042
  H           14.332918       10.075401       32.694173
  H           14.232547        8.439882       33.376901
  H           14.116430        9.856060       34.440889
  H           12.338190        7.447273       33.017464
  C           32.085866       17.285558       36.005261
  N           32.415562       16.094233       35.260232
  C           32.349046       14.850033       35.977222
  C           32.761967       16.182567       33.965932
  O           32.830285       17.205324       33.326918
  H           31.061688       17.229630       36.380929
  H           32.181364       18.136180       35.333035
  H           32.767716       17.408585       36.849737
  H           33.038922       14.862956       36.825790
  H           32.616528       14.026161       35.318318
  H           31.337308       14.684467       36.358195
  H           32.986410       15.191804       33.527364
  C            2.080101       10.958512       24.282937
  N            2.685046       12.267606       24.340693
  C            1.822252       13.357629       24.706709
  C            3.989286       12.420731       24.060470
  O            4.748138       11.533913       23.749448
  H            1.673491       10.682529       25.258486
  H            2.851949       10.247044       23.995483
  H            1.274848       10.942341       23.545034
  H            0.999921       13.448246       23.991360
  H            2.384232       14.289580       24.717276
  H            1.397533       13.189103       25.700378
  H            4.311414       13.475875       24.145518
  C           10.910298       24.161268       31.299402
  N           10.954099       25.563539       31.638132
  C           10.365205       25.938865       32.894661
  C           11.523709       26.442719       30.798131
  O           12.028859       26.170353       29.735268
  H           11.441966       23.570729       32.048928
  H           11.390182       24.037287       30.330431
  H            9.876043       23.814511       31.242211
  H            9.305854       25.667640       32.914080
  H           10.456484       27.013285       33.042162
  H           10.867726       25.424487       33.718708
  H           11.483290       27.477030       31.189147
  C            3.426516       32.487342       29.553313
  N            4.601984       31.757346       29.963677
  C            4.868392       30.527219       29.269165
  C            5.382484       32.233670       30.947012
  O            5.195403       33.260385       31.555201
  H            3.499233       32.766939       28.499874
  H            3.361421       33.385295       30.164876
  H            2.530105       31.880273       29.698602
  H            4.034447       29.831005       29.395605
  H            5.773670       30.067330       29.660879
  H            5.001066       30.715380       28.199979
  H            6.243668       31.569934       31.152301
  C           32.027539       31.988506       30.234775
  N           31.607615       30.885812       29.403661
  C           30.581987       31.165786       28.436070
  C           32.168667       29.675327       29.555183
  O           33.031242       29.397655       30.353869
  H           32.430471       32.797285       29.621002
  H           32.800212       31.622784       30.908414
  H           31.185627       32.369995       30.816879
  H           29.674131       31.516424       28.935085
  H           30.348000       30.265636       27.870874
  H           30.915757       31.942608       27.742305
  H           31.748352       28.931621       28.851930
  C            1.881874       32.328452       32.976531
  N            2.720740       31.223967       32.577235
  C            3.948781       31.054984       33.305173
  C            2.340860       30.417181       31.573343
  O            1.319703       30.523404       30.936953
  H            1.579562       32.220193       34.020601
  H            0.999446       32.324105       32.339453
  H            2.414283       33.274761       32.857216
  H            4.574757       31.946406       33.206756
  H            4.495086       30.196557       32.919012
  H            3.742193       30.894569       34.367130
  H            3.081116       29.617850       31.379908
  C           22.220483       19.421111       34.008422
  N           22.739349       20.286263       35.040561
  C           22.046599       20.269619       36.300065
  C           23.815332       21.052732       34.800148
  O           24.425774       21.096964       33.758782
  H           22.249481       18.378762       34.333788
  H           22.844426       19.544532       33.125231
  H           21.189313       19.689585       33.767996
  H           21.004032       20.571005       36.164477
  H           22.524071       20.956349       36.996405
  H           22.061458       19.263572       36.728802
  H           24.097348       21.660812       35.680507
  C            2.430166        5.968594       29.724204
  N            1.819328        7.149311       29.162239
  C            1.637668        7.161022       27.736268
  C            1.452752        8.164275       29.961290
  O            1.586934        8.195198       31.161322
  H            1.823969        5.085822       29.508719
  H            2.498803        6.109306       30.801263
  H            3.430340        5.822349       29.310128
  H            2.601832        7.062745       27.229421
  H            1.171389        8.094930       27.428265
  H            0.999619        6.328123       27.427501
  H            1.000001        8.998321       29.392334
  C           22.536191       30.752544       32.545772
  N           23.809166       31.429525       32.610989
  C           23.778086       32.821575       32.968428
  C           24.942886       30.760992       32.344990
  O           25.013602       29.593958       32.041562
  H           22.036668       30.784509       33.516674
  H           22.723100       29.717432       32.266175
  H           21.891850       31.222273       31.799197
  H           23.184530       33.386809       32.244296
  H           24.789167       33.223920       32.985728
  H           23.328972       32.950175       33.957329
  H           25.836809       31.406948       32.434261
  C            8.158030       21.864312       34.267801
  N            9.161007       21.410219       33.334604
  C            8.750059       20.410340       32.387030
  C           10.403106       21.918351       33.379389
  O           10.789332       22.757721       34.157415
  H            7.314332       22.308811       33.735082
  H            8.616562       22.611901       34.912335
  H            7.795931       21.031169       34.874392
  H            8.408228       19.511162       32.907409
  H            9.583827       20.146820       31.739069
  H            7.927874       20.785501       31.771050
  H           11.060633       21.477060       32.606572
  C           15.605313        5.916336       33.833046
  N           16.924655        6.501435       33.829253
  C           17.003096        7.909249       34.109319
  C           17.999790        5.738866       33.573154
  O           17.978451        4.555164       33.333503
  H           15.137182        6.036689       34.812620
  H           15.709907        4.856843       33.606992
  H           14.975111        6.390894       33.077509
  H           16.430978        8.476433       33.369623
  H           18.040373        8.237316       34.079403
  H           16.592628        8.123141       35.100243
  H           18.939673        6.321937       33.604390
  C           12.009652       15.413129       32.023286
  N           11.767901       14.075665       31.537729
  C           10.440683       13.555609       31.723649
  C           12.755940       13.383415       30.948169
  O           13.882619       13.781803       30.772332
  H           11.352970       16.126416       31.520111
  H           13.047891       15.661921       31.811793
  H           11.833019       15.466098       33.099943
  H           10.188362       13.529132       32.787509
  H           10.376774       12.546419       31.321259
  H            9.709557       14.187744       31.211765
  H           12.424753       12.377280       30.628272
  C           24.389663       27.247451       31.194504
  N           24.725799       28.161635       30.129468
  C           23.624251       28.761999       29.427553
  C           26.012072       28.413744       29.837996
  O           26.965791       27.931998       30.401359
  H           23.806756       27.756923       31.965123
  H           25.319628       26.880152       31.624415
  H           23.808933       26.407213       30.807273
  H           23.003194       27.990419       28.963746
  H           23.996297       29.428269       28.651581
  H           23.001024       29.336635       30.118601
  H           26.115729       29.131111       29.001954
  C            9.715144       19.405278       35.864097
  N           11.017183       19.210244       35.272764
  C           12.147903       19.615188       36.062716
  C           11.127446       18.675322       34.046096
  O           10.205578       18.322245       33.350011
  H            9.629098       18.837776       36.793470
  H            8.970000       19.054322       35.152650
  H            9.547308       20.463393       36.077217
  H           12.089007       20.683096       36.291337
  H           13.070358       19.421822       35.518516
  H           12.170582       19.061686       37.005736
  H           12.182542       18.586819       33.724746
  C           22.454886       30.930191       35.916049
  N           22.250706       29.611658       35.365777
  C           21.089156       28.898472       35.822615
  C           23.121839       29.110179       34.475462
  O           24.108138       29.674391       34.065688
  H           21.610557       31.579680       35.674248
  H           23.364468       31.336943       35.478122
  H           22.563415       30.878120       37.001731
  H           21.131058       28.758301       36.906479
  H           21.039081       27.922833       35.342942
  H           20.180668       29.458049       35.582430
  H           22.837207       28.094008       34.142734
  C           18.754104       17.230994       34.798076
  N           19.690574       16.145666       34.965738
  C           19.766735       15.192267       33.892537
  C           20.435212       16.063573       36.080092
  O           20.402546       16.841306       37.003727
  H           19.006761       17.819956       33.913495
  H           18.811848       17.860877       35.683784
  H           17.737993       16.845084       34.689504
  H           18.794351       14.716365       33.737130
  H           20.501027       14.424392       34.128441
  H           20.059835       15.688717       32.963131
  H           21.104821       15.182770       36.068376
  C           16.639171       22.965570       33.631959
  N           16.189367       23.608004       32.420359
  C           15.522089       22.771677       31.460240
  C           16.401003       24.920916       32.234654
  O           16.956077       25.658433       33.013755
  H           15.793330       22.533947       34.171819
  H           17.119417       23.720868       34.251196
  H           17.354703       22.173220       33.400892
  H           16.184418       21.965035       31.133417
  H           15.230000       23.360801       30.593013
  H           14.627087       22.324828       31.902352
  H           16.003009       25.272686       31.263991
  C           27.337813       19.861491       36.185280
  N           27.432024       21.094036       35.440311
  C           27.160944       22.304887       36.166181
  C           27.758543       21.071607       34.138046
  O           27.993641       20.078800       33.491439
  H           28.050055       19.860644       37.013474
  H           27.568131       19.042971       35.505910
  H           26.329104       19.732713       36.584177
  H           26.145009       22.286197       36.570770
  H           27.261603       23.164607       35.506472
  H           27.861508       22.413794       36.998957
  H           27.792156       22.087399       33.700595
  C           22.514755        5.272679       21.726332
  N           22.570166        6.647301       22.162639
  C           21.512772        7.088014       23.031099
  C           23.572752        7.443445       21.757683
  O           24.478975        7.114200       21.030087
  H           22.553403        4.597957       22.584500
  H           23.373459        5.092518       21.082332
  H           21.594118        5.085945       21.168881
  H           20.543725        6.978574       22.535987
  H           21.658264        8.134255       23.293166
  H           21.500530        6.491847       23.947941
  H           23.483791        8.466176       22.170520
  C           18.956799        6.355877       26.022720
  N           18.832307        7.697727       26.539403
  C           17.788200        7.920361       27.502110
  C           19.666644        8.662254       26.119186
  O           20.555266        8.518379       25.313775
  H           19.163712        5.652666       26.832581
  H           19.781925        6.347195       25.313031
  H           18.036558        6.054596       25.517168
  H           16.813053        7.684436       27.066687
  H           17.789947        8.961605       27.818771
  H           17.937292        7.283544       28.378694
  H           19.452427        9.635469       26.600115
  C           28.350345       15.468390       36.147324
  N           28.264033       14.170252       35.522497
  C           29.082881       13.962186       34.359429
  C           27.449928       13.230543       36.029638
  O           26.746640       13.363476       37.002650
  H           29.371753       15.664049       36.481447
  H           27.679846       15.470896       37.004640
  H           28.050116       16.250267       35.446093
  H           28.821034       14.679934       33.576844
  H           28.935842       12.954158       33.976382
  H           30.139250       14.095235       34.609522
  H           27.488212       12.289918       35.448186
  C            7.377784       27.788413       33.951725
  N            7.292532       26.740531       32.962939
  C            6.740562       25.487742       33.401550
  C            7.716725       26.961207       31.708198
  O            8.185826       27.996283       31.298807
  H            6.384410       28.034801       34.333428
  H            7.811515       28.664195       33.472716
  H            8.011150       27.476220       34.785139
  H            7.341230       25.071852       34.215429
  H            6.726090       24.778291       32.576362
  H            5.718700       25.628990       33.764887
  H            7.589772       26.070559       31.064028
  C           16.677307        8.895489       30.806477
  N           17.291915       10.194029       30.668383
  C           16.539262       11.187273       29.951787
  C           18.505130       10.425345       31.195276
  O           19.170123        9.620928       31.803333
  H           15.730566        8.976623       31.345265
  H           17.361672        8.260628       31.366086
  H           16.490484        8.455213       29.824413
  H           16.339665       10.849613       28.930850
  H           17.098309       12.120169       29.911291
  H           15.581714       11.369671       30.447769
  H           18.847409       11.461328       31.011124
  C           14.222611       22.835766       23.875187
  N           15.465553       23.202888       23.240099
  C           15.893974       22.378033       22.143468
  C           16.158418       24.266315       23.678360
  O           15.835120       24.984475       24.594200
  H           13.401241       22.871825       23.155989
  H           14.035604       23.546815       24.677686
  H           14.288630       21.826866       24.288657
  H           16.030775       21.345015       22.475622
  H           16.837116       22.748030       21.745909
  H           15.145681       22.387272       21.345886
  H           17.086802       24.425327       23.097717
  C           21.928313        2.148973       36.263828
  N           22.651086        3.375221       36.502439
  C           21.912573        4.597641       36.338675
  C           23.945485        3.336880       36.857508
  O           24.602135        2.333961       37.005833
  H           21.083680        2.063781       36.951238
  H           22.615044        1.320333       36.426073
  H           21.555411        2.119193       35.237547
  H           21.532394        4.678023       35.316341
  H           22.555919        5.451264       36.543374
  H           21.061883        4.622751       37.025597
  H           24.365753        4.349634       37.005943
  C            5.727181        4.236748       29.300820
  N            6.676397        5.322527       29.356428
  C            6.151494        6.616985       29.696112
  C            7.974662        5.097154       29.098110
  O            8.456480        4.027756       28.809534
  H            5.245179        4.101009       30.271616
  H            6.270661        3.332223       29.034302
  H            4.960859        4.437803       28.548808
  H            5.398633        6.925623       28.965284
  H            6.953639        7.352445       29.707508
  H            5.682218        6.589698       30.683634
  H            8.580480        6.019573       29.178454
  C           15.820679       26.220518       27.137105
  N           17.115891       26.023367       26.531648
  C           17.956706       27.184265       26.422676
  C           17.481906       24.804238       26.104129
  O           16.807732       23.804581       26.176330
  H           15.929420       26.588406       28.159861
  H           15.308166       25.260425       27.147883
  H           15.235605       26.940825       26.560874
  H           17.466849       27.953045       25.818372
  H           18.901613       26.916579       25.953675
  H           18.158867       27.601536       27.413222
  H           18.497084       24.805778       25.663973
  C           29.627611        4.227700       26.812417
  N           29.646169        3.148416       27.770447
  C           30.940611        2.671559       28.174872
  C           28.493857        2.641419       28.237504
  O           27.387470        3.011814       27.924849
  H           30.139234        5.104653       27.215394
  H           28.587389        4.474531       26.608509
  H           30.119736        3.924020       25.885710
  H           31.497080        2.301798       27.308971
  H           30.830918        1.862676       28.894693
  H           31.516526        3.479379       28.635213
  H           28.663683        1.822580       28.962066
  C           12.110904       28.349743       23.386731
  N           11.858043       26.934625       23.515279
  C           12.854171       26.165259       24.209784
  C           10.739259       26.399969       23.000033
  O            9.878586       27.008879       22.410535
  H           12.191255       28.814209       24.372129
  H           11.276437       28.789461       22.843704
  H           13.037888       28.523351       22.835591
  H           13.818617       26.243523       23.699996
  H           12.558201       25.118532       24.244846
  H           12.974173       26.533631       25.232558
  H           10.681562       25.308886       23.174777
  C           18.876099       30.299332       28.144660
  N           18.517164       29.913501       29.488283
  C           19.310031       30.471571       30.549627
  C           17.489722       29.074637       29.697285
  O           16.799203       28.583987       28.836190
  H           18.791092       31.381500       28.022677
  H           18.191855       29.800783       27.460682
  H           19.901539       29.996216       27.921527
  H           20.358268       30.181851       30.433755
  H           18.949591       30.112397       31.511679
  H           19.250693       31.563551       30.534640
  H           17.332610       28.870128       30.773305
  C           19.377370       32.388219       25.647228
  N           19.782050       31.455938       24.622481
  C           19.839752       30.070561       25.001865
  C           20.081458       31.896703       23.389966
  O           20.046142       33.049179       23.029980
  H           18.372893       32.150402       26.004529
  H           19.382354       33.385491       25.211350
  H           20.071472       32.354096       26.489994
  H           20.551059       29.929977       25.820671
  H           20.154679       29.465397       24.153889
  H           18.856875       29.726813       25.336463
  H           20.373820       31.071520       22.713264
  C           10.839541       27.735175       35.970386
  N           11.134366       26.349061       35.696919
  C           10.046250       25.420873       35.841840
  C           12.372635       25.982956       35.328582
  O           13.313434       26.728700       35.195163
  H           10.063410       28.100928       35.294339
  H           11.753433       28.306502       35.818886
  H           10.498945       27.856837       37.001109
  H            9.663735       25.440518       36.866272
  H           10.384292       24.412375       35.611347
  H            9.229328       25.683981       35.163918
  H           12.448787       24.893094       35.153284
  C           11.306880       29.776747       32.588348
  N           11.490153       30.965992       33.385297
  C           11.721241       30.767662       34.790215
  C           11.440743       32.177956       32.809350
  O           11.249466       32.388805       31.635470
  H           12.193220       29.140615       32.642495
  H           11.144061       30.087717       31.558127
  H           10.441486       29.210843       32.940541
  H           10.876965       30.240624       35.243639
  H           11.844174       31.728508       35.286330
  H           12.624166       30.170577       34.946361
  H           11.597967       32.992582       33.541465
  C           14.554624       24.298441       36.373072
  N           14.507648       22.928311       35.921901
  C           13.403203       22.569210       35.074682
  C           15.463775       22.062401       36.294774
  O           16.406687       22.322005       37.003689
  H           14.618439       24.978932       35.520984
  H           15.438204       24.413441       36.998074
  H           13.661772       24.539770       36.954253
  H           12.455436       22.737373       35.593935
  H           13.472135       21.518684       34.798802
  H           13.409630       23.175401       34.164376
  H           15.296915       21.052719       35.874027
  C            8.809795        5.064118       22.928934
  N            9.904485        4.131860       23.053710
  C            9.873786        2.986226       22.185890
  C           10.883008        4.356239       23.945427
  O           10.947217        5.303683       24.691929
  H            8.772317        5.475733       21.917814
  H            8.973727        5.868298       23.643768
  H            7.860480        4.569468       23.146461
  H            8.968967        2.398324       22.364326
  H           10.743644        2.358043       22.368095
  H            9.878444        3.302247       21.138859
  H           11.651253        3.560102       23.928337
  C           19.948090       19.356310       31.166494
  N           21.336409       19.012827       30.972561
  C           21.628278       17.623353       30.747376
  C           22.278803       19.968700       31.007381
  O           22.077327       21.145094       31.193239
  H           19.360683       19.082463       30.287202
  H           19.889554       20.431755       31.323201
  H           19.544702       18.837237       32.038869
  H           21.295830       17.022309       31.598487
  H           22.699669       17.484864       30.615434
  H           21.112285       17.266902       29.851352
  H           23.293170       19.558234       30.843354
  C           28.369652        4.058978       21.628767
  N           27.815149        4.296810       22.939867
  C           28.048600        3.280464       23.929348
  C           27.122796        5.420790       23.185488
  O           26.903918        6.298233       22.384725
  H           29.456309        3.963304       21.685505
  H           28.111112        4.907818       20.998535
  H           27.954559        3.144599       21.198880
  H           27.624207        2.326978       23.602360
  H           27.587045        3.566475       24.872550
  H           29.122072        3.143566       24.087722
  H           26.760034        5.465441       24.229872
  C            3.490419       28.792806       26.147338
  N            3.807179       29.097418       24.772603
  C            5.034297       28.551013       24.260593
  C            2.974646       29.855210       24.040720
  O            1.936176       30.333068       24.430936
  H            3.400221       27.713343       26.288116
  H            2.542341       29.271632       26.384909
  H            4.269094       29.173827       26.811931
  H            5.885072       28.915788       24.843077
  H            5.167225       28.844747       23.221114
  H            5.018444       27.459083       24.320621
  H            3.346609       30.003857       23.009277
  C            9.010014        6.470091       26.507687
  N            8.567474        7.640888       27.226305
  C            9.594704        8.515108       27.723363
  C            7.255864        7.868686       27.401806
  O            6.362013        7.161630       27.001629
  H            9.587172        6.758665       25.626319
  H            8.126376        5.914851       26.198722
  H            9.631495        5.840910       27.148849
  H           10.248445        7.977980       28.416387
  H            9.145535        9.358278       28.244686
  H           10.204236        8.893358       26.897795
  H            7.068172        8.800173       27.968754
  C           28.643210       11.948240       25.716516
  N           27.903001       13.186326       25.763985
  C           28.598414       14.366815       25.328810
  C           26.632362       13.196117       26.198030
  O           26.011968       12.229468       26.571847
  H           28.957794       11.730569       24.693358
  H           27.988975       11.154878       26.073054
  H           29.527531       12.007487       26.354999
  H           29.485834       14.534363       25.945719
  H           27.945400       15.233841       25.408219
  H           28.917570       14.258158       24.288378
  H           26.194580       14.212141       26.178811
  C            6.668637       32.587763       34.568584
  N            7.117493       31.308393       35.063316
  C            8.440921       30.899925       34.678315
  C            6.312760       30.565876       35.840546
  O            5.196503       30.870846       36.186958
  H            7.325420       33.385646       34.922441
  H            5.659788       32.754067       34.941589
  H            6.660067       32.592989       33.476296
  H            8.516572       30.833734       33.589251
  H            8.669204       29.926018       35.107101
  H            9.180202       31.624342       35.031654
  H            6.789536       29.614219       36.142806
  C           25.253774        1.831936       26.615474
  N           24.210370        2.775083       26.939204
  C           24.622027        3.989278       27.589436
  C           22.932518        2.498274       26.633454
  O           22.544284        1.492573       26.088589
  H           25.980182        2.284427       25.936667
  H           24.789530        0.973922       26.132923
  H           25.769271        1.506932       27.522023
  H           25.115286        3.763517       28.539116
  H           23.756176        4.619498       27.783318
  H           25.325651        4.538997       26.957860
  H           22.246567        3.310392       26.940478
  C           14.234036       27.204976       30.382760
  N           13.991823       26.158595       31.346835
  C           14.101388       26.524909       32.732599
  C           13.682547       24.919087       30.933336
  O           13.580448       24.569529       29.781632
  H           13.520122       28.020707       30.517319
  H           14.114986       26.776875       29.389220
  H           15.247278       27.598034       30.492489
  H           15.107858       26.893654       32.949878
  H           13.899044       25.661057       33.362904
  H           13.385171       27.315234       32.974641
  H           13.525008       24.225547       31.780986
  C           21.779280        6.389224       27.099044
  N           22.311488        6.426490       28.440084
  C           22.889733        7.671575       28.866613
  C           22.251793        5.334978       29.219860
  O           21.775721        4.271450       28.901580
  H           20.981088        7.126088       26.984523
  H           21.381220        5.391135       26.926037
  H           22.565164        6.600764       26.370462
  H           23.723752        7.946456       28.214679
  H           23.255630        7.581440       29.887623
  H           22.143772        8.470418       28.827150
  H           22.697117        5.512019       30.217191
  C           29.227498       23.718667       31.243767
  N           30.616875       23.592018       30.874157
  C           30.912764       22.700040       29.786335
  C           31.556560       24.287162       31.535051
  O           31.351683       25.045606       32.452561
  H           28.641308       24.094348       30.402078
  H           29.165859       24.420989       32.072929
  H           28.825130       22.751438       31.553225
  H           30.581577       21.685565       30.025756
  H           31.984607       22.685461       29.598167
  H           30.398228       23.025002       28.877590
  H           32.572160       24.089845       31.142687
  C           31.979433       10.902865       24.890250
  N           31.718417       12.060566       24.068897
  C           31.983399       13.342219       24.663608
  C           31.252518       11.909220       22.818679
  O           31.016850       10.853266       22.281594
  H           33.032484       10.868966       25.178571
  H           31.732818       10.017801       24.306805
  H           31.364716       10.928747       25.792829
  H           31.373163       13.478358       25.560961
  H           31.751233       14.135865       23.956011
  H           33.036616       13.418729       24.948293
  H           31.100538       12.880806       22.311481
  C            9.667238        1.621321       34.064074
  N            8.856908        2.287605       35.055261
  C            7.833404        3.167858       34.561170
  C            9.076952        2.071758       36.362167
  O            9.924176        1.342052       36.819089
  H            9.044721        0.997614       33.418585
  H           10.388554        0.997065       34.588073
  H           10.195750        2.352813       33.448615
  H            8.276991        3.968100       33.961997
  H            7.290040        3.610912       35.393591
  H            7.128942        2.616405       33.932044
  H            8.381585        2.648200       37.001312
  C           17.184085       24.145375       29.164835
  N           17.911657       24.799908       30.225611
  C           18.156768       26.206963       30.062370
  C           18.322355       24.098331       31.294316
  O           18.137959       22.917686       31.470701
  H           16.194786       24.593407       29.047574
  H           17.079185       23.095323       29.431207
  H           17.726761       24.230599       28.220677
  H           18.739289       26.388546       29.154702
  H           18.709392       26.590090       30.918108
  H           17.211277       26.750412       29.979459
  H           18.865109       24.730275       32.022597
  C            1.672339       19.086754       35.751790
  N            1.810991       17.750279       35.224882
  C            2.344387       16.759801       36.119853
  C            1.449951       17.483518       33.959378
  O            0.998589       18.284255       33.175713
  H            0.998770       19.090064       36.611725
  H            1.260357       19.714563       34.963950
  H            2.644324       19.478121       36.060453
  H            3.346110       17.047308       36.451599
  H            2.402929       15.796599       35.616582
  H            1.704813       16.660258       37.001444
  H            1.612313       16.421119       33.696177
  C            7.931004       11.618269       29.333359
  N            6.493755       11.506062       29.264457
  C            5.788810       12.626279       28.703478
  C            5.881728       10.397436       29.710982
  O            6.434778        9.435516       30.188353
  H            8.352265       11.746118       28.333665
  H            8.316022       10.701743       29.776425
  H            8.218043       12.471860       29.951571
  H            5.982559       13.529340       29.289231
  H            4.718365       12.429771       28.702820
  H            6.116436       12.805475       27.675512
  H            4.782839       10.453951       29.594467
  C            7.458767       29.372811       27.100684
  N            7.785851       30.272958       26.020974
  C            6.936972       31.422490       25.864408
  C            8.836187       30.017167       25.224495
  O            9.573503       29.065276       25.320957
  H            7.507402       29.893456       28.059724
  H            8.184074       28.561411       27.089487
  H            6.453568       28.966509       26.967690
  H            5.904848       31.110688       25.680930
  H            7.277571       32.024871       25.024410
  H            6.955956       32.035234       26.770140
  H            8.964055       30.791132       24.444139
  C           19.222640        1.441490       34.683307
  N           19.376015        2.871249       34.559669
  C           18.682574        3.677071       35.527306
  C           20.135166        3.385715       33.578839
  O           20.733527        2.746134       32.747011
  H           19.592267        1.100364       35.652948
  H           19.800664        0.974271       33.888221
  H           18.171688        1.160396       34.584917
  H           17.605691        3.494009       35.472748
  H           18.870672        4.731891       35.336410
  H           19.022594        3.434130       36.538014
  H           20.159358        4.491538       33.608818
  C            8.605130        6.514110       32.130303
  N            7.913022        6.210744       33.359928
  C            8.486519        6.741044       34.566747
  C            6.794211        5.468572       33.338601
  O            6.279749        5.004530       32.349141
  H            8.647775        7.594178       31.972734
  H            8.055206        6.048414       31.314658
  H            9.623018        6.118696       32.157638
  H            9.502965        6.361157       34.703448
  H            7.883313        6.449845       35.424542
  H            8.530246        7.832821       34.519019
  H            6.375587        5.318853       34.351847
  C            1.713881       14.912261       31.518349
  N            3.043703       14.454393       31.194389
  C            3.231048       13.031267       31.115985
  C            4.029639       15.341291       30.983783
  O            3.915526       16.542499       31.039604
  H            0.999413       14.573699       30.764620
  H            1.732093       16.000265       31.540301
  H            1.406623       14.531967       32.495162
  H            2.986913       12.562402       32.073444
  H            4.266158       12.805428       30.866967
  H            2.580755       12.604029       30.347380
  H            4.990098       14.846088       30.745837
  C           25.073203       13.910497       30.708353
  N           26.505265       13.792302       30.843444
  C           27.288669       14.123968       29.684649
  C           27.041966       13.390259       32.006770
  O           26.421637       13.102512       33.002476
  H           24.796384       14.938577       30.464184
  H           24.624332       13.628334       31.658861
  H           24.708110       13.247716       29.920557
  H           27.020794       13.474820       28.846189
  H           28.347466       13.998496       29.902986
  H           27.108837       15.161306       29.388412
  H           28.146698       13.347068       31.961720
  C            1.402408       23.748290       35.538643
  N            2.844723       23.737915       35.487239
  C            3.506395       24.978813       35.785387
  C            3.500211       22.608802       35.173466
  O            2.984345       21.547204       34.916702
  H            1.058047       24.019556       36.539155
  H            1.052888       22.747513       35.291971
  H            0.999913       24.464021       34.818282
  H            3.195521       25.754475       35.079786
  H            4.585009       24.851352       35.716030
  H            3.253503       25.311158       36.796207
  H            4.597433       22.751741       35.173318
  C            5.436068        7.864898       34.347014
  N            4.075000        7.392742       34.259925
  C            3.890717        5.967302       34.233659
  C            3.059163        8.269321       34.207989
  O            3.169574        9.472014       34.227432
  H            5.908362        7.501403       35.262440
  H            5.411416        8.952950       34.357096
  H            6.015388        7.520276       33.487469
  H            4.405120        5.533331       33.371555
  H            2.830568        5.730371       34.167217
  H            4.298372        5.514510       35.141934
  H            2.077041        7.763762       34.143394
  C           29.797450       10.883042       28.527333
  N           31.105230       11.169401       27.988139
  C           32.021526       10.064761       27.906260
  C           31.414030       12.415230       27.593721
  O           30.675741       13.369867       27.645051
  H           29.287020       10.136557       27.914621
  H           29.225740       11.809167       28.524713
  H           29.879978       10.507225       29.549657
  H           32.201827        9.645950       28.900370
  H           32.969131       10.397685       27.487127
  H           31.610400        9.276243       27.269565
  H           32.447211       12.483410       27.203573
  C           27.776849       32.472191       34.795920
  N           26.964946       31.764372       35.756558
  C           25.832368       32.473822       36.286161
  C           27.282078       30.509196       36.112892
  O           28.222530       29.877920       35.693274
  H           27.181638       32.747801       33.922445
  H           28.585816       31.810769       34.491519
  H           28.193483       33.378064       35.242018
  H           26.158837       33.384732       36.795891
  H           25.298240       31.845109       36.996017
  H           25.149613       32.756099       35.479731
  H           26.572395       30.095955       36.854450
  C           23.528109        1.923013       23.568149
  N           23.430616        3.262486       24.096666
  C           24.561034        4.122926       23.876825
  C           22.325563        3.649230       24.754160
  O           21.355429        2.959808       24.960498
  H           23.657563        1.948981       22.483823
  H           22.605238        1.400322       23.812423
  H           24.375196        1.397257       24.014490
  H           25.458705        3.694979       24.332031
  H           24.375199        5.100997       24.316492
  H           24.742928        4.245273       22.805325
  H           22.393690        4.697997       25.100244
  C           12.764607        6.011607       21.998876
  N           12.406044        7.382554       21.725094
  C           11.032339        7.743202       21.947352
  C           13.334587        8.247775       21.286673
  O           14.496972        7.986876       21.087100
  H           12.574204        5.769231       23.046824
  H           13.825434        5.895465       21.785049
  H           12.187776        5.332662       21.366819
  H           10.373875        7.138666       21.317172
  H           10.880393        8.794227       21.709182
  H           10.759306        7.574103       22.992830
  H           12.915396        9.258221       21.120517
  C           25.412270        1.519792       33.964073
  N           24.906502        2.837981       34.263401
  C           25.824682        3.751105       34.887646
  C           23.638410        3.158683       33.959913
  O           22.835630        2.423466       33.436427
  H           26.259609        1.582844       33.277606
  H           24.608426        0.951961       33.499349
  H           25.733230        1.017184       34.879259
  H           26.170697        3.348040       35.843668
  H           25.335921        4.707259       35.064702
  H           26.695713        3.912233       34.246158
  H           23.392926        4.198820       34.246584
  C           12.962343       10.974609       28.571478
  N           12.098034       10.341755       29.538684
  C           12.620591        9.178337       30.201950
  C           10.875634       10.842240       29.780067
  O           10.398766       11.815274       29.246363
  H           13.886132       11.311046       29.047523
  H           12.431551       11.831186       28.160258
  H           13.210366       10.277846       27.767612
  H           12.859755        8.399871       29.471911
  H           11.885912        8.788967       30.904164
  H           13.533773        9.430401       30.748509
  H           10.329407       10.255086       30.542440
  C           30.236664       23.351404       35.374792
  N           31.129548       22.288897       35.770844
  C           30.520627       21.030797       36.106894
  C           32.454723       22.501666       35.811509
  O           33.006441       23.540778       35.537846
  H           29.671796       23.063641       34.485235
  H           30.840650       24.229604       35.154490
  H           29.536534       23.582039       36.180907
  H           29.827334       21.155480       36.943532
  H           31.286235       20.310273       36.388242
  H           29.962246       20.638426       35.252247
  H           33.010642       21.600061       36.131492
  C            5.539122        9.882027       22.175386
  N            6.057007       11.161280       21.753100
  C            7.485312       11.319525       21.790978
  C            5.217562       12.129560       21.352128
  O            4.014006       12.038581       21.305094
  H            5.929413        9.083676       21.540166
  H            4.454578        9.917246       22.091178
  H            5.818992        9.680186       23.211788
  H            7.856663       11.177064       22.809785
  H            7.758183       12.317385       21.452920
  H            7.966795       10.582096       21.142489
  H            5.755717       13.050836       21.058924
  C           29.676892        3.584460       36.055720
  N           29.870797        2.668287       34.957518
  C           28.896555        1.620724       34.816105
  C           30.918620        2.818111       34.131302
  O           31.758533        3.682239       34.214165
  H           28.718854        4.100044       35.958095
  H           30.486233        4.311695       36.029965
  H           29.696685        3.048982       37.007595
  H           28.875186        0.997655       35.714711
  H           29.143732        0.995855       33.960005
  H           27.899886        2.046001       34.667929
  H           30.937393        2.045191       33.339741
  C           15.591042       31.064208       34.794078
  N           14.665799       31.425270       33.746900
  C           14.370025       32.825029       33.606451
  C           14.129142       30.475382       32.964134
  O           14.350013       29.290802       33.047941
  H           16.559008       31.543091       34.630041
  H           15.711611       29.982715       34.774036
  H           15.203593       31.370891       35.768256
  H           13.931921       33.215449       34.529382
  H           13.665730       32.976451       32.790665
  H           15.283831       33.387201       33.394113
  H           13.440858       30.899489       32.208670
  C           13.059865        1.867899       27.594848
  N           11.843057        2.627530       27.754097
  C           10.614796        1.940869       27.460157
  C           11.894871        3.907140       28.157741
  O           12.903114        4.520723       28.414644
  H           13.056331        0.998385       28.256006
  H           13.894410        2.517554       27.851849
  H           13.165465        1.528326       26.562020
  H           10.610122        1.597999       26.421608
  H            9.769211        2.608421       27.614517
  H           10.501274        1.069430       28.111211
  H           10.888068        4.359678       28.234449
  C            5.107812       18.563706       28.456812
  N            5.574201       19.927913       28.390176
  C            4.569427       20.953677       28.459228
  C            6.886254       20.186911       28.269966
  O            7.761725       19.356958       28.208600
  H            4.584704       18.384720       29.398894
  H            5.976395       17.911002       28.392723
  H            4.429007       18.351435       27.627740
  H            3.860585       20.847676       27.633109
  H            5.035325       21.935450       28.399823
  H            4.015881       20.880872       29.399681
  H            7.093482       21.273139       28.231336
  C           29.377184        4.991645       32.905729
  N           30.292414        4.306346       32.024969
  C           31.470619        5.031160       31.633803
  C           30.023844        3.056862       31.613055
  O           29.047955        2.413228       31.917048
  H           29.873136        5.253017       33.843232
  H           28.544607        4.320713       33.108787
  H           29.004904        5.904062       32.434456
  H           31.194789        5.950263       31.109082
  H           32.082190        4.418805       30.973902
  H           32.060772        5.300902       32.514214
  H           30.811918        2.661362       30.944588
