        4270
  Built with Packmol                                             
  C            0.000000        0.000000       19.000000
  C            1.418000        0.000000       19.000000
  C            2.127000        1.228024       19.000000
  C            3.545000        1.228024       19.000000
  C            0.000000        2.456048       19.000000
  C            1.418000        2.456048       19.000000
  C            2.127000        3.684072       19.000000
  C            3.545000        3.684072       19.000000
  C            0.000000        4.912096       19.000000
  C            1.418000        4.912096       19.000000
  C            2.127000        6.140120       19.000000
  C            3.545000        6.140120       19.000000
  C            0.000000        7.368144       19.000000
  C            1.418000        7.368144       19.000000
  C            2.127000        8.596168       19.000000
  C            3.545000        8.596168       19.000000
  C            0.000000        9.824192       19.000000
  C            1.418000        9.824192       19.000000
  C            2.127000       11.052216       19.000000
  C            3.545000       11.052216       19.000000
  C            0.000000       12.280240       19.000000
  C            1.418000       12.280240       19.000000
  C            2.127000       13.508264       19.000000
  C            3.545000       13.508264       19.000000
  C            0.000000       14.736288       19.000000
  C            1.418000       14.736288       19.000000
  C            2.127000       15.964312       19.000000
  C            3.545000       15.964312       19.000000
  C            0.000000       17.192336       19.000000
  C            1.418000       17.192336       19.000000
  C            2.127000       18.420360       19.000000
  C            3.545000       18.420360       19.000000
  C            0.000000       19.648384       19.000000
  C            1.418000       19.648384       19.000000
  C            2.127000       20.876408       19.000000
  C            3.545000       20.876408       19.000000
  C            0.000000       22.104432       19.000000
  C            1.418000       22.104432       19.000000
  C            2.127000       23.332456       19.000000
  C            3.545000       23.332456       19.000000
  C            0.000000       24.560480       19.000000
  C            1.418000       24.560480       19.000000
  C            2.127000       25.788504       19.000000
  C            3.545000       25.788504       19.000000
  C            0.000000       27.016528       19.000000
  C            1.418000       27.016528       19.000000
  C            2.127000       28.244553       19.000000
  C            3.545000       28.244553       19.000000
  C            0.000000       29.472577       19.000000
  C            1.418000       29.472577       19.000000
  C            2.127000       30.700601       19.000000
  C            3.545000       30.700601       19.000000
  C            0.000000       31.928625       19.000000
  C            1.418000       31.928625       19.000000
  C            2.127000       33.156649       19.000000
  C            3.545000       33.156649       19.000000
  C            4.254000        0.000000       19.000000
  C            5.672000        0.000000       19.000000
  C            6.381000        1.228024       19.000000
  C            7.799000        1.228024       19.000000
  C            4.254000        2.456048       19.000000
  C            5.672000        2.456048       19.000000
  C            6.381000        3.684072       19.000000
  C            7.799000        3.684072       19.000000
  C            4.254000        4.912096       19.000000
  C            5.672000        4.912096       19.000000
  C            6.381000        6.140120       19.000000
  C            7.799000        6.140120       19.000000
  C            4.254000        7.368144       19.000000
  C            5.672000        7.368144       19.000000
  C            6.381000        8.596168       19.000000
  C            7.799000        8.596168       19.000000
  C            4.254000        9.824192       19.000000
  C            5.672000        9.824192       19.000000
  C            6.381000       11.052216       19.000000
  C            7.799000       11.052216       19.000000
  C            4.254000       12.280240       19.000000
  C            5.672000       12.280240       19.000000
  C            6.381000       13.508264       19.000000
  C            7.799000       13.508264       19.000000
  C            4.254000       14.736288       19.000000
  C            5.672000       14.736288       19.000000
  C            6.381000       15.964312       19.000000
  C            7.799000       15.964312       19.000000
  C            4.254000       17.192336       19.000000
  C            5.672000       17.192336       19.000000
  C            6.381000       18.420360       19.000000
  C            7.799000       18.420360       19.000000
  C            4.254000       19.648384       19.000000
  C            5.672000       19.648384       19.000000
  C            6.381000       20.876408       19.000000
  C            7.799000       20.876408       19.000000
  C            4.254000       22.104432       19.000000
  C            5.672000       22.104432       19.000000
  C            6.381000       23.332456       19.000000
  C            7.799000       23.332456       19.000000
  C            4.254000       24.560480       19.000000
  C            5.672000       24.560480       19.000000
  C            6.381000       25.788504       19.000000
  C            7.799000       25.788504       19.000000
  C            4.254000       27.016528       19.000000
  C            5.672000       27.016528       19.000000
  C            6.381000       28.244553       19.000000
  C            7.799000       28.244553       19.000000
  C            4.254000       29.472577       19.000000
  C            5.672000       29.472577       19.000000
  C            6.381000       30.700601       19.000000
  C            7.799000       30.700601       19.000000
  C            4.254000       31.928625       19.000000
  C            5.672000       31.928625       19.000000
  C            6.381000       33.156649       19.000000
  C            7.799000       33.156649       19.000000
  C            8.508000        0.000000       19.000000
  C            9.926000        0.000000       19.000000
  C           10.635000        1.228024       19.000000
  C           12.053000        1.228024       19.000000
  C            8.508000        2.456048       19.000000
  C            9.926000        2.456048       19.000000
  C           10.635000        3.684072       19.000000
  C           12.053000        3.684072       19.000000
  C            8.508000        4.912096       19.000000
  C            9.926000        4.912096       19.000000
  C           10.635000        6.140120       19.000000
  C           12.053000        6.140120       19.000000
  C            8.508000        7.368144       19.000000
  C            9.926000        7.368144       19.000000
  C           10.635000        8.596168       19.000000
  C           12.053000        8.596168       19.000000
  C            8.508000        9.824192       19.000000
  C            9.926000        9.824192       19.000000
  C           10.635000       11.052216       19.000000
  C           12.053000       11.052216       19.000000
  C            8.508000       12.280240       19.000000
  C            9.926000       12.280240       19.000000
  C           10.635000       13.508264       19.000000
  C           12.053000       13.508264       19.000000
  C            8.508000       14.736288       19.000000
  C            9.926000       14.736288       19.000000
  C           10.635000       15.964312       19.000000
  C           12.053000       15.964312       19.000000
  C            8.508000       17.192336       19.000000
  C            9.926000       17.192336       19.000000
  C           10.635000       18.420360       19.000000
  C           12.053000       18.420360       19.000000
  C            8.508000       19.648384       19.000000
  C            9.926000       19.648384       19.000000
  C           10.635000       20.876408       19.000000
  C           12.053000       20.876408       19.000000
  C            8.508000       22.104432       19.000000
  C            9.926000       22.104432       19.000000
  C           10.635000       23.332456       19.000000
  C           12.053000       23.332456       19.000000
  C            8.508000       24.560480       19.000000
  C            9.926000       24.560480       19.000000
  C           10.635000       25.788504       19.000000
  C           12.053000       25.788504       19.000000
  C            8.508000       27.016528       19.000000
  C            9.926000       27.016528       19.000000
  C           10.635000       28.244553       19.000000
  C           12.053000       28.244553       19.000000
  C            8.508000       29.472577       19.000000
  C            9.926000       29.472577       19.000000
  C           10.635000       30.700601       19.000000
  C           12.053000       30.700601       19.000000
  C            8.508000       31.928625       19.000000
  C            9.926000       31.928625       19.000000
  C           10.635000       33.156649       19.000000
  C           12.053000       33.156649       19.000000
  C           12.762000        0.000000       19.000000
  C           14.180000        0.000000       19.000000
  C           14.889000        1.228024       19.000000
  C           16.307000        1.228024       19.000000
  C           12.762000        2.456048       19.000000
  C           14.180000        2.456048       19.000000
  C           14.889000        3.684072       19.000000
  C           16.307000        3.684072       19.000000
  C           12.762000        4.912096       19.000000
  C           14.180000        4.912096       19.000000
  C           14.889000        6.140120       19.000000
  C           16.307000        6.140120       19.000000
  C           12.762000        7.368144       19.000000
  C           14.180000        7.368144       19.000000
  C           14.889000        8.596168       19.000000
  C           16.307000        8.596168       19.000000
  C           12.762000        9.824192       19.000000
  C           14.180000        9.824192       19.000000
  C           14.889000       11.052216       19.000000
  C           16.307000       11.052216       19.000000
  C           12.762000       12.280240       19.000000
  C           14.180000       12.280240       19.000000
  C           14.889000       13.508264       19.000000
  C           16.307000       13.508264       19.000000
  C           12.762000       14.736288       19.000000
  C           14.180000       14.736288       19.000000
  C           14.889000       15.964312       19.000000
  C           16.307000       15.964312       19.000000
  C           12.762000       17.192336       19.000000
  C           14.180000       17.192336       19.000000
  C           14.889000       18.420360       19.000000
  C           16.307000       18.420360       19.000000
  C           12.762000       19.648384       19.000000
  C           14.180000       19.648384       19.000000
  C           14.889000       20.876408       19.000000
  C           16.307000       20.876408       19.000000
  C           12.762000       22.104432       19.000000
  C           14.180000       22.104432       19.000000
  C           14.889000       23.332456       19.000000
  C           16.307000       23.332456       19.000000
  C           12.762000       24.560480       19.000000
  C           14.180000       24.560480       19.000000
  C           14.889000       25.788504       19.000000
  C           16.307000       25.788504       19.000000
  C           12.762000       27.016528       19.000000
  C           14.180000       27.016528       19.000000
  C           14.889000       28.244553       19.000000
  C           16.307000       28.244553       19.000000
  C           12.762000       29.472577       19.000000
  C           14.180000       29.472577       19.000000
  C           14.889000       30.700601       19.000000
  C           16.307000       30.700601       19.000000
  C           12.762000       31.928625       19.000000
  C           14.180000       31.928625       19.000000
  C           14.889000       33.156649       19.000000
  C           16.307000       33.156649       19.000000
  C           17.016000        0.000000       19.000000
  C           18.434000        0.000000       19.000000
  C           19.143000        1.228024       19.000000
  C           20.561000        1.228024       19.000000
  C           17.016000        2.456048       19.000000
  C           18.434000        2.456048       19.000000
  C           19.143000        3.684072       19.000000
  C           20.561000        3.684072       19.000000
  C           17.016000        4.912096       19.000000
  C           18.434000        4.912096       19.000000
  C           19.143000        6.140120       19.000000
  C           20.561000        6.140120       19.000000
  C           17.016000        7.368144       19.000000
  C           18.434000        7.368144       19.000000
  C           19.143000        8.596168       19.000000
  C           20.561000        8.596168       19.000000
  C           17.016000        9.824192       19.000000
  C           18.434000        9.824192       19.000000
  C           19.143000       11.052216       19.000000
  C           20.561000       11.052216       19.000000
  C           17.016000       12.280240       19.000000
  C           18.434000       12.280240       19.000000
  C           19.143000       13.508264       19.000000
  C           20.561000       13.508264       19.000000
  C           17.016000       14.736288       19.000000
  C           18.434000       14.736288       19.000000
  C           19.143000       15.964312       19.000000
  C           20.561000       15.964312       19.000000
  C           17.016000       17.192336       19.000000
  C           18.434000       17.192336       19.000000
  C           19.143000       18.420360       19.000000
  C           20.561000       18.420360       19.000000
  C           17.016000       19.648384       19.000000
  C           18.434000       19.648384       19.000000
  C           19.143000       20.876408       19.000000
  C           20.561000       20.876408       19.000000
  C           17.016000       22.104432       19.000000
  C           18.434000       22.104432       19.000000
  C           19.143000       23.332456       19.000000
  C           20.561000       23.332456       19.000000
  C           17.016000       24.560480       19.000000
  C           18.434000       24.560480       19.000000
  C           19.143000       25.788504       19.000000
  C           20.561000       25.788504       19.000000
  C           17.016000       27.016528       19.000000
  C           18.434000       27.016528       19.000000
  C           19.143000       28.244553       19.000000
  C           20.561000       28.244553       19.000000
  C           17.016000       29.472577       19.000000
  C           18.434000       29.472577       19.000000
  C           19.143000       30.700601       19.000000
  C           20.561000       30.700601       19.000000
  C           17.016000       31.928625       19.000000
  C           18.434000       31.928625       19.000000
  C           19.143000       33.156649       19.000000
  C           20.561000       33.156649       19.000000
  C           21.270000        0.000000       19.000000
  C           22.688000        0.000000       19.000000
  C           23.397000        1.228024       19.000000
  C           24.815000        1.228024       19.000000
  C           21.270000        2.456048       19.000000
  C           22.688000        2.456048       19.000000
  C           23.397000        3.684072       19.000000
  C           24.815000        3.684072       19.000000
  C           21.270000        4.912096       19.000000
  C           22.688000        4.912096       19.000000
  C           23.397000        6.140120       19.000000
  C           24.815000        6.140120       19.000000
  C           21.270000        7.368144       19.000000
  C           22.688000        7.368144       19.000000
  C           23.397000        8.596168       19.000000
  C           24.815000        8.596168       19.000000
  C           21.270000        9.824192       19.000000
  C           22.688000        9.824192       19.000000
  C           23.397000       11.052216       19.000000
  C           24.815000       11.052216       19.000000
  C           21.270000       12.280240       19.000000
  C           22.688000       12.280240       19.000000
  C           23.397000       13.508264       19.000000
  C           24.815000       13.508264       19.000000
  C           21.270000       14.736288       19.000000
  C           22.688000       14.736288       19.000000
  C           23.397000       15.964312       19.000000
  C           24.815000       15.964312       19.000000
  C           21.270000       17.192336       19.000000
  C           22.688000       17.192336       19.000000
  C           23.397000       18.420360       19.000000
  C           24.815000       18.420360       19.000000
  C           21.270000       19.648384       19.000000
  C           22.688000       19.648384       19.000000
  C           23.397000       20.876408       19.000000
  C           24.815000       20.876408       19.000000
  C           21.270000       22.104432       19.000000
  C           22.688000       22.104432       19.000000
  C           23.397000       23.332456       19.000000
  C           24.815000       23.332456       19.000000
  C           21.270000       24.560480       19.000000
  C           22.688000       24.560480       19.000000
  C           23.397000       25.788504       19.000000
  C           24.815000       25.788504       19.000000
  C           21.270000       27.016528       19.000000
  C           22.688000       27.016528       19.000000
  C           23.397000       28.244553       19.000000
  C           24.815000       28.244553       19.000000
  C           21.270000       29.472577       19.000000
  C           22.688000       29.472577       19.000000
  C           23.397000       30.700601       19.000000
  C           24.815000       30.700601       19.000000
  C           21.270000       31.928625       19.000000
  C           22.688000       31.928625       19.000000
  C           23.397000       33.156649       19.000000
  C           24.815000       33.156649       19.000000
  C           25.524000        0.000000       19.000000
  C           26.942000        0.000000       19.000000
  C           27.651000        1.228024       19.000000
  C           29.069000        1.228024       19.000000
  C           25.524000        2.456048       19.000000
  C           26.942000        2.456048       19.000000
  C           27.651000        3.684072       19.000000
  C           29.069000        3.684072       19.000000
  C           25.524000        4.912096       19.000000
  C           26.942000        4.912096       19.000000
  C           27.651000        6.140120       19.000000
  C           29.069000        6.140120       19.000000
  C           25.524000        7.368144       19.000000
  C           26.942000        7.368144       19.000000
  C           27.651000        8.596168       19.000000
  C           29.069000        8.596168       19.000000
  C           25.524000        9.824192       19.000000
  C           26.942000        9.824192       19.000000
  C           27.651000       11.052216       19.000000
  C           29.069000       11.052216       19.000000
  C           25.524000       12.280240       19.000000
  C           26.942000       12.280240       19.000000
  C           27.651000       13.508264       19.000000
  C           29.069000       13.508264       19.000000
  C           25.524000       14.736288       19.000000
  C           26.942000       14.736288       19.000000
  C           27.651000       15.964312       19.000000
  C           29.069000       15.964312       19.000000
  C           25.524000       17.192336       19.000000
  C           26.942000       17.192336       19.000000
  C           27.651000       18.420360       19.000000
  C           29.069000       18.420360       19.000000
  C           25.524000       19.648384       19.000000
  C           26.942000       19.648384       19.000000
  C           27.651000       20.876408       19.000000
  C           29.069000       20.876408       19.000000
  C           25.524000       22.104432       19.000000
  C           26.942000       22.104432       19.000000
  C           27.651000       23.332456       19.000000
  C           29.069000       23.332456       19.000000
  C           25.524000       24.560480       19.000000
  C           26.942000       24.560480       19.000000
  C           27.651000       25.788504       19.000000
  C           29.069000       25.788504       19.000000
  C           25.524000       27.016528       19.000000
  C           26.942000       27.016528       19.000000
  C           27.651000       28.244553       19.000000
  C           29.069000       28.244553       19.000000
  C           25.524000       29.472577       19.000000
  C           26.942000       29.472577       19.000000
  C           27.651000       30.700601       19.000000
  C           29.069000       30.700601       19.000000
  C           25.524000       31.928625       19.000000
  C           26.942000       31.928625       19.000000
  C           27.651000       33.156649       19.000000
  C           29.069000       33.156649       19.000000
  C           29.778000        0.000000       19.000000
  C           31.196000        0.000000       19.000000
  C           31.905000        1.228024       19.000000
  C           33.323000        1.228024       19.000000
  C           29.778000        2.456048       19.000000
  C           31.196000        2.456048       19.000000
  C           31.905000        3.684072       19.000000
  C           33.323000        3.684072       19.000000
  C           29.778000        4.912096       19.000000
  C           31.196000        4.912096       19.000000
  C           31.905000        6.140120       19.000000
  C           33.323000        6.140120       19.000000
  C           29.778000        7.368144       19.000000
  C           31.196000        7.368144       19.000000
  C           31.905000        8.596168       19.000000
  C           33.323000        8.596168       19.000000
  C           29.778000        9.824192       19.000000
  C           31.196000        9.824192       19.000000
  C           31.905000       11.052216       19.000000
  C           33.323000       11.052216       19.000000
  C           29.778000       12.280240       19.000000
  C           31.196000       12.280240       19.000000
  C           31.905000       13.508264       19.000000
  C           33.323000       13.508264       19.000000
  C           29.778000       14.736288       19.000000
  C           31.196000       14.736288       19.000000
  C           31.905000       15.964312       19.000000
  C           33.323000       15.964312       19.000000
  C           29.778000       17.192336       19.000000
  C           31.196000       17.192336       19.000000
  C           31.905000       18.420360       19.000000
  C           33.323000       18.420360       19.000000
  C           29.778000       19.648384       19.000000
  C           31.196000       19.648384       19.000000
  C           31.905000       20.876408       19.000000
  C           33.323000       20.876408       19.000000
  C           29.778000       22.104432       19.000000
  C           31.196000       22.104432       19.000000
  C           31.905000       23.332456       19.000000
  C           33.323000       23.332456       19.000000
  C           29.778000       24.560480       19.000000
  C           31.196000       24.560480       19.000000
  C           31.905000       25.788504       19.000000
  C           33.323000       25.788504       19.000000
  C           29.778000       27.016528       19.000000
  C           31.196000       27.016528       19.000000
  C           31.905000       28.244553       19.000000
  C           33.323000       28.244553       19.000000
  C           29.778000       29.472577       19.000000
  C           31.196000       29.472577       19.000000
  C           31.905000       30.700601       19.000000
  C           33.323000       30.700601       19.000000
  C           29.778000       31.928625       19.000000
  C           31.196000       31.928625       19.000000
  C           31.905000       33.156649       19.000000
  C           33.323000       33.156649       19.000000
  C           12.001857       18.439189       24.913646
  C           13.540489       18.299965       24.978743
  C           14.111145       18.863438       23.670802
  C           13.959620       19.110988       26.214004
  O           13.808771       18.723511       27.366643
  O           14.493326       20.316309       25.877801
  C           14.918161       21.103143       26.991774
  C           13.875199       16.787735       25.181910
  C           15.348082       16.224805       25.076451
  C           15.768993       16.139318       23.599095
  C           15.220468       14.778702       25.610191
  O           15.163222       13.778347       24.905984
  O           15.120192       14.765677       26.967926
  C           14.941673       13.472268       27.545490
  C           16.347026       17.058269       25.941529
  C           17.901360       16.790053       25.993965
  C           18.412468       17.612266       27.205706
  C           18.183842       15.311554       26.302970
  O           18.295265       14.846450       27.429859
  O           18.271989       14.574022       25.164451
  C           18.547123       13.186393       25.367719
  C           18.594263       17.285720       24.674515
  C           20.137919       17.537103       24.608686
  C           20.955334       16.327037       25.085262
  C           20.499047       18.840791       25.334965
  O           19.852361       19.877119       25.229684
  O           21.628975       18.718003       26.081388
  C           22.008663       19.907744       26.774544
  C           20.514939       17.793100       23.130169
  H           11.525399       18.030307       25.812538
  H           11.700722       19.491022       24.840076
  H           11.590936       17.910564       24.046176
  H           15.195628       18.996172       23.720455
  H           13.690838       19.851522       23.446257
  H           13.873670       18.214452       22.821186
  H           14.066388       21.349825       27.633119
  H           15.342947       22.033998       26.606183
  H           15.693261       20.577500       27.558463
  H           13.475409       16.502159       26.166372
  H           13.260144       16.211863       24.473087
  H           14.937345       15.805637       22.967069
  H           16.115240       17.097397       23.207020
  H           16.569397       15.410779       23.441094
  H           14.015267       13.016378       27.182740
  H           14.866699       13.593407       28.629576
  H           15.799980       12.830912       27.327770
  H           16.249053       18.106933       25.639896
  H           15.974634       17.027724       26.975009
  H           18.257828       18.685465       27.052829
  H           19.470442       17.432973       27.414534
  H           17.878159       17.341372       28.125118
  H           17.760172       12.717504       25.964154
  H           19.523153       13.059478       25.846086
  H           18.574871       12.701110       24.388359
  H           18.365945       16.578998       23.870579
  H           18.099388       18.220525       24.374506
  H           22.029052       16.484264       24.925414
  H           20.824224       16.130377       26.152642
  H           20.684247       15.422762       24.530886
  H           22.230064       20.710406       26.064271
  H           22.915102       19.691498       27.346592
  H           21.222626       20.211747       27.472926
  H           20.315003       16.912318       22.509577
  H           19.946652       18.632557       22.712368
  H           21.578342       18.040937       23.029200
  C            8.695528       16.372797       15.194648
  C            8.840747       17.416680       14.089646
  C            9.770256       18.431511       14.755643
  O           10.599862       17.704852       15.648177
  C           10.095782       16.388346       15.808216
  H            7.957459       16.699875       15.928091
  H            8.417239       15.388598       14.825264
  H            7.894866       17.859468       13.786685
  H            9.324232       16.977008       13.216379
  H           10.407598       18.962812       14.043612
  H            9.192797       19.171243       15.327971
  H           10.758782       15.686446       15.282868
  H           10.101291       16.141356       16.873316
  C           22.851534       28.357909       13.120872
  C           23.223389       27.049765       12.426398
  C           24.574381       27.411288       11.808707
  O           25.175292       28.368491       12.666357
  C           24.219640       28.841757       13.602117
  H           22.433203       29.061933       12.400446
  H           22.147962       28.227449       13.939714
  H           22.498216       26.736027       11.679250
  H           23.344591       26.253364       13.161733
  H           25.248312       26.555164       11.717374
  H           24.440230       27.858658       10.813678
  H           24.453627       28.425424       14.592136
  H           24.295988       29.931143       13.655802
  C           30.064514       11.310671        2.189826
  C           30.823272       12.635754        2.205662
  C           31.847047       12.382255        3.312479
  O           32.133233       10.992739        3.297015
  C           31.189404       10.317109        2.481166
  H           29.324571       11.289951        2.990899
  H           29.569057       11.107885        1.243286
  H           30.189717       13.493806        2.417543
  H           31.328421       12.792746        1.251806
  H           32.781582       12.931031        3.167690
  H           31.432691       12.649975        4.294750
  H           31.682652       10.003602        1.550231
  H           30.847749        9.424232        3.011747
  C            7.943484       12.629140       16.120778
  C            8.472870       12.456823       14.698854
  C            7.793300       11.152428       14.281530
  O            6.553471       11.096871       14.969014
  C            6.518439       12.094234       15.977447
  H            8.512879       12.007933       16.813278
  H            7.965051       13.659488       16.467844
  H            9.557168       12.392932       14.646384
  H            8.133456       13.279018       14.067621
  H            7.597804       11.093968       13.207362
  H            8.402272       10.285347       14.574009
  H            5.832194       12.893782       15.664382
  H            6.133210       11.645176       16.896914
  C           13.556361        2.374844        5.091007
  C           12.170714        2.990418        5.272288
  C           12.496260        4.483305        5.220037
  O           13.621757        4.628811        4.368580
  C           14.195192        3.357297        4.109120
  H           14.098243        2.379808        6.037582
  H           13.530538        1.359760        4.701810
  H           11.689808        2.704840        6.204871
  H           11.523451        2.714963        4.438718
  H           11.677794        5.088138        4.820334
  H           12.754323        4.860653        6.219654
  H           13.972536        3.070835        3.071534
  H           15.279758        3.435482        4.223474
  C           12.756304       11.971739       11.005210
  C           12.842241       12.959348        9.843722
  C           11.745571       12.431067        8.918705
  O           10.753098       11.848936        9.748775
  C           11.250452       11.715760       11.070818
  H           13.286116       11.051048       10.757644
  H           13.149134       12.367576       11.938771
  H           13.816901       12.975600        9.361736
  H           12.596818       13.965739       10.185200
  H           11.278200       13.213818        8.315101
  H           12.143427       11.659755        8.244160
  H           10.757042       12.458277       11.713808
  H           10.999711       10.716608       11.437287
  C           24.283628       24.015745        4.612169
  C           23.018080       24.297306        5.418966
  C           22.041531       23.293504        4.805653
  O           22.809527       22.176504        4.386856
  C           24.190096       22.501166        4.425827
  H           24.235047       24.519495        3.645971
  H           25.196493       24.313604        5.122555
  H           22.667487       25.322725        5.328756
  H           23.183594       24.068751        6.472546
  H           21.281106       22.947448        5.510970
  H           21.536121       23.726752        3.930965
  H           24.656216       21.975452        5.271154
  H           24.655255       22.152326        3.499862
  C           15.737564        5.454220        6.063719
  C           15.776996        6.393104        7.267361
  C           16.489639        7.609584        6.675976
  O           16.146908        7.657814        5.300074
  C           15.520486        6.443402        4.918374
  H           16.696445        4.947201        5.949079
  H           14.946934        4.709893        6.122194
  H           16.307232        5.978470        8.121449
  H           14.763962        6.659100        7.571782
  H           16.189770        8.552164        7.141909
  H           17.579937        7.504965        6.768315
  H           14.448384        6.629005        4.762269
  H           15.957096        6.109428        3.973224
  C           24.951405        5.856214        7.139249
  C           23.640822        5.432192        6.480168
  C           23.057531        4.501242        7.543429
  O           23.510381        4.978469        8.800441
  C           24.535325        5.940420        8.607992
  H           25.708982        5.083199        7.004387
  H           25.337489        6.801184        6.764405
  H           23.779855        4.932143        5.524575
  H           22.992451        6.297736        6.338346
  H           21.964257        4.487913        7.550275
  H           23.419074        3.473003        7.401190
  H           24.137088        6.937570        8.843197
  H           25.352843        5.720108        9.299801
  C           19.846924        4.183279        3.770154
  C           20.733876        5.122501        4.584394
  C           20.574226        6.431705        3.811142
  O           19.272019        6.420126        3.248097
  C           18.711299        5.121816        3.361590
  H           20.381664        3.829878        2.887644
  H           19.490855        3.326075        4.336683
  H           21.770545        4.798633        4.638848
  H           20.340677        5.230281        5.596046
  H           20.671680        7.318806        4.442828
  H           21.312868        6.497115        2.999754
  H           17.925099        5.138935        4.129587
  H           18.256440        4.854933        2.403807
  C           26.954110       23.090159        2.286329
  C           28.207260       23.937324        2.077190
  C           29.254141       23.115647        2.829723
  O           28.859926       21.756494        2.728766
  C           27.534290       21.676800        2.229531
  H           26.527211       23.284572        3.271024
  H           26.190627       23.254058        1.529516
  H           28.115808       24.947821        2.468431
  H           28.456362       23.987144        1.016469
  H           30.260424       23.217246        2.414335
  H           29.283313       23.400483        3.890967
  H           27.564859       21.309902        1.193832
  H           26.976962       20.958489        2.836892
  C           21.241175       21.673549        1.973697
  C           19.881988       22.369390        1.958683
  C           18.931809       21.173719        2.029063
  O           19.600082       20.160579        2.763811
  C           20.968426       20.502361        2.917809
  H           21.488095       21.306275        0.976800
  H           22.048529       22.310233        2.327746
  H           19.717219       22.976367        1.071571
  H           19.768703       22.995301        2.844722
  H           17.988643       21.403059        2.532367
  H           18.707778       20.794739        1.021886
  H           21.147554       20.794439        3.962234
  H           21.574151       19.619935        2.694433
  C           27.741492        5.634569       14.983933
  C           28.418031        6.919227       14.510900
  C           28.152850        6.861705       13.006311
  O           26.919266        6.182839       12.832215
  C           26.530643        5.572459       14.052586
  H           28.395203        4.778523       14.812147
  H           27.455202        5.658063       16.032753
  H           29.479898        6.958594       14.742039
  H           27.925613        7.788347       14.948873
  H           28.073462        7.850094       12.545596
  H           28.945076        6.298885       12.492664
  H           25.684223        6.130887       14.476793
  H           26.202750        4.551060       13.841155
  C           23.988346       20.033105        8.663721
  C           25.086684       20.470782        7.697334
  C           25.177477       21.965956        8.003325
  O           24.838443       22.126620        9.371587
  C           24.280304       20.922324        9.872634
  H           23.006588       20.267213        8.250189
  H           24.026656       18.974724        8.910495
  H           24.847258       20.276289        6.654557
  H           26.026616       19.976120        7.945325
  H           26.177480       22.377805        7.842552
  H           24.462855       22.532889        7.390035
  H           25.008979       20.442939       10.541544
  H           23.385913       21.168400       10.451413
  C           18.605448       20.299323        6.116268
  C           17.633553       21.023298        5.187241
  C           16.572819       21.503769        6.177903
  O           17.236071       21.732865        7.410992
  C           18.542552       21.181759        7.363173
  H           18.236422       19.298137        6.342340
  H           19.612858       20.224095        5.713772
  H           17.216552       20.382390        4.414011
  H           18.125363       21.875554        4.716660
  H           16.084454       22.431795        5.868483
  H           15.801363       20.734823        6.325547
  H           19.272751       22.000747        7.297684
  H           18.720875       20.629800        8.290003
  C           10.215944        4.098246        9.225378
  C           10.972347        5.194566        9.972203
  C           10.944851        6.329355        8.948035
  O            9.746124        6.181930        8.203578
  C            9.164845        4.916485        8.474981
  H           10.878885        3.595914        8.519804
  H            9.769599        3.356333        9.883312
  H           11.985439        4.910266       10.246712
  H           10.427269        5.483482       10.871693
  H           10.949431        7.322155        9.406074
  H           11.801272        6.256190        8.262900
  H            8.268822        5.061358        9.094961
  H            8.862648        4.462582        7.527288
  C            6.554925       24.649711        3.295334
  C            6.081785       24.939146        1.872598
  C            5.042995       23.835591        1.671343
  O            4.480029       23.564065        2.945014
  C            5.255554       24.188372        3.955805
  H            7.286013       23.840288        3.292539
  H            6.985873       25.515895        3.791868
  H            6.879418       24.895233        1.134771
  H            5.606198       25.919572        1.825213
  H            4.237711       24.122253        0.989569
  H            5.516454       22.920478        1.288425
  H            4.696246       25.046028        4.355582
  H            5.415670       23.469910        4.764290
  C           25.143269        2.023420       15.711600
  C           26.555881        2.578142       15.880776
  C           27.256462        1.994789       14.653460
  O           26.274182        1.878190       13.636392
  C           24.982744        2.069282       14.191880
  H           25.097628        0.992863       16.065906
  H           24.384680        2.609481       16.225031
  H           27.030699        2.274504       16.810770
  H           26.542508        3.667433       15.826651
  H           28.068432        2.625537       14.281525
  H           27.661453        0.997008       14.873997
  H           24.597583        3.047329       13.870482
  H           24.319791        1.290225       13.805827
  C            1.710943        9.701694        5.426936
  C            3.164019        9.866002        5.866692
  C            3.897639        9.743036        4.530989
  O            3.024132       10.249572        3.534343
  C            1.723483       10.417013        4.075795
  H            1.474208        8.645365        5.293568
  H            0.997505       10.140822        6.120269
  H            3.485389        9.115624        6.585156
  H            3.319218       10.857603        6.293663
  H            4.829873       10.313428        4.498334
  H            4.123127        8.690981        4.306141
  H            1.525392       11.490818        4.201992
  H            0.997135       10.010070        3.367071
  C           17.249395       32.408162        7.358123
  C           16.447412       31.746030        6.239993
  C           17.034346       32.429087        5.004533
  O           18.386630       32.733661        5.306954
  C           18.618925       32.560187        6.695782
  H           16.831760       33.388062        7.592728
  H           17.294106       31.814037        8.267822
  H           15.374680       31.901362        6.327489
  H           16.651255       30.674876        6.212769
  H           17.011689       31.797365        4.112408
  H           16.498903       33.363642        4.785154
  H           19.226203       31.656293        6.845480
  H           19.181430       33.422333        7.064248
  C            8.813332       16.372795        7.435681
  C           10.071884       15.693063        7.970302
  C           10.616400       15.031117        6.704305
  O           10.233255       15.853375        5.613439
  C            9.274437       16.806368        6.043985
  H            7.999283       15.651160        7.356741
  H            8.485309       17.213308        8.042703
  H            9.871505       14.972548        8.759760
  H           10.776043       16.439653        8.339661
  H           11.705734       14.937187        6.702687
  H           10.178880       14.031944        6.568477
  H            9.748881       17.797156        6.082232
  H            8.462584       16.837284        5.312266
  C           27.529938       24.540917        8.951469
  C           27.701819       24.143451       10.415808
  C           27.811711       22.622707       10.303188
  O           28.412989       22.346060        9.048266
  C           28.433888       23.522799        8.255962
  H           26.493634       24.400633        8.641538
  H           27.826892       25.566350        8.744484
  H           26.872143       24.452058       11.047422
  H           28.627336       24.561168       10.814047
  H           28.427202       22.176701       11.089142
  H           26.816317       22.157318       10.331886
  H           29.466508       23.894970        8.197593
  H           28.098148       23.268259        7.247022
  C           32.043077       29.996213        2.643330
  C           31.269181       28.983430        1.802397
  C           30.857705       27.963453        2.864356
  O           30.701160       28.677059        4.080562
  C           31.239930       29.982440        3.944170
  H           33.058663       29.640778        2.821973
  H           32.086840       30.986099        2.195283
  H           31.863639       28.536726        1.008916
  H           30.386322       29.451828        1.365560
  H           29.915431       27.459034        2.633805
  H           31.639206       27.201778        2.995995
  H           30.413833       30.706159        3.899284
  H           31.847054       30.201618        4.826687
  C            9.441696       22.851215       15.949815
  C            8.127179       22.202972       15.521285
  C            8.563720       21.435791       14.272971
  O            9.918104       21.063263       14.472381
  C           10.447060       21.756555       15.591509
  H            9.631135       23.747392       15.357664
  H            9.471639       23.110149       17.005558
  H            7.339590       22.922338       15.309737
  H            7.780177       21.510247       16.288998
  H            7.976592       20.530264       14.097545
  H            8.497259       22.074195       13.380646
  H           10.566462       21.049791       16.424845
  H           11.432053       22.148346       15.323622
  C           20.396516       21.372475       15.011363
  C           19.444322       22.029199       16.008284
  C           18.165147       21.224628       15.776346
  O           18.565125       19.919805       15.388594
  C           19.951898       19.911759       15.089109
  H           20.224810       21.767360       14.009242
  H           21.445570       21.499233       15.268180
  H           19.301033       23.092731       15.832486
  H           19.804395       21.881852       17.027254
  H           17.539322       21.145118       16.669373
  H           17.566927       21.668989       14.968326
  H           20.486826       19.384225       15.891469
  H           20.102078       19.366208       14.153538
  C           28.638441        6.581102        8.762107
  C           28.579646        6.538439        7.236809
  C           28.633929        8.027045        6.892535
  O           29.395697        8.656638        7.910484
  C           29.584699        7.759493        8.993215
  H           27.652004        6.802063        9.171717
  H           29.009271        5.660258        9.206030
  H           27.683084        6.057915        6.852349
  H           29.456750        6.026043        6.839565
  H           29.108828        8.228378        5.928476
  H           27.624230        8.461361        6.882651
  H           30.631135        7.423100        8.998943
  H           29.385881        8.294064        9.926049
  C           19.596818       28.443271       15.868142
  C           18.091785       28.629856       15.689618
  C           17.956403       30.144632       15.846286
  O           19.163342       30.716652       15.367757
  C           20.137985       29.701340       15.188568
  H           19.854205       28.445351       16.928053
  H           19.976175       27.531785       15.412272
  H           17.499208       28.084356       16.420249
  H           17.790056       28.324775       14.686848
  H           17.123256       30.563216       15.275211
  H           17.827577       30.416654       16.903465
  H           20.281710       29.531128       14.112189
  H           21.083101       30.047866       15.615357
  C           26.722096       12.316919        7.622325
  C           26.399690       11.761483        9.007734
  C           26.896150       10.321411        8.876806
  O           27.983868       10.343024        7.966148
  C           28.035513       11.599630        7.309512
  H           25.951168       12.022694        6.909047
  H           26.827976       13.399053        7.604686
  H           25.342813       11.812929        9.258535
  H           26.972844       12.291453        9.769501
  H           27.243894        9.898746        9.823327
  H           26.106102        9.672488        8.473142
  H           28.892013       12.169342        7.696885
  H           28.187168       11.427016        6.240551
  C           14.674453       25.814057       15.841247
  C           13.149345       25.853300       15.906948
  C           12.776502       24.811784       14.851651
  O           13.816292       23.846573       14.841692
  C           14.925694       24.328180       15.583433
  H           15.031353       26.409612       15.000057
  H           15.155179       26.162336       16.752368
  H           12.732514       26.833036       15.685799
  H           12.805733       25.533926       16.891628
  H           11.832336       24.303079       15.064355
  H           12.708833       25.273160       13.856274
  H           14.988897       23.774008       16.530597
  H           15.836306       24.139504       15.008403
  C           10.945516        3.281077       14.670328
  C           12.456310        3.330591       14.453856
  C           12.585733        4.529162       13.513591
  O           11.527236        5.418191       13.833135
  C           10.595194        4.769205       14.683436
  H           10.459792        2.785480       13.828830
  H           10.657334        2.780680       15.591789
  H           12.860562        2.419267       14.019567
  H           12.966172        3.532600       15.396668
  H           13.533394        5.062950       13.625313
  H           12.482868        4.214523       12.465430
  H           10.689949        5.182489       15.697555
  H            9.586580        4.976756       14.315885
  C            7.093779       26.733646       15.955856
  C            7.983624       27.863500       15.442616
  C            9.349147       27.439751       15.984099
  O            9.350812       26.021735       16.030188
  C            8.033073       25.533390       15.835309
  H            6.831122       26.905061       17.000505
  H            6.182299       26.604721       15.376961
  H            7.684042       28.845757       15.800332
  H            7.994423       27.869549       14.351969
  H           10.181569       27.767862       15.355695
  H            9.503017       27.829636       17.000236
  H            7.963828       25.083877       14.834627
  H            7.836618       24.757167       16.579860
  C           19.836663        8.295842       13.098834
  C           19.596934        7.155461       12.111984
  C           18.232177        7.536968       11.538128
  O           18.156311        8.953436       11.565690
  C           19.216643        9.475949       12.350274
  H           19.295889        8.110883       14.027821
  H           20.887898        8.456889       13.325783
  H           19.588597        6.173868       12.579896
  H           20.354595        7.169776       11.327504
  H           18.090186        7.201483       10.507225
  H           17.421375        7.124469       12.155109
  H           19.954571        9.945785       11.684739
  H           18.810976       10.242329       13.016284
  C           20.401028        8.736593        7.075902
  C           20.357457        8.345257        8.551290
  C           21.598499        7.459482        8.663706
  O           22.538669        7.947862        7.720063
  C           21.906552        8.868054        6.844522
  H           19.992333        7.934187        6.460454
  H           19.867434        9.658638        6.857620
  H           19.447874        7.819566        8.832082
  H           20.466022        9.230091        9.179738
  H           22.056825        7.485417        9.656045
  H           21.355603        6.416079        8.417674
  H           22.250292        9.883762        7.086187
  H           22.206084        8.633983        5.819357
  C            5.549467       32.599515        5.817548
  C            4.397135       32.237756        6.751932
  C            4.073417       30.815846        6.292805
  O            5.288455       30.246177        5.832308
  C            6.274028       31.258284        5.701230
  H            5.164067       32.906925        4.844600
  H            6.192842       33.384074        6.208793
  H            3.543138       32.905084        6.663054
  H            4.738733       32.232287        7.787762
  H            3.675612       30.185734        7.092920
  H            3.349849       30.829185        5.465464
  H            7.012313       31.143491        6.507443
  H            6.782439       31.125963        4.742333
  C           27.410863       13.744523        2.640307
  C           26.081750       13.000841        2.529818
  C           25.475415       13.263229        3.908560
  O           25.953634       14.529595        4.333437
  C           27.009000       14.953608        3.485315
  H           28.140852       13.135286        3.174730
  H           27.825797       14.032986        1.677417
  H           26.196571       11.939196        2.324241
  H           25.461932       13.449284        1.752394
  H           24.382398       13.289806        3.899621
  H           25.800930       12.499288        4.628737
  H           26.646467       15.771576        2.846786
  H           27.823827       15.333055        4.107852
  C           31.378296        3.583013        4.500429
  C           30.096585        3.104867        5.178960
  C           30.119915        1.612640        4.847096
  O           31.484006        1.232033        4.761707
  C           32.304519        2.389114        4.733101
  H           31.208635        3.727766        3.432756
  H           31.774728        4.502337        4.924952
  H           29.201210        3.596962        4.806556
  H           30.162483        3.253639        6.257471
  H           29.633994        0.995376        5.607582
  H           29.635219        1.421496        3.879235
  H           32.824079        2.481632        5.697320
  H           33.052452        2.265198        3.945246
  C            1.924143       11.763463        8.963751
  C            1.931036       10.333118        9.498425
  C            3.431244       10.067487        9.625856
  O            4.046143       11.313413        9.913023
  C            3.118515       12.366302        9.703671
  H            2.105359       11.765130        7.888195
  H            0.998983       12.296868        9.168920
  H            1.440335        9.622528        8.837507
  H            1.455372       10.294603       10.479202
  H            3.677103        9.365811       10.427528
  H            3.839055        9.677716        8.682464
  H            2.809639       12.768454       10.678910
  H            3.616170       13.161024        9.141328
  C            3.826336       31.212117        2.562621
  C            3.863390       29.741342        2.971592
  C            4.709683       29.139043        1.849788
  O            5.612668       30.149123        1.428775
  C            5.228508       31.397735        1.982207
  H            3.073037       31.370011        1.789786
  H            3.630261       31.886524        3.392842
  H            2.878013       29.285878        3.035799
  H            4.370988       29.628980        3.930436
  H            5.287581       28.267087        2.167906
  H            4.077797       28.848429        0.998621
  H            5.942949       31.673049        2.770875
  H            5.271027       32.154717        1.194398
  C            5.165690       12.830693        3.161564
  C            3.951337       13.220404        4.001375
  C            2.993665       13.732041        2.925033
  O            3.278956       13.003669        1.741403
  C            4.495898       12.291227        1.897533
  H            5.761172       13.713813        2.926697
  H            5.802139       12.090090        3.640081
  H            4.170037       13.975629        4.752603
  H            3.533696       12.340325        4.491986
  H            1.940963       13.582386        3.179776
  H            3.158692       14.801817        2.733808
  H            4.271116       11.220430        2.002828
  H            5.099535       12.433203        0.997012
  C           32.107154       23.606820        8.491792
  C           32.283311       24.765318        9.470905
  C           30.909866       24.803140       10.141456
  O           30.417881       23.472414       10.145526
  C           31.219993       22.661304        9.301955
  H           31.582074       23.945019        7.597602
  H           33.045787       23.142706        8.198360
  H           32.532509       25.706378        8.986298
  H           33.055417       24.526307       10.203290
  H           30.944818       25.163731       11.173069
  H           30.216145       25.437950        9.572256
  H           31.830712       21.993167        9.925522
  H           30.561274       22.050252        8.678915
  C            8.933727       20.528352        4.935034
  C            7.691501       19.644519        4.848293
  C            6.617727       20.670627        4.485623
  O            7.257519       21.683772        3.725952
  C            8.665530       21.533890        3.815040
  H            8.968592       21.036641        5.899446
  H            9.862941       19.983199        4.787029
  H            7.467423       19.122147        5.775361
  H            7.803279       18.914223        4.045899
  H            5.804824       20.249377        3.887952
  H            6.188553       21.121666        5.391490
  H            9.045430       21.157446        2.854735
  H            9.108145       22.515731        4.003600
  C           31.751292       11.614139       11.577088
  C           30.268937       11.283154       11.419343
  C           29.617569       12.530325       12.017426
  O           30.498046       13.614152       11.766477
  C           31.751362       13.121266       11.320205
  H           32.078468       11.404053       12.596148
  H           32.390454       11.076345       10.880822
  H           29.971999       10.373707       11.936325
  H           30.012932       11.192265       10.362998
  H           28.645575       12.762511       11.573814
  H           29.489015       12.419558       13.103440
  H           31.856001       13.333160       10.246718
  H           32.543643       13.649072       11.857964
  C           19.162459       15.030321       14.979937
  C           18.413465       16.332239       15.255308
  C           17.288756       15.844122       16.168649
  O           17.799791       14.737058       16.894011
  C           19.030317       14.317486       16.325978
  H           18.655918       14.461448       14.199256
  H           20.200314       15.181504       14.692644
  H           18.036019       16.812093       14.355413
  H           19.057348       17.032345       15.789097
  H           16.954450       16.602349       16.881955
  H           16.422868       15.513955       15.577508
  H           19.850058       14.603559       17.000076
  H           19.017822       13.227881       16.236104
  C           22.227572       29.939233        4.562940
  C           21.169194       31.037426        4.637903
  C           19.888886       30.237441        4.396544
  O           20.111898       28.937580        4.919539
  C           21.490037       28.766826        5.210184
  H           22.461434       29.710962        3.522332
  H           23.147041       30.188934        5.087119
  H           21.309998       31.824114        3.900453
  H           21.155832       31.481229        5.634158
  H           19.014002       30.666154        4.892788
  H           19.676832       30.157407        3.320975
  H           21.628001       28.774442        6.300656
  H           21.808138       27.793873        4.825937
  C            6.469073        7.123457       15.764144
  C            6.973188        7.605663       14.405779
  C            5.861640        8.573495       13.999354
  O            5.339340        9.125701       15.197339
  C            5.823127        8.395613       16.313501
  H            5.717547        6.343970       15.632720
  H            7.259645        6.749333       16.410336
  H            7.106088        6.802789       13.684482
  H            7.916764        8.140375       14.521583
  H            6.214164        9.391119       13.364775
  H            5.057088        8.042555       13.471131
  H            6.563150        9.008799       16.846972
  H            4.985659        8.196069       16.987521
  C           27.904978       30.614121        1.719167
  C           28.808639       31.837350        1.856705
  C           28.446702       32.321600        3.260957
  O           28.090467       31.172341        4.012752
  C           27.928157       30.061958        3.144649
  H           26.893768       30.920527        1.448551
  H           28.264197       29.891447        0.990305
  H           28.627420       32.595709        1.098689
  H           29.856867       31.538366        1.818103
  H           29.273556       32.825999        3.768272
  H           27.587254       33.006020        3.227218
  H           28.775168       29.375045        3.282286
  H           27.007830       29.538819        3.418141
  C           28.250094       18.361207        3.199439
  C           29.539389       18.051283        2.442157
  C           30.245756       19.406513        2.484780
  O           29.845819       20.040556        3.689328
  C           28.753400       19.339030        4.261496
  H           27.534449       18.854086        2.540207
  H           27.783374       17.481351        3.635974
  H           29.370488       17.705240        1.425169
  H           30.122846       17.303460        2.980676
  H           31.335968       19.323458        2.481320
  H           29.939816       20.031854        1.634150
  H           29.103755       18.799350        5.152685
  H           27.996971       20.065843        4.569771
  C            6.402698        8.196799        5.948495
  C            5.429840        7.077260        6.311800
  C            6.110021        5.868194        5.669201
  O            7.506492        6.116463        5.702758
  C            7.745116        7.471863        6.047500
  H            6.227934        8.531255        4.925138
  H            6.345177        9.052815        6.616676
  H            4.424590        7.237462        5.929250
  H            5.383585        6.954141        7.394558
  H            5.910891        4.931765        6.197331
  H            5.793300        5.753922        4.622850
  H            8.136099        7.515124        7.073893
  H            8.502341        7.874644        5.369377
  C           30.966345       31.495060       11.799217
  C           32.200308       31.357115       12.688102
  C           32.409391       32.803248       13.137997
  O           31.127034       33.408453       13.184732
  C           30.176905       32.570289       12.546269
  H           31.252231       31.854420       10.809878
  H           30.405173       30.569724       11.692555
  H           33.066427       30.957606       12.165831
  H           31.977840       30.722234       13.546645
  H           32.867771       32.883757       14.127380
  H           33.034900       33.348582       12.417185
  H           29.530088       32.117531       13.311029
  H           29.558387       33.185498       11.887159
  C           23.147478       24.969206       15.947896
  C           21.891075       25.835932       15.993152
  C           20.959258       25.062824       15.059642
  O           21.310981       23.692810       15.170314
  C           22.542468       23.567678       15.863622
  H           23.724008       25.187120       15.048013
  H           23.787914       25.091074       16.818257
  H           22.058162       26.856722       15.657584
  H           21.482482       25.855650       17.004253
  H           19.902815       25.172314       15.319285
  H           21.098478       25.383558       14.017544
  H           22.346821       23.167099       16.868351
  H           23.174855       22.858140       15.323144
  C            1.801289       20.349955       15.024018
  C            3.137303       20.410551       15.761043
  C            3.853155       21.522564       14.993968
  O            2.850911       22.414953       14.533484
  C            1.570811       21.825869       14.698476
  H            1.903185       19.771297       14.105086
  H            0.996819       19.928267       15.621969
  H            3.686734       19.472418       15.737206
  H            2.982368       20.706414       16.799370
  H            4.560958       22.083329       15.610434
  H            4.391594       21.113380       14.127438
  H            1.050195       22.330072       15.524889
  H            0.996937       21.979189       13.780525
  C           26.064816       10.419780       14.771425
  C           24.548648       10.460212       14.948653
  C           24.426206       10.534694       16.470783
  O           25.571063       11.227889       16.941612
  C           26.523459       11.347417       15.896839
  H           26.437497        9.408524       14.939157
  H           26.394697       10.762264       13.793457
  H           24.042111        9.591166       14.535474
  H           24.139229       11.361961       14.491611
  H           23.533747       11.070914       16.804638
  H           24.413810        9.527173       16.910065
  H           26.548198       12.391733       15.554766
  H           27.508686       11.087712       16.293519
  C           25.626508        8.383610        4.804479
  C           25.579938        9.264543        3.558044
  C           24.373748       10.153007        3.863260
  O           24.318915       10.301172        5.273202
  C           25.199193        9.373858        5.888098
  H           24.898913        7.575178        4.722579
  H           26.608997        7.959106        4.996960
  H           25.455772        8.701881        2.635801
  H           26.486033        9.867678        3.488179
  H           24.446265       11.146340        3.412146
  H           23.443947        9.679072        3.518184
  H           26.069017        9.916773        6.284166
  H           24.675943        8.898916        6.722433
  C            7.650204       12.907002        6.574990
  C            6.216018       12.755690        7.077012
  C            5.735487       14.206902        7.054772
  O            6.430889       14.853835        6.000830
  C            7.491959       14.028185        5.547699
  H            8.302655       13.228086        7.387933
  H            8.052136       11.997336        6.135110
  H            6.149729       12.313697        8.068366
  H            5.633368       12.153509        6.378756
  H            4.661664       14.301522        6.871951
  H            5.974872       14.710767        8.001892
  H            7.229120       13.618770        4.562044
  H            8.389526       14.643364        5.440921
  C           25.642489       27.356870        2.838189
  C           24.335268       27.274624        3.623185
  C           23.379405       26.735174        2.558882
  O           24.150340       25.922360        1.688312
  C           25.531817       26.124077        1.940752
  H           25.663056       28.264387        2.233495
  H           26.527710       27.330368        3.469235
  H           24.010456       28.232349        4.022931
  H           24.431247       26.560769        4.442246
  H           22.570568       26.128541        2.975118
  H           22.937119       27.558145        1.979812
  H           25.934944       25.236035        2.447795
  H           26.046367       26.241695        0.983214
  C           24.032235        3.736458        2.860779
  C           23.513652        4.876004        1.986525
  C           24.120702        6.091881        2.686921
  O           25.345276        5.665439        3.262649
  C           25.425029        4.249353        3.227500
  H           23.417409        3.638064        3.756308
  H           24.066753        2.778859        2.346630
  H           22.428320        4.925223        1.939961
  H           23.909946        4.785487        0.974388
  H           24.327500        6.921718        2.005688
  H           23.457464        6.452170        3.485999
  H           26.161694        3.952539        2.467601
  H           25.770048        3.896534        4.203181
  C           27.735857        3.130337       11.401890
  C           26.490523        2.800078       10.582205
  C           27.027450        1.720517        9.642163
  O           28.050312        1.034308       10.346271
  C           28.390850        1.753994       11.520572
  H           28.383167        3.810792       10.847242
  H           27.511096        3.565989       12.372573
  H           26.088991        3.654875       10.043103
  H           25.712967        2.387990       11.226606
  H           26.266538        0.995432        9.340937
  H           27.458540        2.171633        8.737245
  H           28.003523        1.212706       12.395333
  H           29.480649        1.801423       11.595162
  C           30.181163       14.702252        5.516421
  C           30.892066       13.719783        6.444420
  C           30.482948       14.253903        7.817285
  O           29.196963       14.833770        7.665978
  C           28.886383       14.960207        6.287410
  H           30.758760       15.623253        5.428094
  H           29.997232       14.301600        4.522346
  H           31.971308       13.704240        6.312011
  H           30.500662       12.712228        6.298478
  H           30.424818       13.474600        8.581995
  H           31.184943       15.027658        8.158936
  H           28.121827       14.215533        6.024474
  H           28.474357       15.958067        6.114252
  C           10.226598       10.069028        5.666201
  C           11.208803        8.899986        5.686824
  C           11.955693        9.158464        6.995551
  O           11.039364        9.793511        7.873019
  C            9.888830       10.203571        7.151203
  H           10.722259       10.972035        5.307644
  H            9.345210        9.882011        5.057337
  H           11.875220        8.880491        4.827729
  H           10.668436        7.954033        5.740097
  H           12.316288        8.243231        7.472829
  H           12.812078        9.827224        6.829461
  H            9.047467        9.549241        7.419868
  H            9.641123       11.227250        7.444797
  C           24.403629       19.900838       14.804214
  C           25.006389       20.552678       16.046630
  C           26.156270       19.595121       16.360124
  O           26.593985       19.059283       15.121504
  C           25.656329       19.373488       14.104168
  H           23.753308       19.073203       15.090163
  H           23.843241       20.594119       14.181428
  H           24.304346       20.639638       16.872529
  H           25.394170       21.542575       15.802921
  H           27.004303       20.085839       16.845418
  H           25.813297       18.772307       17.003216
  H           26.087517       20.141783       13.446884
  H           25.471239       18.473042       13.512212
  C           28.151895       29.577630        9.562188
  C           29.031701       28.615410       10.357100
  C           30.406845       28.895078        9.750317
  O           30.410455       30.256424        9.350793
  C           29.089894       30.773240        9.394577
  H           27.907451       29.149268        8.589349
  H           27.230512       29.844046       10.074646
  H           28.737647       27.573811       10.251546
  H           29.023377       28.882561       11.414561
  H           31.227860       28.737694       10.455042
  H           30.578189       28.263840        8.866914
  H           29.003482       31.458644       10.249547
  H           28.907143       31.337697        8.476174
  C           12.554740        7.234069        2.718075
  C           13.269636        6.098377        1.989421
  C           12.151157        5.062008        1.878232
  O           10.931648        5.781594        1.789402
  C           11.154179        7.145283        2.111474
  H           12.516801        7.030480        3.788951
  H           13.013615        8.206785        2.557467
  H           14.134387        5.716872        2.527191
  H           13.582843        6.424917        0.996981
  H           12.242822        4.423479        0.995423
  H           12.123228        4.422078        2.771502
  H           11.089618        7.743900        1.191849
  H           10.367436        7.473349        2.796223
  C           25.987673        1.986276        6.777422
  C           27.188472        2.605644        6.065891
  C           27.098453        1.941630        4.691699
  O           25.723099        1.698766        4.442067
  C           24.977536        1.890722        5.633782
  H           26.238966        0.990368        7.144414
  H           25.618868        2.587298        7.605247
  H           28.135351        2.403735        6.561056
  H           27.057398        3.684553        5.974034
  H           27.492786        2.566321        3.885636
  H           27.636390        0.983080        4.686566
  H           24.399206        2.821384        5.546468
  H           24.279637        1.056444        5.745100
  C           16.801093       10.222267        9.505260
  C           15.780811       11.084162        8.765010
  C           16.327082       12.487833        9.027147
  O           17.736311       12.366260        9.137554
  C           18.093169       10.997411        9.246199
  H           16.577410       10.205698       10.572665
  H           16.851502        9.200321        9.136991
  H           14.764446       10.961254        9.131662
  H           15.803610       10.862642        7.697268
  H           16.101239       13.194115        8.223634
  H           15.929131       12.890743        9.969230
  H           18.558616       10.674500        8.304228
  H           18.826267       10.892328       10.050561
  C           16.504028       11.744732       14.578207
  C           17.256300       10.868409       15.577185
  C           16.126918        9.989990       16.115977
  O           15.187337        9.837646       15.063895
  C           15.480310       10.754832       14.021862
  H           15.998548       12.560043       15.097264
  H           17.142002       12.159602       13.801413
  H           17.749668       11.435244       16.363202
  H           17.997059       10.257258       15.060046
  H           16.464830        8.997540       16.426353
  H           15.631072       10.473542       16.969519
  H           15.897103       10.202681       13.167676
  H           14.548295       11.231756       13.706641
  C           15.044356       12.477819        5.388340
  C           14.021354       12.954807        6.416815
  C           12.717231       12.811340        5.631896
  O           12.896030       11.728771        4.732467
  C           14.266608       11.365235        4.685001
  H           15.275684       13.279814        4.686232
  H           15.968872       12.117808        5.833534
  H           14.190754       13.974807        6.753623
  H           14.017523       12.290066        7.281551
  H           11.854200       12.595834        6.267671
  H           12.507789       13.723239        5.055011
  H           14.399610       10.407218        5.207243
  H           14.555189       11.234158        3.638572
  C            2.748425       20.559913        8.957537
  C            3.045877       20.118776       10.388876
  C            1.667458       19.644004       10.849280
  O            0.998964       19.147817        9.700449
  C            1.712549       19.519185        8.531783
  H            2.306380       21.557033        8.954147
  H            3.624910       20.557735        8.313871
  H            3.437979       20.917271       11.014336
  H            3.751744       19.287262       10.388480
  H            1.714561       18.846199       11.595444
  H            1.087317       20.479299       11.266341
  H            2.204045       18.628246        8.115996
  H            0.999270       19.898819        7.795179
  C            3.131001       24.787902       13.237037
  C            4.533317       24.202185       13.087843
  C            4.682644       24.164489       11.566758
  O            3.921014       25.245282       11.052264
  C            3.094689       25.779824       12.074198
  H            2.379974       24.009934       13.094257
  H            2.964362       25.270574       14.197139
  H            4.640573       23.218118       13.538004
  H            5.271995       24.875881       13.523908
  H            5.717616       24.279110       11.233341
  H            4.286186       23.223469       11.159912
  H            3.495297       26.755880       12.382500
  H            2.090901       25.928503       11.667042
  C           15.036645       31.286135       10.277854
  C           14.554098       30.751597        8.931292
  C           13.524261       31.811374        8.539208
  O           13.962568       33.038007        9.101484
  C           15.007242       32.794496       10.030060
  H           14.330797       31.018246       11.065050
  H           16.027200       30.931956       10.553344
  H           14.120119       29.756353        8.992025
  H           15.375694       30.738854        8.214018
  H           13.429426       31.939322        7.457492
  H           12.535303       31.563992        8.950286
  H           15.957309       33.136171        9.595487
  H           14.809802       33.375174       10.935214
  C           17.967432       18.044196        4.086473
  C           17.546792       18.044909        2.618525
  C           18.670545       17.225297        1.983830
  O           19.107174       16.297953        2.964791
  C           18.560817       16.642314        4.228043
  H           18.735328       18.799260        4.259325
  H           17.141162       18.214303        4.772679
  H           17.470796       19.042081        2.191431
  H           16.591257       17.532598        2.499559
  H           18.350073       16.669390        1.098541
  H           19.514104       17.872222        1.704335
  H           17.780305       15.913823        4.489432
  H           19.355098       16.585245        4.977266
  C           15.715449        5.756987       15.145243
  C           16.714702        6.199530       16.211761
  C           17.732344        6.968656       15.368986
  O           17.020603        7.532512       14.278854
  C           15.722354        6.964710       14.207811
  H           16.085461        4.872422       14.625341
  H           14.724809        5.547502       15.541837
  H           17.166994        5.370284       16.750573
  H           16.232732        6.868076       16.926194
  H           18.222943        7.776536       15.918637
  H           18.505169        6.291701       14.978225
  H           14.987148        7.714249       14.533211
  H           15.514457        6.702302       13.166949
  C           13.266704       18.265413       10.008484
  C           13.892703       19.649912        9.856504
  C           12.752764       20.423691        9.193764
  O           11.541616       19.849088        9.658359
  C           11.814408       18.625435       10.322553
  H           13.325773       17.719094        9.066300
  H           13.723631       17.668643       10.794373
  H           14.797862       19.650927        9.253823
  H           14.116900       20.072334       10.836788
  H           12.751660       21.487598        9.445904
  H           12.798435       20.323372        8.100114
  H           11.673560       18.767384       11.403401
  H           11.100237       17.874377        9.974205
  C           16.314117       24.915984        4.633450
  C           16.154885       24.052894        3.383837
  C           17.452263       24.363619        2.637057
  O           18.436572       24.639646        3.620846
  C           17.817544       24.802665        4.886992
  H           16.044208       25.949917        4.414828
  H           15.725194       24.566106        5.478016
  H           15.272129       24.299045        2.798441
  H           16.118737       22.997389        3.656357
  H           17.802337       23.532349        2.019067
  H           17.330369       25.248596        1.996605
  H           18.042274       23.924935        5.509334
  H           18.240295       25.688405        5.368884
  C            5.587712        3.672334        1.918117
  C            4.951595        3.110969        3.187776
  C            5.565849        1.711829        3.237969
  O            6.850848        1.805734        2.643952
  C            6.984573        3.054352        1.983674
  H            5.055064        3.310873        1.037608
  H            5.617469        4.759104        1.893995
  H            3.865101        3.084091        3.151077
  H            5.264479        3.692850        4.055636
  H            5.680735        1.328925        4.255642
  H            4.958313        0.999116        2.662503
  H            7.665950        3.693003        2.563390
  H            7.424614        2.880672        0.997939
  C           25.251539        8.591929       11.442166
  C           24.408327        9.862221       11.526804
  C           23.083610        9.308742       12.052356
  O           23.399052        8.185628       12.859826
  C           24.756325        7.820797       12.665906
  H           25.016990        8.043477       10.529012
  H           26.321864        8.780733       11.478131
  H           24.294281       10.369432       10.571677
  H           24.841749       10.555419       12.248805
  H           22.527768       10.028154       12.659776
  H           22.441577        8.981893       11.222184
  H           25.331536        8.099011       13.560305
  H           24.809995        6.735885       12.541167
  C           15.571592       19.595136       16.053216
  C           14.405810       20.581391       16.061279
  C           13.553128       20.047716       14.909955
  O           13.759284       18.644827       14.861999
  C           14.860582       18.292910       15.684309
  H           16.290026       19.866442       15.278679
  H           16.087272       19.528054       17.008261
  H           14.711768       21.613144       15.905036
  H           13.858247       20.510703       17.001939
  H           12.484523       20.237461       15.042441
  H           13.870685       20.487584       13.953977
  H           14.485611       17.785635       16.584470
  H           15.497719       17.596585       15.132347
  C            1.913556       25.609202        4.656524
  C            2.009049       26.938977        3.911949
  C            2.986450       26.585683        2.790659
  O            2.792108       25.211978        2.493909
  C            1.992853       24.611600        3.500703
  H            2.769483       25.486699        5.321388
  H            0.997753       25.501683        5.232963
  H            2.369612       27.756321        4.532014
  H            1.037652       27.209098        3.495915
  H            2.821510       27.164919        1.878106
  H            4.024989       26.736286        3.117732
  H            0.993112       24.411398        3.090022
  H            2.449366       23.659612        3.784934
  C            4.655555       30.793825       13.195708
  C            3.997850       30.601087       11.831125
  C            3.654211       29.111883       11.871152
  O            3.403371       28.784474       13.228642
  C            3.824811       29.849915       14.065373
  H            5.694416       30.463030       13.163976
  H            4.620546       31.821034       13.550889
  H            4.649937       30.852354       10.997947
  H            3.087320       31.197760       11.763450
  H            2.767582       28.859243       11.283330
  H            4.498021       28.507809       11.508798
  H            2.937881       30.364653       14.461127
  H            4.387393       29.431188       14.904207
  C            8.424094       31.708137       16.337685
  C            9.804883       32.308012       16.081983
  C           10.205761       31.598149       14.788611
  O            9.008133       31.341805       14.072460
  C            7.887943       31.570575       14.912540
  H            8.519533       30.726010       16.802422
  H            7.789125       32.335041       16.959251
  H           10.510930       32.126386       16.888857
  H            9.724226       33.382741       15.914311
  H           10.867022       32.197090       14.156569
  H           10.702088       30.642035       15.007076
  H            7.386650       32.495575       14.594260
  H            7.189355       30.737805       14.794463
  C           14.594510       28.265532        4.343888
  C           13.786434       29.189318        5.252428
  C           12.356143       28.774145        4.907002
  O           12.400638       27.400296        4.555639
  C           13.748318       26.992735        4.380856
  H           14.628455       28.667955        3.330692
  H           15.610367       28.096553        4.693196
  H           13.966749       30.245239        5.065199
  H           14.001251       28.971348        6.299331
  H           11.659495       28.897098        5.740691
  H           11.980222       29.349503        4.049175
  H           14.040655       26.355400        5.227358
  H           13.816818       26.404020        3.462055
  C           21.745762        6.680648       15.830041
  C           23.249820        6.556459       15.597235
  C           23.482467        5.080007       15.918770
  O           22.291820        4.391257       15.571092
  C           21.251142        5.324210       15.327201
  H           21.536417        6.788588       16.895023
  H           21.292605        7.510603       15.293049
  H           23.840630        7.215040       16.229493
  H           23.487792        6.758082       14.552064
  H           24.312916        4.643357       15.357374
  H           23.674294        4.940909       16.992118
  H           21.049697        5.359294       14.247197
  H           20.348406        4.979182       15.838570
  C           18.503637       16.305758        7.840407
  C           20.027463       16.241563        7.915546
  C           20.405358       17.686060        7.586844
  O           19.350373       18.505603        8.064602
  C           18.233629       17.700060        8.406478
  H           18.174296       16.248675        6.802169
  H           18.009602       15.524522        8.413240
  H           20.464809       15.531156        7.217988
  H           20.345015       15.988437        8.927846
  H           21.336400       18.005851        8.062625
  H           20.501486       17.825771        6.500814
  H           18.141462       17.664579        9.501224
  H           17.332355       18.163577        7.996195
  C            8.405427       31.072794       10.220020
  C            9.750529       31.359566       10.883552
  C           10.097357       32.721894       10.282560
  O            8.868693       33.387667       10.037550
  C            7.792411       32.472371       10.166959
  H            8.556967       30.687655        9.210879
  H            7.788780       30.372585       10.778581
  H           10.507044       30.608537       10.668662
  H            9.628076       31.442899       11.964165
  H           10.702792       33.343691       10.947609
  H           10.633962       32.602227        9.330743
  H            7.246032       32.693445       11.094761
  H            7.113526       32.612665        9.321437
  C           19.951430       27.132237        3.067368
  C           18.491482       27.577336        3.114815
  C           18.204589       27.824141        1.633531
  O           19.018128       26.921267        0.901500
  C           19.979710       26.334040        1.763719
  H           20.608254       27.999915        2.994020
  H           20.248526       26.533319        3.925020
  H           18.330273       28.465983        3.720500
  H           17.862918       26.769912        3.492486
  H           17.159971       27.648281        1.362757
  H           18.470708       28.852692        1.351603
  H           19.704095       25.285243        1.943394
  H           20.952970       26.357753        1.266048
  C           30.868453       26.219732        6.434640
  C           29.594636       26.410590        5.614411
  C           29.179736       27.822634        6.028429
  O           30.372939       28.532320        6.320851
  C           31.463192       27.627683        6.397516
  H           30.619255       25.941217        7.459332
  H           31.542891       25.475250        6.018206
  H           28.825702       25.673311        5.832806
  H           29.824182       26.380951        4.548534
  H           28.639636       28.359525        5.243882
  H           28.551297       27.795143        6.929833
  H           32.098233       27.758714        5.509950
  H           32.052915       27.868912        7.286059
  C           22.812404       15.715159       15.179331
  C           22.715420       14.354318       15.865273
  C           24.190741       13.969849       15.979424
  O           24.921193       15.178765       16.113053
  C           24.080920       16.282815       15.816555
  H           22.953224       15.587189       14.105340
  H           21.945011       16.348187       15.350916
  H           22.141068       13.625033       15.298880
  H           22.274768       14.462269       16.857158
  H           24.404496       13.337313       16.845265
  H           24.528212       13.447775       15.072907
  H           23.844193       16.811614       16.750660
  H           24.624270       16.965898       15.158040
  C           13.826066       32.579198        2.552977
  C           12.462089       32.037478        2.974781
  C           12.136168       31.103937        1.808722
  O           13.372938       30.608581        1.320951
  C           14.443074       31.350825        1.883783
  H           13.704334       33.384274        1.827238
  H           14.424227       32.939768        3.386481
  H           11.710977       32.812883        3.105608
  H           12.552013       31.468645        3.901067
  H           11.512113       30.254514        2.099427
  H           11.628323       31.651318        1.002069
  H           14.961605       30.724066        2.623052
  H           15.147448       31.603712        1.086677
  C            1.814365       20.297541        3.585300
  C            1.618601       20.986973        4.933696
  C            3.062345       21.105966        5.422435
  O            3.877139       21.238142        4.268513
  C            3.118750       20.936453        3.108027
  H            1.948200       19.224271        3.726164
  H            0.994106       20.465159        2.891314
  H            0.994861       20.421116        5.621658
  H            1.184465       21.977423        4.791580
  H            3.228229       21.974089        6.066110
  H            3.363721       20.201757        5.969975
  H            2.918276       21.868491        2.560909
  H            3.711155       20.277459        2.467515
  C            7.872455        1.593659        6.255167
  C            9.287207        2.145548        6.094837
  C            9.038385        3.350314        5.187066
  O            7.737362        3.829631        5.487885
  C            7.049745        2.881845        6.288997
  H            7.600603        0.993883        5.385669
  H            7.741245        0.995936        7.154083
  H            9.981452        1.433354        5.655132
  H            9.676151        2.472909        7.059835
  H            9.752997        4.162616        5.345077
  H            9.073463        3.054336        4.129055
  H            6.975324        3.269356        7.314920
  H            6.039465        2.757422        5.889840
  C           11.903465       12.522233       15.390778
  C           11.535482       11.108975       15.836988
  C           12.881451       10.394704       15.712076
  O           13.885931       11.363372       15.968198
  C           13.313005       12.661312       15.966342
  H           11.932188       12.578676       14.301901
  H           11.226014       13.284547       15.768235
  H           10.765055       10.648895       15.222736
  H           11.205652       11.115386       16.876620
  H           13.000496        9.574051       16.424699
  H           13.019061        9.998517       14.696044
  H           13.276567       13.036379       16.998921
  H           13.954286       13.323252       15.378069
  C            8.002752        7.943154       10.464237
  C            6.866291        8.642373        9.721702
  C            6.911693       10.036491       10.347636
  O            8.263350       10.284725       10.700195
  C            9.011534        9.082604       10.610630
  H            7.663404        7.609883       11.445785
  H            8.414126        7.094113        9.923461
  H            5.900998        8.160155        9.856659
  H            7.090444        8.698789        8.655758
  H            6.580016       10.824721        9.666345
  H            6.293444       10.075833       11.255624
  H            9.668488        9.136286        9.730999
  H            9.634093        8.993460       11.505028
  C            7.101581       20.245321       11.080216
  C            7.210198       21.004165        9.759546
  C            8.711666       21.285547        9.697600
  O            9.358455       20.213347       10.364644
  C            8.401547       19.440685       11.071905
  H            7.094628       20.944251       11.917540
  H            6.222074       19.608737       11.141574
  H            6.617696       21.915692        9.735104
  H            6.911025       20.362413        8.929899
  H            9.096786       21.341861        8.675845
  H            8.953335       22.224841       10.214848
  H            8.262737       18.482181       10.552076
  H            8.789426       19.239990       12.074274
  C           23.269872       15.696530        1.959697
  C           22.585778       14.331911        1.919173
  C           21.642200       14.433407        3.117830
  O           21.282812       15.800161        3.243207
  C           22.121165       16.594669        2.419302
  H           24.069597       15.695843        2.701386
  H           23.676374       16.004648        0.999303
  H           23.278664       13.498536        2.008236
  H           22.014687       14.223363        0.996278
  H           20.729307       13.843800        2.997563
  H           22.147599       14.111707        4.039406
  H           21.538944       16.953071        1.558612
  H           22.456734       17.460105        2.997132
  C           23.681410       17.581321        5.370485
  C           25.069193       17.894446        4.815667
  C           24.716636       18.610279        3.511555
  O           23.482863       19.276184        3.728973
  C           22.898878       18.822047        4.939600
  H           23.274505       16.691276        4.888913
  H           23.669203       17.438926        6.448498
  H           25.677831       17.008771        4.649305
  H           25.600135       18.570688        5.486830
  H           25.463126       19.350976        3.212233
  H           24.592381       17.888005        2.692347
  H           22.981457       19.616159        5.695105
  H           21.839183       18.621223        4.760186
  C           23.343874       26.409860        8.294910
  C           24.383908       26.880158        7.280533
  C           25.583206       27.158081        8.187099
  O           25.492940       26.253782        9.276591
  C           24.216557       25.634336        9.282030
  H           22.884017       27.266778        8.788758
  H           22.563764       25.790719        7.858297
  H           24.075298       27.760762        6.722113
  H           24.617349       26.077614        6.579753
  H           26.543982       27.005768        7.687917
  H           25.548920       28.186496        8.573633
  H           24.326921       24.587651        8.965025
  H           23.827502       25.649345       10.303737
  C           18.800043       31.219217       11.636064
  C           18.834315       32.595947       12.295800
  C           17.369461       32.773691       12.695836
  O           16.856634       31.478254       12.963697
  C           17.771288       30.495413       12.505082
  H           18.438171       31.301198       10.610398
  H           19.764768       30.717386       11.633323
  H           19.179852       33.384705       11.631719
  H           19.468676       32.573638       13.182791
  H           17.239518       33.390330       13.589337
  H           16.793277       33.222339       11.874283
  H           18.255915       30.026717       13.373230
  H           17.213172       29.728100       11.961750
  C           32.465797        3.613096        9.897067
  C           31.040607        4.120315       10.105331
  C           30.383315        3.719602        8.784416
  O           31.039226        2.542859        8.339495
  C           32.214985        2.330014        9.104468
  H           33.035189        4.323564        9.296492
  H           32.998251        3.426964       10.826790
  H           30.985315        5.191195       10.286150
  H           30.570448        3.593844       10.936860
  H           29.315530        3.506019        8.882869
  H           30.514304        4.507822        8.029585
  H           32.050652        1.479971        9.781699
  H           33.032197        2.078987        8.422835
  C           15.304128       24.188977        8.472567
  C           16.259991       23.475715        9.426189
  C           17.592547       24.129949        9.060549
  O           17.299155       25.453117        8.640972
  C           15.901160       25.596195        8.445948
  H           15.354251       23.737939        7.480743
  H           14.271327       24.184752        8.812924
  H           16.278892       22.396754        9.291944
  H           15.999013       23.701489       10.460877
  H           18.292156       24.178600        9.899389
  H           18.075908       23.592329        8.232570
  H           15.488647       26.209504        9.259525
  H           15.733980       26.116360        7.498872
  C           13.724703       19.008743        5.251931
  C           14.256168       18.140735        6.390316
  C           13.188298       17.048782        6.458948
  O           12.682744       16.885280        5.143433
  C           13.129327       17.951879        4.321347
  H           12.942051       19.674130        5.618509
  H           14.495308       19.601371        4.764596
  H           14.359512       18.677199        7.330562
  H           15.220570       17.710160        6.117927
  H           13.578219       16.087076        6.803269
  H           12.365282       17.350330        7.122224
  H           13.891274       17.571433        3.626424
  H           12.280467       18.320663        3.739188
  C           21.491423       22.950505       11.748111
  C           22.032663       23.553768       10.453915
  C           21.132125       22.888348        9.412921
  O           19.878956       22.661907       10.038372
  C           19.996870       22.865216       11.437535
  H           21.903723       21.952275       11.900457
  H           21.696829       23.557547       12.626658
  H           23.085753       23.341183       10.285548
  H           21.882085       24.634031       10.449261
  H           20.970869       23.506650        8.525694
  H           21.551574       21.923263        9.095281
  H           19.489482       23.802738       11.705550
  H           19.497249       22.039771       11.951825
  C            7.388784       10.137746        2.694538
  C            8.620987        9.360158        2.237543
  C            8.088471        7.927033        2.237093
  O            6.704978        8.002919        1.931995
  C            6.267953        9.350099        2.015737
  H            7.287716       10.081207        3.779089
  H            7.400848       11.182447        2.392892
  H            9.477670        9.482357        2.896100
  H            8.902723        9.659370        1.227217
  H            8.573546        7.288318        1.493978
  H            8.210351        7.466175        3.227535
  H            6.085369        9.729418        1.000354
  H            5.326671        9.376038        2.571425
  C           12.147159       24.073369        6.738434
  C           11.795883       24.294162        5.268853
  C           12.967130       23.600594        4.572747
  O           13.379010       22.539928        5.420236
  C           12.766091       22.676146        6.692506
  H           12.888122       24.804869        7.063311
  H           11.285860       24.122129        7.400493
  H           11.716535       25.344005        4.996694
  H           10.859298       23.791133        5.025061
  H           12.701677       23.183096        3.597707
  H           13.807399       24.296379        4.438386
  H           11.991551       21.903595        6.799621
  H           13.525507       22.516733        7.462797
  C           10.824561       27.830991        8.715300
  C           11.061000       26.836370        9.849600
  C           12.567571       26.602869        9.734958
  O           13.133337       27.806190        9.240165
  C           12.104151       28.665476        8.776160
  H           10.759868       27.306683        7.761057
  H            9.930507       28.435205        8.849941
  H           10.491072       25.916369        9.743219
  H           10.821236       27.295005       10.809720
  H           13.039827       26.364744       10.691904
  H           12.782745       25.790198        9.026801
  H           11.991275       29.500212        9.482343
  H           12.400678       29.069431        7.804375
  C           19.445172        9.684496        4.143060
  C           18.244238        8.842401        4.567849
  C           17.391001        8.875112        3.299647
  O           18.287044        8.973486        2.204053
  C           19.589122        9.282982        2.674903
  H           19.208894       10.746273        4.223469
  H           20.344096        9.476069        4.718412
  H           17.718007        9.244615        5.430311
  H           18.558023        7.820925        4.786455
  H           16.780010        7.977810        3.169213
  H           16.728838        9.752472        3.298513
  H           20.225242        8.392081        2.575568
  H           20.004401       10.078521        2.050294
  C           30.257246       19.660571        8.817172
  C           30.023853       18.154942        8.919247
  C           29.863713       17.775478        7.446908
  O           30.662160       18.679929        6.700351
  C           31.080821       19.750261        7.532221
  H           29.307221       20.182243        8.694798
  H           30.782432       20.075378        9.674290
  H           29.150066       17.892395        9.510941
  H           30.901380       17.664935        9.342923
  H           30.194645       16.756863        7.226950
  H           28.816353       17.879206        7.129891
  H           32.152540       19.635893        7.748000
  H           30.932951       20.688919        6.991362
  C            8.865840       23.999773        6.874997
  C            7.488377       23.790195        6.250110
  C            6.724555       23.156176        7.412872
  O            7.282175       23.682728        8.606480
  C            8.491399       24.363826        8.311896
  H            9.434199       23.069029        6.856397
  H            9.446444       24.780295        6.388972
  H            7.505871       23.151526        5.370148
  H            7.044401       24.750440        5.984633
  H            5.655082       23.383160        7.399464
  H            6.850494       22.064224        7.412008
  H            8.323665       25.445866        8.408210
  H            9.246792       24.062350        9.042627
  C           18.365748       27.789703        7.018503
  C           18.951537       29.042593        7.665751
  C           19.661034       28.448141        8.882575
  O           20.082581       27.144022        8.515875
  C           19.467354       26.766144        7.294564
  H           17.444130       27.499336        7.524438
  H           18.166271       27.905479        5.955798
  H           18.199373       29.776999        7.944022
  H           19.675247       29.509768        6.996681
  H           20.538359       29.022654        9.191942
  H           18.972849       28.373431        9.736414
  H           20.222036       26.781447        6.495539
  H           19.089766       25.745173        7.397128
  C           25.813066       32.676827       12.639694
  C           24.307716       32.480870       12.474364
  C           24.261643       31.437263       11.358039
  O           25.429618       30.642703       11.489974
  C           26.328756       31.257858       12.398836
  H           26.192194       33.352529       11.872002
  H           26.094133       33.057936       13.618619
  H           23.779888       33.393716       12.208569
  H           23.877270       32.074265       13.390362
  H           23.387776       30.782783       11.417070
  H           24.269760       31.921930       10.371504
  H           26.337881       30.682774       13.335541
  H           27.332206       31.232841       11.965320
  C           22.675101       12.956065       12.383820
  C           22.370217       13.042327       10.890028
  C           21.227834       12.034863       10.758128
  O           20.524007       12.048215       11.989935
  C           21.275406       12.753980       12.964712
  H           23.300141       12.086731       12.591781
  H           23.161333       13.845510       12.777524
  H           23.219715       12.788437       10.260401
  H           22.022962       14.043834       10.633003
  H           20.527691       12.281360        9.955312
  H           21.619548       11.022998       10.582317
  H           20.790355       13.721435       13.157007
  H           21.274114       12.173734       13.891419
  C           20.121729       13.186297        5.576486
  C           21.269878       12.292433        6.039705
  C           21.295670       12.589757        7.539156
  O           19.963345       12.893367        7.920767
  C           19.164326       13.084846        6.764134
  H           20.468069       14.213575        5.456436
  H           19.664038       12.854880        4.647391
  H           22.217083       12.520928        5.556869
  H           21.025339       11.243751        5.866123
  H           21.644911       11.745005        8.139070
  H           21.934433       13.458407        7.752816
  H           18.491358       12.223388        6.649134
  H           18.558025       13.983646        6.905669
  C           32.028497       10.796699        7.568138
  C           31.381014       10.133546        6.354547
  C           32.004064        8.738375        6.406771
  O           32.247444        8.448035        7.774018
  C           32.095689        9.626344        8.549553
  H           33.033457       11.139871        7.319238
  H           31.454740       11.632804        7.960909
  H           31.592084       10.645491        5.418653
  H           30.300628       10.070720        6.490497
  H           31.353182        7.961188        5.997130
  H           32.958841        8.717828        5.862528
  H           31.166255        9.552694        9.131746
  H           32.937029        9.695628        9.244407
  C           15.301812        3.115389        8.590994
  C           16.605801        3.079656        7.797176
  C           17.289758        1.851631        8.398490
  O           16.259528        0.959303        8.792536
  C           15.006701        1.623820        8.750847
  H           15.466266        3.575145        9.566311
  H           14.499569        3.642852        8.080382
  H           17.203726        3.981198        7.907835
  H           16.398856        2.917083        6.738683
  H           17.945089        1.335274        7.691814
  H           17.879219        2.128857        9.283873
  H           14.431518        1.246741        7.893411
  H           14.458664        1.389761        9.667551
  C           26.517382       31.370763        7.269581
  C           25.269354       30.687227        6.715490
  C           24.160505       31.478576        7.409493
  O           24.654943       32.794007        7.604601
  C           26.051083       32.824326        7.354061
  H           26.746464       30.988486        8.265095
  H           27.392096       31.253765        6.634188
  H           25.222299       29.624639        6.941829
  H           25.212396       30.824191        5.634907
  H           23.240893       31.536867        6.820944
  H           23.922244       31.038482        8.388150
  H           26.231509       33.346845        6.403987
  H           26.536065       33.385474        8.157417
  C           26.983828       14.851920       11.176278
  C           25.673818       14.122819       11.466277
  C           26.140111       13.046123       12.446439
  O           27.235783       13.590928       13.164484
  C           27.671093       14.788435       12.540483
  H           27.564832       14.303085       10.434066
  H           26.842466       15.873712       10.832049
  H           25.209045       13.700132       10.578663
  H           24.966760       14.796246       11.952309
  H           25.367396       12.752368       13.162046
  H           26.477397       12.149217       11.907906
  H           27.376160       15.643478       13.165094
  H           28.762109       14.767582       12.471757
  C            5.601819        5.304785       10.147109
  C            6.176419        3.905144       10.353628
  C            7.108198        4.135728       11.543603
  O            6.533592        5.174921       12.320005
  C            5.489742        5.799126       11.589498
  H            6.305879        5.923143        9.588901
  H            4.643022        5.306748        9.634037
  H            6.704504        3.522271        9.483530
  H            5.382786        3.207571       10.624186
  H            7.223491        3.251995       12.177003
  H            8.103506        4.454084       11.202674
  H            4.524530        5.507386       12.027077
  H            5.600627        6.882888       11.682444
  C            2.328707       15.755281       11.851816
  C            1.870397       15.618754       10.401601
  C            3.113818       16.091477        9.648037
  O            4.234386       15.745588       10.446526
  C            3.800573       15.357052       11.740259
  H            2.241058       16.791994       12.179242
  H            1.779247       15.117655       12.540339
  H            0.993115       16.217237       10.167655
  H            1.661334       14.573901       10.168712
  H            3.227302       15.620836        8.667685
  H            3.095670       17.182134        9.512541
  H            3.918416       14.269130       11.843989
  H            4.436316       15.848248       12.481899
  C           22.277235        4.048106       12.466063
  C           21.080054        3.600326       11.630562
  C           21.645115        3.708765       10.214099
  O           23.036345        3.446063       10.305544
  C           23.439028        3.458695       11.665905
  H           22.341468        5.136838       12.480181
  H           22.251709        3.680485       13.489166
  H           20.198208        4.220673       11.772178
  H           20.827120        2.564152       11.858664
  H           21.201244        2.991857        9.518043
  H           21.499208        4.721828        9.813305
  H           23.648339        2.427972       11.985312
  H           24.359389        4.042888       11.750332
  C           31.572025       16.333701       13.657100
  C           31.436800       17.321069       12.500108
  C           29.976907       17.112722       12.096717
  O           29.272934       16.750962       13.274192
  C           30.193709       16.444847       14.309259
  H           31.729572       15.324235       13.275237
  H           32.376119       16.582547       14.345610
  H           32.124038       17.123297       11.680884
  H           31.589398       18.341157       12.854787
  H           29.514373       18.010335       11.677400
  H           29.887993       16.298366       11.363819
  H           30.178414       17.255635       15.051291
  H           29.873098       15.520414       14.797220
  C           18.141837       19.578689       11.374976
  C           17.684579       20.207426       12.689288
  C           16.747423       21.305813       12.186591
  O           16.175084       20.835547       10.976560
  C           16.868279       19.679049       10.535096
  H           18.937815       20.175564       10.927961
  H           18.485397       18.552659       11.483449
  H           18.502635       20.603576       13.286269
  H           17.130176       19.479558       13.283012
  H           15.939618       21.535507       12.886709
  H           17.305814       22.230074       11.981254
  H           16.228718       18.798803       10.691139
  H           17.066083       19.780125        9.464521
  C           24.922411       31.462452        3.126559
  C           24.629726       31.777372        1.661304
  C           23.183087       32.265328        1.742286
  O           23.025902       32.875603        3.013408
  C           24.143020       32.571606        3.833487
  H           24.514977       30.485945        3.391315
  H           25.982188       31.482882        3.369441
  H           24.739611       30.917743        1.004417
  H           25.280408       32.579355        1.310450
  H           22.933040       32.999186        0.971311
  H           22.482752       31.421868        1.662739
  H           24.761623       33.473706        3.941963
  H           23.778842       32.278438        4.821870
  C            1.996089        5.810518        4.995130
  C            2.671926        4.857852        5.978736
  C            2.043010        3.521752        5.582853
  O            1.763999        3.594578        4.193700
  C            1.900014        4.934018        3.746155
  H            0.998947        6.074217        5.349861
  H            2.562525        6.721698        4.817824
  H            2.486435        5.109277        7.020329
  H            3.748291        4.835933        5.803746
  H            2.701439        2.667144        5.760585
  H            1.102299        3.357825        6.127290
  H            2.814107        5.016706        3.141326
  H            1.041539        5.178105        3.114558
  C            4.753958       17.877750        4.435286
  C            5.169777       17.660809        2.982068
  C            6.018385       16.394423        3.098486
  O            5.486251       15.640946        4.176448
  C            4.572312       16.437116        4.913824
  H            5.558780       18.361943        4.989797
  H            3.845529       18.465988        4.541447
  H            5.727752       18.494969        2.563288
  H            4.292073       17.472425        2.362543
  H            5.993998       15.776112        2.197059
  H            7.064778       16.646211        3.321835
  H            3.550407       16.085936        4.712318
  H            4.780731       16.308481        5.979416
  C           29.568743       22.159606       13.573111
  C           29.992186       20.778690       13.077553
  C           29.239885       19.867790       14.047977
  O           28.049353       20.548594       14.411344
  C           28.119250       21.899657       13.983981
  H           30.162411       22.447194       14.441739
  H           29.650518       22.934552       12.814619
  H           31.067340       20.618966       13.110246
  H           29.639119       20.619047       12.057984
  H           28.968675       18.903411       13.609922
  H           29.836703       19.685578       14.952869
  H           27.441590       22.038879       13.129805
  H           27.782919       22.540964       14.803175
  C           17.970426       12.539554        1.990120
  C           18.117261       14.022694        2.322602
  C           16.679314       14.512716        2.150528
  O           15.831823       13.425905        2.487421
  C           16.594913       12.233678        2.583269
  H           17.956983       12.394706        0.909148
  H           18.753395       11.920526        2.421746
  H           18.812618       14.544963        1.669724
  H           18.438142       14.147419        3.357562
  H           16.433043       15.358856        2.797730
  H           16.489193       14.803044        1.107558
  H           16.681734       11.950113        3.641699
  H           16.064868       11.438349        2.052254
  C            3.087615        2.946513       12.716125
  C            2.561029        3.761452       13.895274
  C            1.848779        4.906381       13.174677
  O            1.371439        4.384070       11.944948
  C            1.951948        3.111747       11.705988
  H            4.005362        3.391584       12.329712
  H            3.274313        1.903553       12.960904
  H            3.345315        4.115989       14.559906
  H            1.845212        3.173214       14.470813
  H            0.999334        5.305255       13.735761
  H            2.547197        5.728980       12.965476
  H            1.185682        2.337254       11.851643
  H            2.291499        3.074385       10.667343
  C           12.599776       29.183573       13.466364
  C           13.899547       28.454660       13.799667
  C           14.935866       29.385711       13.169899
  O           14.404734       30.699402       13.240682
  C           13.032590       30.644050       13.597125
  H           12.299016       28.968555       12.440218
  H           11.780456       28.933915       14.136381
  H           13.946914       27.447694       13.391852
  H           14.039768       28.408345       14.880341
  H           15.898168       29.371656       13.688792
  H           15.103245       29.125208       12.115222
  H           12.919152       30.992362       14.633481
  H           12.475664       31.317998       12.940542
  C            1.761703       24.341300        7.819650
  C            3.160743       24.007637        8.332648
  C            3.958467       25.213117        7.834778
  O            3.067098       26.316770        7.817202
  C            1.734589       25.860604        7.988168
  H            1.673129       24.075963        6.765414
  H            0.968349       23.849527        8.377581
  H            3.549181       23.067677        7.947775
  H            3.165109       23.975224        9.422874
  H            4.807179       25.462260        8.477498
  H            4.330814       25.039336        6.815278
  H            1.390537       26.134430        8.995575
  H            1.098511       26.363309        7.254571
  C            8.045550       13.679117       10.167845
  C            8.280977       15.117656       10.622806
  C            7.218965       15.265458       11.712626
  O            7.042778       13.982119       12.291328
  C            7.682422       13.001867       11.489544
  H            7.203248       13.635133        9.476284
  H            8.915460       13.227025        9.697306
  H            8.159905       15.847947        9.826217
  H            9.279011       15.219496       11.050849
  H            7.506906       15.965673       12.501461
  H            6.263255       15.596787       11.282438
  H            8.585806       12.651099       12.008275
  H            7.001243       12.155560       11.366118
  C           25.878148       15.594310        8.111085
  C           24.730065       15.031022        7.276565
  C           23.515983       15.562656        8.038660
  O           23.903398       16.798473        8.617939
  C           25.310674       16.952468        8.524366
  H           26.046590       14.971274        8.990356
  H           26.809609       15.686866        7.557595
  H           24.734720       13.945478        7.212455
  H           24.756302       15.447552        6.268855
  H           22.647970       15.736739        7.397005
  H           23.225099       14.868909        8.840110
  H           25.536145       17.715602        7.766071
  H           25.687104       17.299835        9.490342
  C           31.377654       27.679022       13.666886
  C           32.344006       26.498515       13.733064
  C           31.374210       25.323442       13.860026
  O           30.190231       25.691544       13.170393
  C           30.222623       27.076970       12.866351
  H           31.042879       27.949266       14.669162
  H           31.800825       28.557174       13.184899
  H           33.037322       26.554149       14.568979
  H           32.910971       26.422466       12.804393
  H           31.758921       24.399036       13.420773
  H           31.128285       25.133878       14.914449
  H           30.390532       27.201284       11.787196
  H           29.251609       27.511016       13.119743
  C           17.882897        2.922059       11.855309
  C           16.587172        2.114051       11.849806
  C           15.549124        3.209663       12.093756
  O           16.063526        4.398982       11.515996
  C           17.430908        4.218791       11.183288
  H           18.201067        3.117981       12.880026
  H           18.695304        2.439311       11.317269
  H           16.557702        1.339746       12.612774
  H           16.431825        1.656706       10.871866
  H           14.579619        2.992781       11.637142
  H           15.400193        3.371958       13.170650
  H           17.525129        4.144333       10.090676
  H           17.989268        5.095790       11.521783
  C           22.294043       16.667572       11.784733
  C           23.355082       17.394773       12.607646
  C           23.647789       18.603831       11.718872
  O           22.446389       18.905769       11.027230
  C           21.520338       17.842805       11.186713
  H           22.765225       16.083034       10.993553
  H           21.659181       16.014490       12.378847
  H           24.242683       16.795033       12.794765
  H           22.936461       17.718768       13.561295
  H           23.955200       19.488209       12.283539
  H           24.431537       18.367153       10.985425
  H           20.718930       18.167027       11.865571
  H           21.080205       17.616324       10.211797
  C           32.035754        7.631097       14.286452
  C           31.404399        8.215299       13.024743
  C           32.031095        7.337338       11.941297
  O           32.259533        6.064575       12.525067
  C           32.095190        6.145083       13.931980
  H           33.042466        8.027972       14.423147
  H           31.454921        7.818203       15.186541
  H           31.624706        9.270340       12.880205
  H           30.322711        8.076746       13.045176
  H           31.387391        7.208020       11.066999
  H           32.992163        7.755015       11.609461
  H           31.159313        5.640609       14.211020
  H           32.928217        5.622110       14.409514
  C           26.331577       25.966510       14.315397
  C           27.538696       25.213751       13.760393
  C           28.453435       25.169040       14.984596
  O           27.611165       25.134821       16.125782
  C           26.276675       25.432113       15.746769
  H           26.525451       27.039850       14.319484
  H           25.412640       25.773621       13.766866
  H           28.005833       25.710931       12.913556
  H           27.250864       24.203692       13.466118
  H           29.101870       24.288931       15.004923
  H           29.083088       26.068710       15.033097
  H           25.678593       24.511180       15.795770
  H           25.865494       26.152430       16.459193
  C           12.984229       13.624502        2.285663
  C           11.687421       12.887700        1.958214
  C           10.777872       13.362687        3.091584
  O           11.199160       14.673318        3.434600
  C           12.448057       14.952068        2.821861
  H           13.532348       13.095036        3.065980
  H           13.633950       13.759115        1.424107
  H           11.797351       11.805940        1.942498
  H           11.297283       13.220194        0.995455
  H            9.722324       13.399927        2.808908
  H           10.881540       12.713004        3.972144
  H           12.291307       15.667934        2.002602
  H           13.104688       15.412206        3.565220
  C           28.138758        5.777464        3.200286
  C           27.883020        6.380192        1.820747
  C           28.514752        7.763768        1.975830
  O           29.587629        7.624990        2.893748
  C           29.512475        6.360445        3.532633
  H           27.393777        6.134924        3.912247
  H           28.139768        4.690023        3.203143
  H           26.828250        6.434309        1.561770
  H           28.408856        5.807837        1.055522
  H           28.909543        8.163769        1.037953
  H           27.787509        8.480296        2.383171
  H           30.313351        5.716123        3.143188
  H           29.671047        6.503075        4.605007
  C           11.200509       22.444675       11.896763
  C           12.629903       22.455142       12.433916
  C           13.183829       23.725612       11.788553
  O           12.094170       24.623071       11.646758
  C           10.874206       23.938242       11.882544
  H           11.181430       22.043603       10.882643
  H           10.510362       21.876902       12.516335
  H           13.200446       21.570557       12.160921
  H           12.624108       22.554175       13.520112
  H           13.957638       24.210936       12.389514
  H           13.598283       23.508126       10.793994
  H           10.468111       24.257214       12.852887
  H           10.163204       24.215598       11.099586
  C            7.113133       28.012286       11.823183
  C            6.685786       26.582589       12.147454
  C            7.575459       25.780534       11.197395
  O            8.774453       26.521171       11.033792
  C            8.608258       27.827010       11.562999
  H            6.612021       28.360008       10.918948
  H            6.918139       28.714924       12.629912
  H            5.627693       26.398741       11.976644
  H            6.926300       26.342756       13.183937
  H            7.829470       24.788572       11.580751
  H            7.092123       25.663564       10.217127
  H            9.179155       27.907728       12.498832
  H            9.012283       28.546539       10.845703
  C           29.078675       30.134134       14.877963
  C           28.178722       31.266192       15.368209
  C           27.125490       30.490917       16.160087
  O           27.770079       29.341189       16.684993
  C           29.039833       29.180936       16.072669
  H           28.641311       29.657833       13.999604
  H           30.089288       30.457762       14.640344
  H           27.741937       31.850787       14.561981
  H           28.735422       31.931372       16.029484
  H           26.704971       31.063324       16.991343
  H           26.303355       30.170616       15.504555
  H           29.821871       29.437773       16.801142
  H           29.159018       28.131591       15.789571
  C           13.460902        8.665783       10.837599
  C           13.213471        8.921169       12.322646
  C           12.345271        7.718620       12.693486
  O           12.742426        6.649379       11.849751
  C           13.572629        7.141263       10.809699
  H           12.602063        8.992977       10.250230
  H           14.356493        9.152656       10.458907
  H           12.715367        9.867229       12.521141
  H           14.154974        8.891974       12.872541
  H           12.467678        7.404315       13.733535
  H           11.282504        7.936473       12.516599
  H           14.607620        6.823282       10.999179
  H           13.241490        6.703089        9.864277
  C            2.660875       11.041917       14.096513
  C            3.519895       11.789547       15.113836
  C            3.867832       13.059683       14.337232
  O            2.776983       13.322070       13.468843
  C            1.914323       12.196445       13.427822
  H            3.294566       10.530450       13.370910
  H            1.985165       10.320072       14.549162
  H            4.405057       11.237358       15.420613
  H            2.929762       12.036059       15.997373
  H            4.016219       13.930530       14.981498
  H            4.775281       12.911382       13.734934
  H            0.992238       12.433772       13.977055
  H            1.655944       11.994634       12.384757
  C            5.267792       16.850193       14.763962
  C            5.364737       17.436662       16.170542
  C            5.999231       18.798043       15.885098
  O            5.559664       19.193906       14.595536
  C            4.942875       18.096807       13.940675
  H            6.230331       16.436630       14.460405
  H            4.504730       16.081367       14.668154
  H            5.965132       16.835122       16.848932
  H            4.368369       17.565237       16.595257
  H            5.706032       19.568234       16.603648
  H            7.095857       18.723123       15.880504
  H            3.857617       18.267484       13.904561
  H            5.321495       18.046239       12.916193
  C           13.079023       20.589053        2.771682
  C           11.678130       20.421909        2.187412
  C           11.326474       21.866857        1.832609
  O           12.544199       22.517895        1.506740
  C           13.641334       21.703686        1.889174
  H           13.018161       20.921840        3.808606
  H           13.677881       19.682609        2.724103
  H           10.968584       19.983427        2.885133
  H           11.715973       19.809426        1.285694
  H           10.649954       21.947178        0.977423
  H           10.867641       22.377799        2.690882
  H           14.107901       21.286723        0.985472
  H           14.375980       22.329628        2.402949
  C           18.855375       15.748515       11.739721
  C           17.375054       15.950620       12.055339
  C           16.717569       15.322305       10.826375
  O           17.579067       14.285213       10.384608
  C           18.830935       14.387133       11.044407
  H           19.202881       16.519143       11.050493
  H           19.489513       15.749895       12.623125
  H           17.099231       16.994723       12.183043
  H           17.102064       15.397416       12.954842
  H           15.735048       14.891481       11.037367
  H           16.609289       16.062932       10.021410
  H           18.914176       13.573452       11.778719
  H           19.625293       14.268940       10.302450
  C           17.810802       26.949082       12.370285
  C           19.193268       27.591682       12.282730
  C           19.869218       26.707975       11.234124
  O           18.848776       26.256210       10.358051
  C           17.575871       26.542869       10.915218
  H           17.845143       26.065534       13.008897
  H           17.042992       27.624753       12.739709
  H           19.729345       27.593798       13.228855
  H           19.110735       28.616186       11.917705
  H           20.622527       27.238651       10.645583
  H           20.344488       25.836937       11.707022
  H           17.116794       27.366547       10.350395
  H           16.944251       25.656266       10.812922
  C           12.105045       16.364864       12.430426
  C           13.549209       16.484384       12.912003
  C           13.466814       15.805631       14.279456
  O           12.455083       14.815369       14.186298
  C           11.714239       14.996812       12.990001
  H           11.491500       17.146716       12.879794
  H           12.005073       16.412632       11.348640
  H           13.897823       17.512105       12.981236
  H           14.214463       15.926195       12.252060
  H           14.401001       15.320991       14.575923
  H           13.186226       16.529881       15.057243
  H           11.977454       14.197410       12.282968
  H           10.649482       14.916677       13.225256
  C            8.865513       29.095978        4.650738
  C            8.766508       28.213815        5.893235
  C            7.251345       28.118798        6.073992
  O            6.677179       28.200859        4.779196
  C            7.660304       28.613505        3.843203
  H            8.743427       30.145280        4.922258
  H            9.800710       28.975739        4.108996
  H            9.260724       28.637494        6.764316
  H            9.185861       27.227617        5.690206
  H            6.931502       27.181379        6.537047
  H            6.878779       28.954720        6.682803
  H            7.932988       27.756380        3.211380
  H            7.229517       29.391578        3.207201
  C           20.180411       26.866709       27.096585
  C           19.194435       27.925914       27.584178
  C           18.320928       28.116502       26.343984
  O           18.294641       26.871218       25.664664
  C           19.282444       26.008257       26.205441
  H           20.969706       27.330417       26.503584
  H           20.632039       26.293287       27.902659
  H           19.673625       28.850265       27.898011
  H           18.598717       27.535187       28.410080
  H           17.293258       28.404153       26.581943
  H           18.751747       28.877098       25.677569
  H           18.786581       25.223140       26.793601
  H           19.821312       25.536322       25.379383
  C            3.047873       15.189157       32.495380
  C            1.731492       15.942461       32.317938
  C            2.200136       17.394107       32.420495
  O            3.525348       17.434652       31.915454
  C            4.023677       16.114486       31.768060
  H            3.305591       15.123778       33.553193
  H            3.033361       14.188134       32.070786
  H            0.987021       15.694507       33.070812
  H            1.315932       15.748097       31.328395
  H            1.585424       18.086498       31.838948
  H            2.207406       17.727729       33.467808
  H            4.069441       15.868138       30.697808
  H            5.036954       16.077971       32.177217
  C           22.635311       21.601480       31.032291
  C           23.730564       22.661356       31.126601
  C           22.901752       23.944221       31.195513
  O           21.684066       23.612325       31.843573
  C           21.557714       22.202175       31.935270
  H           22.270764       21.525764       30.007091
  H           22.955494       20.618286       31.368964
  H           24.412099       22.654837       30.279249
  H           24.303432       22.531247       32.045598
  H           23.390343       24.741908       31.761595
  H           22.678133       24.317863       30.186252
  H           21.711337       21.897692       32.980216
  H           20.543089       21.924218       31.637362
  C           16.232742       28.245335       32.131727
  C           16.772214       27.036105       32.892348
  C           17.696798       27.708152       33.907689
  O           17.138716       28.981209       34.191883
  C           16.117386       29.278251       33.252975
  H           16.956831       28.575786       31.385966
  H           15.279607       28.058093       31.642839
  H           17.300141       26.327477       32.258569
  H           15.959696       26.519345       33.404634
  H           17.784796       27.150558       34.844076
  H           18.702763       27.845852       33.486628
  H           15.141133       29.203150       33.752485
  H           16.252677       30.306294       32.906137
  C           25.609163        1.906323       26.027771
  C           26.498444        2.918519       25.309126
  C           26.910043        3.830518       26.465094
  O           26.944010        3.024567       27.632221
  C           26.329815        1.772909       27.369517
  H           24.610135        2.318801       26.174296
  H           25.527944        0.955629       25.506118
  H           25.984723        3.460106       24.518360
  H           27.373745        2.420961       24.889664
  H           27.895918        4.282440       26.326202
  H           26.173814        4.634100       26.608078
  H           27.107617        0.997915       27.318240
  H           25.656362        1.535821       28.197601
  C            8.987272       13.165996       29.449076
  C            7.813146       13.766402       28.679171
  C            7.481468       14.985425       29.540213
  O            8.698251       15.415397       30.129671
  C            9.698028       14.426151       29.943299
  H            8.624145       12.580266       30.294489
  H            9.632292       12.541682       28.835304
  H            6.968939       13.088037       28.580822
  H            8.134849       14.081220       27.685662
  H            7.061070       15.815696       28.966289
  H            6.774010       14.717787       30.337767
  H           10.419404       14.784816       29.195505
  H           10.223026       14.279958       30.891180
  C           24.159418        5.072824       28.790030
  C           23.488318        3.924419       28.039963
  C           22.087250        3.944548       28.651537
  O           21.811256        5.291365       29.001974
  C           23.000653        6.060983       28.925030
  H           24.488601        4.738985       29.774841
  H           25.006475        5.499602       28.258154
  H           23.986321        2.967839       28.179552
  H           23.438860        4.148078       26.973570
  H           21.312127        3.599174       27.962063
  H           22.049646        3.325225       29.558866
  H           22.944268        6.717326       28.045112
  H           23.069443        6.684574       29.820505
  C            9.938701       28.402944       31.944396
  C           10.935493       29.076770       31.004091
  C           12.253615       28.458713       31.470972
  O           11.951510       27.155889       31.944554
  C           10.546754       27.006358       32.075699
  H            9.933646       28.905876       32.912227
  H            8.924726       28.376873       31.552335
  H           10.937362       30.161431       31.081838
  H           10.730066       28.793987       29.970893
  H           12.995760       28.374646       30.672457
  H           12.688801       29.044750       32.292796
  H           10.182291       26.346351       31.275838
  H           10.336097       26.534525       33.039271
  C           12.861039       27.973498       35.135400
  C           13.742335       27.086398       36.011859
  C           15.022615       27.918412       36.089666
  O           14.633338       29.280167       36.006100
  C           13.274480       29.367581       35.607651
  H           13.117427       27.838799       34.083837
  H           11.797218       27.791061       35.267830
  H           13.916193       26.099137       35.590402
  H           13.300866       26.977841       37.003315
  H           15.574864       27.771567       37.021830
  H           15.689667       27.686004       35.247496
  H           12.669617       29.681723       36.470017
  H           13.189578       30.128673       34.827264
  C           29.440513       24.630465       28.107311
  C           28.071566       24.168409       27.613042
  C           28.382540       22.742617       27.157157
  O           29.430866       22.265793       27.985740
  C           29.987847       23.342484       28.722901
  H           30.060692       24.940688       27.265407
  H           29.387863       25.442995       28.828116
  H           27.673220       24.781826       26.808321
  H           27.357595       24.154733       28.437494
  H           27.529505       22.065235       27.251805
  H           28.722194       22.733546       26.111799
  H           29.679706       23.251914       29.774123
  H           31.077715       23.271055       28.672321
  C            2.621962       13.569380       29.347651
  C            1.981578       13.666657       27.964808
  C            1.845297       12.190085       27.592543
  O            1.656784       11.476601       28.804277
  C            1.937887       12.322292       29.908218
  H            3.695880       13.402558       29.255275
  H            2.450777       14.447577       29.965714
  H            2.583817       14.219602       27.247802
  H            0.997304       14.131106       28.036607
  H            0.995032       11.989080       26.935185
  H            2.759686       11.826057       27.103056
  H            0.993377       12.586317       30.404618
  H            2.561792       11.771759       30.617534
  C           25.012597       32.814430       26.830842
  C           24.521835       31.403738       27.148511
  C           24.460356       30.785587       25.751539
  O           25.474181       31.410739       24.980670
  C           25.973263       32.544358       25.672567
  H           24.181648       33.436550       26.495949
  H           25.504076       33.300131       27.670533
  H           23.557881       31.384752       27.651470
  H           25.254526       30.878678       27.762628
  H           24.638597       29.706837       25.750457
  H           23.485316       30.979561       25.282611
  H           26.981317       32.317771       26.047675
  H           26.043135       33.378022       24.968581
  C            3.951294        4.181868       32.534736
  C            3.608738        5.035040       31.315489
  C            2.110477        4.766387       31.172459
  O            1.609487        4.527239       32.478106
  C            2.688868        4.347224       33.381116
  H            4.076614        3.138637       32.242114
  H            4.845331        4.514134       33.057070
  H            4.165298        4.757051       30.423581
  H            3.785091        6.089559       31.531253
  H            1.562367        5.607146       30.738670
  H            1.932063        3.875732       30.553489
  H            2.765919        5.234087       34.025910
  H            2.475224        3.477963       34.008981
  C            6.889401        2.824257       34.418541
  C            7.632663        3.783300       33.491391
  C            9.033225        3.768355       34.104271
  O            9.218392        2.482546       34.674627
  C            7.978398        1.794679       34.720994
  H            6.590760        3.338714       35.332768
  H            6.011353        2.374592       33.960971
  H            7.202577        4.781807       33.468001
  H            7.659259        3.382982       32.477141
  H            9.825475        3.940308       33.370620
  H            9.119585        4.525514       34.896403
  H            7.983446        0.999169       33.962469
  H            7.873090        1.334510       35.707213
  C           21.719236       29.726178       31.234188
  C           21.111576       30.237003       29.929727
  C           19.618433       30.187722       30.254559
  O           19.493417       30.419327       31.648700
  C           20.767809       30.332215       32.266140
  H           21.673178       28.637051       31.270863
  H           22.748424       30.043453       31.384676
  H           21.366883       29.627182       29.066319
  H           21.424763       31.265290       29.744790
  H           19.037476       30.946238       29.722942
  H           19.201200       29.198528       30.018691
  H           21.095285       31.341851       32.551824
  H           20.674237       29.727325       33.172135
  C           21.949344       29.053540       36.003760
  C           22.471618       27.921120       35.122474
  C           21.569203       26.764698       35.553467
  O           20.324559       27.332774       35.929030
  C           20.453062       28.741487       36.038169
  H           22.374489       28.978912       37.005431
  H           22.155872       30.043140       35.603042
  H           23.525481       27.703128       35.278647
  H           22.308590       28.156215       34.069946
  H           21.392648       26.037057       34.756699
  H           21.996768       26.238983       36.418935
  H           19.937426       29.213284       35.189789
  H           19.967746       29.063933       36.963356
  C           31.047657       14.872474       32.448051
  C           32.159231       14.554943       31.450359
  C           32.395314       13.069883       31.726555
  O           31.152467       12.526761       32.142783
  C           30.237978       13.575963       32.418065
  H           31.467280       15.033539       33.441851
  H           30.451605       15.738323       32.169548
  H           33.056678       15.150664       31.599492
  H           31.802287       14.697833       30.429655
  H           32.738421       12.518203       30.847124
  H           33.130695       12.935937       32.532467
  H           29.481537       13.607780       31.621193
  H           29.736598       13.360127       33.365433
  C            6.141004        5.748504       26.080756
  C            7.307528        5.060130       26.785863
  C            8.503367        5.769801       26.150445
  O            8.079145        7.086074       25.833654
  C            6.668431        7.177854       25.953475
  H            5.987040        5.312695       25.092815
  H            5.209305        5.700156       26.639448
  H            7.333740        3.984534       26.627930
  H            7.273183        5.262198       27.857148
  H            9.368431        5.834360       26.816005
  H            8.810820        5.261994       25.225336
  H            6.424251        7.764197       26.850581
  H            6.278867        7.703513       25.077464
  C            5.172263        9.067492       28.743424
  C            3.905314        9.458841       29.500718
  C            4.422073        9.521448       30.938237
  O            5.783725        9.913815       30.868606
  C            6.238934        9.832443       29.527315
  H            5.342444        7.993040       28.822507
  H            5.151420        9.347453       27.692841
  H            3.094147        8.744042       29.384065
  H            3.562104       10.442862       29.178891
  H            3.883632       10.243874       31.557637
  H            4.359598        8.534304       31.417678
  H            6.359545       10.849973       29.129437
  H            7.214290        9.338366       29.520867
  C           10.723577        2.027915       25.818928
  C            9.483342        2.563834       26.530559
  C            9.675735        1.996614       27.937210
  O           11.074617        1.910343       28.157623
  C           11.766396        2.104781       26.934294
  H           10.567443        0.991286       25.517788
  H           11.007547        2.612223       24.946872
  H            8.550332        2.237183       26.077427
  H            9.504499        3.654047       26.556107
  H            9.239206        2.625511       28.717853
  H            9.240004        0.990412       28.014139
  H           12.247479        3.092978       26.949965
  H           12.543757        1.340581       26.849549
  C            7.574268        7.573248       31.922476
  C            8.661151        7.120930       30.949901
  C            8.418777        5.611943       30.909483
  O            7.029856        5.413147       31.119902
  C            6.433006        6.622462       31.560610
  H            7.894858        7.405157       32.951374
  H            7.295433        8.617572       31.803414
  H            9.667015        7.369089       31.280342
  H            8.491758        7.557811       29.964962
  H            8.693832        5.157717       29.953712
  H            8.976616        5.106505       31.710463
  H            5.824365        7.037585       30.744859
  H            5.776164        6.397964       32.405378
  C           26.156769        1.656960       36.032956
  C           25.003114        1.754901       35.037317
  C           24.446507        3.142192       35.358302
  O           25.539517        3.931093       35.800865
  C           26.661961        3.099844       36.049949
  H           25.782250        1.375637       37.017972
  H           26.928569        0.952530       35.731891
  H           24.258330        0.972221       35.160793
  H           25.383251        1.726957       34.015369
  H           23.991072        3.633285       34.494080
  H           23.699246        3.085306       36.162408
  H           27.407333        3.260644       35.258252
  H           27.103209        3.389680       37.007429
  C            1.907017       27.076382       29.847682
  C            1.730724       27.939445       28.600343
  C            3.156499       27.965072       28.049045
  O            3.760409       26.734319       28.414337
  C            2.950676       26.066823       29.369156
  H            2.307325       27.674734       30.667066
  H            0.987500       26.596551       30.174466
  H            1.352681       28.936280       28.814677
  H            1.060570       27.448612       27.893491
  H            3.194974       28.061335       26.960594
  H            3.731026       28.789920       28.493752
  H            2.466818       25.205848       28.886637
  H            3.593591       25.699063       30.173449
  C            1.924509       16.864634       23.995256
  C            3.222888       17.666552       23.940934
  C            3.875433       17.096352       22.681380
  O            2.822771       16.716097       21.809482
  C            1.588758       16.735933       22.509279
  H            2.106738       15.880404       24.428554
  H            1.134662       17.358885       24.555965
  H            3.846276       17.539537       24.822859
  H            3.006041       18.727154       23.807654
  H            4.512465       17.817982       22.162811
  H            4.476947       16.208498       22.922457
  H            0.998877       17.598126       22.167396
  H            1.039139       15.821456       22.270274
  C            9.113071        8.216073       22.890716
  C            8.531810        6.924387       22.320194
  C            7.129962        7.379700       21.914074
  O            7.229901        8.749456       21.558155
  C            8.489374        9.260612       21.964778
  H            8.768781        8.364705       23.914940
  H           10.199991        8.245199       22.873582
  H            8.509208        6.107167       23.037255
  H            9.097440        6.611859       21.441529
  H            6.729013        6.827221       21.059979
  H            6.429414        7.280135       22.755228
  H            9.115551        9.415246       21.074715
  H            8.331417       10.226946       22.451319
  C           23.453450        7.674779       24.447493
  C           22.712769        6.533331       25.140530
  C           21.444730        7.243052       25.615708
  O           21.173818        8.272221       24.677457
  C           22.293068        8.450843       23.824069
  H           23.969092        8.292207       25.184079
  H           24.170610        7.335701       23.703689
  H           23.271619        6.091706       25.962230
  H           22.462493        5.753544       24.420144
  H           20.575396        6.581900       25.666781
  H           21.599298        7.694880       26.605749
  H           22.049336        8.053567       22.828586
  H           22.492329        9.521967       23.732090
  C           26.018896       25.302588       22.298218
  C           27.493460       25.382685       22.686881
  C           27.903274       26.705431       22.038950
  O           26.755011       27.538714       22.044402
  C           25.607598       26.773023       22.376153
  H           25.917447       24.935031       21.276321
  H           25.430761       24.673349       22.962065
  H           28.082375       24.544251       22.322537
  H           27.595071       25.445017       23.771064
  H           28.706255       27.216974       22.576555
  H           28.223768       26.546906       20.999540
  H           25.287050       27.034105       23.394635
  H           24.804206       27.032202       21.681270
  C           14.380300       18.766256       35.800437
  C           14.731588       20.227487       36.071016
  C           16.259021       20.183065       36.022086
  O           16.611119       19.155895       35.108934
  C           15.466835       18.376992       34.797772
  H           14.480438       18.178704       36.713902
  H           13.379142       18.629968       35.398387
  H           14.359242       20.591655       37.025624
  H           14.345810       20.862430       35.272464
  H           16.705697       21.120439       35.679618
  H           16.673199       19.938729       37.010508
  H           15.148633       18.605405       33.770740
  H           15.741430       17.319951       34.850074
  C           22.685240       29.189323       23.064796
  C           21.776445       28.033032       22.653828
  C           20.639958       28.778589       21.953854
  O           21.207589       29.942937       21.375075
  C           22.520254       30.137625       21.876973
  H           22.312001       29.656847       23.976814
  H           23.720439       28.892506       23.215791
  H           21.425102       27.439813       23.494772
  H           22.291902       27.380412       21.948098
  H           20.165206       28.193069       21.161863
  H           19.868554       29.079601       22.676729
  H           23.243872       29.898805       21.084785
  H           22.635893       31.190531       22.148066
  C            5.181450       17.243370       27.952665
  C            4.270311       16.131604       27.437288
  C            2.889775       16.691082       27.781566
  O            2.989329       18.104457       27.708369
  C            4.353272       18.486130       27.625420
  H            5.315865       17.151535       29.031165
  H            6.157335       17.259196       27.473151
  H            4.454990       15.168796       27.907854
  H            4.377252       16.026500       26.356927
  H            2.108073       16.361714       27.091687
  H            2.598016       16.406654       28.802447
  H            4.563934       18.836729       26.605164
  H            4.525526       19.312789       28.319997
  C           11.797171       32.444775       24.513193
  C           12.862814       32.397790       25.605899
  C           13.887993       31.448738       24.984829
  O           13.812911       31.625695       23.579146
  C           12.658111       32.381923       23.251348
  H           11.153326       31.566606       24.576011
  H           11.181119       33.340178       24.548821
  H           12.487809       32.034091       26.559645
  H           13.300554       33.386535       25.748836
  H           14.912909       31.652767       25.306377
  H           13.647145       30.403714       25.225946
  H           12.968211       33.389793       22.941097
  H           12.153630       31.898680       22.410247
  C            9.720478       32.448324       33.176578
  C            8.234942       32.607252       32.860770
  C            7.715942       31.196679       33.140665
  O            8.533467       30.653915       34.165339
  C            9.674447       31.475526       34.355122
  H           10.239466       31.994419       32.331425
  H           10.210238       33.384823       33.432783
  H            8.042077       32.923091       31.838231
  H            7.777698       33.321600       33.546553
  H            6.676737       31.180364       33.480165
  H            7.801257       30.565613       32.244730
  H            9.568385       32.019083       35.304605
  H           10.557743       30.834199       34.418049
  C           10.394939       23.747239       26.997922
  C            9.779713       24.157502       28.333958
  C            9.018821       25.423098       27.938064
  O            8.615536       25.254709       26.588286
  C            9.283866       24.138083       26.023152
  H           11.294099       24.332390       26.801007
  H           10.640291       22.689309       26.942044
  H           10.517983       24.345060       29.110049
  H            9.085112       23.391345       28.680652
  H            8.128027       25.597629       28.547571
  H            9.669317       26.306360       28.008230
  H            8.564638       23.315639       25.902661
  H            9.658129       24.420611       25.035438
  C           23.533622       12.736337       25.900207
  C           24.167767       13.429090       24.696145
  C           23.243356       12.973918       23.566675
  O           21.955828       12.796808       24.135709
  C           22.047959       12.827868       25.551139
  H           23.848316       11.692930       25.944179
  H           23.765895       13.217622       26.847282
  H           25.201863       13.138881       24.525965
  H           24.116433       14.512234       24.813740
  H           23.166914       13.701409       22.754034
  H           23.582881       12.016007       23.147926
  H           21.619946       13.772428       25.915601
  H           21.459391       12.000037       25.955809
  C           28.157586       21.614848       35.284676
  C           26.766512       21.127055       34.886201
  C           27.058872       19.680911       34.485436
  O           28.150965       19.247046       35.280416
  C           28.741454       20.359605       35.933433
  H           28.731668       21.883952       34.397165
  H           28.139475       22.461922       35.966346
  H           26.324211       21.699419       34.074225
  H           26.096681       21.153143       35.746613
  H           26.214642       19.007859       34.657920
  H           27.343441       19.620675       33.425430
  H           28.489057       20.320655       37.002544
  H           29.827462       20.287265       35.829378
  C           23.505103       23.097757       25.935819
  C           22.576848       24.013915       25.141584
  C           22.904494       25.376337       25.753036
  O           24.264233       25.329815       26.155333
  C           24.733313       23.991651       26.108658
  H           23.066149       22.866050       26.907053
  H           23.739305       22.168883       25.421156
  H           21.525125       23.757212       25.244144
  H           22.845786       23.999063       24.084648
  H           22.778246       26.204530       25.050447
  H           22.277940       25.567705       26.635662
  H           25.416992       23.883129       25.254827
  H           25.288868       23.786043       27.027656
  C           19.363252        3.648073       22.748938
  C           19.389269        4.996195       22.032208
  C           20.684553        5.600025       22.575394
  O           21.563686        4.517934       22.838263
  C           20.850146        3.293280       22.775167
  H           18.984982        3.768094       23.764896
  H           18.768294        2.896921       22.234805
  H           18.522337        5.616492       22.247143
  H           19.463518        4.848962       20.954028
  H           21.171048        6.279434       21.870271
  H           20.497754        6.143315       23.512497
  H           21.139096        2.759135       21.858970
  H           21.131336        2.682587       23.637408
  C           11.209272       20.564636       35.689104
  C            9.917594       19.961956       35.141240
  C            8.888284       20.507110       36.131568
  O            9.370736       21.765678       36.574446
  C           10.721595       21.930357       36.173251
  H           11.574567       19.973539       36.529834
  H           11.997193       20.647566       34.944228
  H            9.926770       18.874961       35.111355
  H            9.718067       20.344243       34.139387
  H            7.899160       20.650670       35.688287
  H            8.789569       19.838145       36.998148
  H           10.764612       22.669482       35.360807
  H           11.292139       22.314064       37.023382
  C           19.496515       23.717850       22.832476
  C           19.742238       25.045321       22.118859
  C           21.253436       24.989953       21.893834
  O           21.596437       23.621594       21.742703
  C           20.499933       22.806588       22.125245
  H           19.746216       23.806351       23.890531
  H           18.474344       23.359116       22.737537
  H           19.443109       25.911969       22.703649
  H           19.217754       25.062448       21.162676
  H           21.574954       25.529562       20.998891
  H           21.791332       25.398638       22.760936
  H           20.054365       22.362413       21.223914
  H           20.872271       22.000257       22.762951
  C           30.177489       12.238923       24.741965
  C           30.615617       13.586364       24.172529
  C           32.132993       13.408592       24.114312
  O           32.376708       12.029041       23.889948
  C           31.178664       11.292845       24.078637
  H           30.306207       12.227134       25.824996
  H           29.147604       11.983627       24.503856
  H           30.322136       14.432186       24.789774
  H           30.211686       13.720962       23.168345
  H           32.602238       13.979764       23.308678
  H           32.596133       13.702097       25.066980
  H           30.807996       10.958077       23.099475
  H           31.404361       10.411569       24.685174
  C            7.359938       25.476808       35.343728
  C            8.520274       24.751647       36.021646
  C            9.549513       25.876068       36.138980
  O            8.822002       27.085676       36.282056
  C            7.452379       26.859866       35.988730
  H            7.535329       25.547847       34.269551
  H            6.395706       25.004359       35.515726
  H            8.895123       23.906547       35.449080
  H            8.222313       24.406605       37.012519
  H           10.211506       25.764696       37.002018
  H           10.165776       25.936010       35.230769
  H            6.877300       26.891988       36.924931
  H            7.099889       27.663124       35.336043
  C           27.584150       28.729996       26.810247
  C           28.656494       28.755247       25.723393
  C           29.585782       27.635511       26.192475
  O           28.776212       26.684902       26.866147
  C           27.489085       27.232526       27.103446
  H           27.930029       29.267343       27.694153
  H           26.633578       29.149239       26.489024
  H           29.168725       29.711209       25.644078
  H           28.219455       28.503893       24.756190
  H           30.101563       27.132052       25.370300
  H           30.338995       28.022677       26.893184
  H           26.766502       26.749266       26.430725
  H           27.203490       27.013821       28.135956
  C            7.057046        8.191083       35.997769
  C            7.230388        6.679877       35.863529
  C            5.789946        6.233684       35.611616
  O            5.144838        7.295406       34.926430
  C            5.955122        8.459116       34.972419
  H            6.710200        8.443508       37.000586
  H            7.964771        8.750638       35.784529
  H            7.658544        6.213937       36.747904
  H            7.855049        6.446921       35.000284
  H            5.720378        5.331311       34.998138
  H            5.266897        6.052337       36.561223
  H            6.384825        8.633920       33.975915
  H            5.323177        9.312330       35.233463
  C           12.536219        4.769629       28.817721
  C           13.079238        5.790566       29.815031
  C           11.896300        6.751662       29.934912
  O           10.720739        5.983529       29.732612
  C           11.064724        4.703224       29.227249
  H           12.628804        5.150349       27.799810
  H           13.026692        3.801122       28.880709
  H           13.983533        6.288960       29.473867
  H           13.276716        5.312079       30.775092
  H           11.831796        7.234144       30.913955
  H           11.949268        7.532356       29.162946
  H           10.914295        3.955381       30.018655
  H           10.396791        4.467613       28.394287
  C            5.930709       22.794112       28.728825
  C            5.097203       24.015042       28.346192
  C            5.581224       24.273740       26.919231
  O            5.936637       23.014248       26.371273
  C            5.984293       22.038956       27.400560
  H            6.933037       23.100915       29.030276
  H            5.486805       22.200057       29.524177
  H            5.258623       24.869960       28.998569
  H            4.036128       23.762489       28.345818
  H            4.817331       24.726898       26.281587
  H            6.466964       24.924649       26.920623
  H            5.118291       21.369819       27.298005
  H            6.896526       21.448810       27.277955
  C            3.271571       22.610922       30.872483
  C            3.049303       21.501090       29.847455
  C            1.724492       20.908889       30.328698
  O            0.993144       21.968580       30.924586
  C            1.839810       23.091926       31.109373
  H            3.688771       22.197648       31.791620
  H            3.920642       23.406370       30.514005
  H            3.848667       20.764071       29.828592
  H            2.933326       21.926515       28.849845
  H            1.124062       20.484452       29.519494
  H            1.898196       20.127741       31.082260
  H            1.564895       23.868991       30.382178
  H            1.679620       23.485682       32.116731
  C            4.924801       27.654216       24.720925
  C            5.092523       28.308906       23.351596
  C            4.457889       27.260317       22.437746
  O            3.442697       26.617956       23.192500
  C            3.567690       26.968442       24.561600
  H            5.707228       26.911686       24.882544
  H            4.934364       28.365162       25.543725
  H            6.129517       28.509277       23.092693
  H            4.527742       29.240957       23.307247
  H            4.004380       27.689918       21.540391
  H            5.201116       26.511300       22.129835
  H            2.751334       27.653780       24.830106
  H            3.471617       26.060279       25.162835
  C           27.460315       10.498840       22.189885
  C           26.069881       10.747217       22.770243
  C           25.258102        9.647043       22.086099
  O           26.141774        8.558247       21.870360
  C           27.479290        8.972826       22.098550
  H           27.537844       10.938385       21.194670
  H           28.263670       10.885465       22.812523
  H           25.683103       11.740516       22.555079
  H           26.078986       10.594647       23.850198
  H           24.415615        9.296570       22.688474
  H           24.874563        9.992572       21.115672
  H           27.833719        8.530873       23.040505
  H           28.103021        8.598657       21.282198
  C           11.017108       28.250600       27.509699
  C           11.115491       27.678953       26.097130
  C           11.052898       28.952123       25.253009
  O           11.641577       29.986468       26.025332
  C           11.811395       29.548811       27.364181
  H            9.977433       28.468888       27.756863
  H           11.433074       27.594902       28.270994
  H           10.315058       26.983523       25.855839
  H           12.075210       27.179678       25.958109
  H           11.598829       28.869600       24.309280
  H           10.010476       29.221618       25.031763
  H           12.880683       29.373728       27.549089
  H           11.467362       30.340854       28.034839
  C           23.803965       16.563069       31.837396
  C           24.917470       15.954999       30.987591
  C           26.052799       15.855860       32.006719
  O           25.450008       15.651288       33.274666
  C           24.054100       15.889218       33.186758
  H           23.940365       17.641894       31.922226
  H           22.807249       16.360205       31.452765
  H           25.186196       16.564030       30.127705
  H           24.629673       14.960643       30.643946
  H           26.736636       15.025900       31.809219
  H           26.633563       16.788687       32.034429
  H           23.524206       14.928009       33.246009
  H           23.752552       16.505886       34.037794
  C            6.801777       24.296927       31.843986
  C            6.880583       23.032325       32.696268
  C            8.090685       22.329935       32.080053
  O            8.957307       23.347044       31.603237
  C            8.283168       24.595386       31.611987
  H            6.306032       24.082976       30.896292
  H            6.287039       25.118459       32.336599
  H            5.981080       22.423038       32.649348
  H            7.082215       23.290416       33.736651
  H            8.640250       21.712744       32.795964
  H            7.784814       21.697106       31.234956
  H            8.687862       25.213383       32.425942
  H            8.476266       25.101121       30.662030
  C           28.357782        6.543264       35.727882
  C           28.214859        8.041894       35.983801
  C           27.157884        8.423977       34.947348
  O           26.322962        7.289955       34.774728
  C           26.917569        6.157845       35.389272
  H           29.008140        6.367275       34.870138
  H           28.742198        5.993602       36.583822
  H           29.142587        8.593309       35.850386
  H           27.837381        8.218247       36.991806
  H           26.536812        9.268580       35.257813
  H           27.627855        8.670486       33.984758
  H           26.355909        5.911213       36.301376
  H           26.849592        5.312320       34.699388
  C           13.660356        3.023260       31.956016
  C           12.268330        3.356911       32.487760
  C           11.512485        2.063422       32.182794
  O           12.456610        1.007388       32.262284
  C           13.770417        1.540586       32.312362
  H           13.692644        3.155663       30.873847
  H           14.450056        3.617051       32.410245
  H           11.817956        4.221851       32.006533
  H           12.306610        3.527873       33.564314
  H           10.704123        1.860690       32.890555
  H           11.090812        2.088988       31.168024
  H           14.168378        1.413088       33.329019
  H           14.400588        0.977291       31.618779
  C           19.793960       15.150626       34.776116
  C           21.293467       15.438011       34.749686
  C           21.517648       15.992813       36.156582
  O           20.570397       15.361111       37.003084
  C           19.603718       14.680776       36.218499
  H           19.230790       16.067882       34.599638
  H           19.485259       14.399551       34.052840
  H           21.584335       16.144447       33.975813
  H           21.852928       14.511471       34.614810
  H           22.519665       15.789874       36.544203
  H           21.347249       17.078493       36.178604
  H           19.775364       13.598216       36.301093
  H           18.611065       14.907156       36.617079
  C           32.055266        6.892220       28.716027
  C           31.291943        6.151842       29.811923
  C           30.332489        5.296523       28.984095
  O           30.993127        5.002519       27.763433
  C           32.149223        5.814876       27.635322
  H           31.470754        7.739636       28.355619
  H           33.033567        7.244990       29.033860
  H           30.768416        6.814585       30.496925
  H           31.971032        5.515617       30.380886
  H           30.067066        4.354286       29.471141
  H           29.408205        5.849617       28.764989
  H           33.041729        5.190822       27.784354
  H           32.175831        6.223835       26.621657
  C           15.031243       14.448231       33.706473
  C           16.113557       14.759290       34.737807
  C           16.775242       13.390690       34.900685
  O           16.653994       12.724731       33.653811
  C           15.745234       13.426901       32.820740
  H           14.168185       13.990519       34.191542
  H           14.703026       15.321622       33.147903
  H           15.718928       15.141683       35.676199
  H           16.826290       15.478160       34.331727
  H           17.835767       13.453848       35.159089
  H           16.261805       12.799418       35.672047
  H           16.309182       13.930424       32.022837
  H           15.064299       12.704292       32.362878
  C           31.482243       27.185957       23.336844
  C           31.064409       28.651564       23.432865
  C           32.280474       29.350869       22.824936
  O           32.828277       28.461663       21.864665
  C           32.243913       27.177167       22.011249
  H           32.151261       26.929654       24.159272
  H           30.641453       26.496315       23.334791
  H           30.866001       28.978376       24.450886
  H           30.179275       28.832411       22.821723
  H           32.030771       30.290824       22.325329
  H           33.037810       29.554468       23.595138
  H           31.559193       26.998922       21.170055
  H           33.039332       26.427746       21.977339
  C           24.499956       25.315976       35.791984
  C           23.530831       24.146653       35.951018
  C           24.301196       23.022002       35.258834
  O           25.681092       23.293033       35.446781
  C           25.848187       24.611282       35.943969
  H           24.409318       25.748228       34.794684
  H           24.357281       26.099101       36.532859
  H           22.560294       24.324754       35.493990
  H           23.389961       23.914302       37.007348
  H           24.082014       22.033443       35.671367
  H           24.084287       23.007416       34.181356
  H           26.142883       24.558700       37.001613
  H           26.651953       25.095071       35.382380
  C           19.583165       10.555326       21.992576
  C           20.520659       11.455580       22.794110
  C           20.173931       12.831876       22.225772
  O           18.807277       12.787691       21.847353
  C           18.346846       11.445851       21.866472
  H           20.005413       10.352564       21.007559
  H           19.363867        9.611503       22.486180
  H           21.571766       11.208305       22.665400
  H           20.271398       11.410635       23.855012
  H           20.308381       13.641651       22.948033
  H           20.782948       13.050818       21.337299
  H           17.679706       11.310139       22.729448
  H           17.775587       11.261558       20.952594
  C           26.680241       20.634359       29.397722
  C           25.701824       20.063954       30.422001
  C           24.630584       19.463035       29.511637
  O           25.285758       19.051417       28.322429
  C           26.600065       19.584688       28.289037
  H           26.324517       21.598511       29.032298
  H           27.690163       20.751381       29.783598
  H           25.296910       20.814232       31.097031
  H           26.183369       19.280170       31.008056
  H           24.130366       18.595594       29.950726
  H           23.869497       20.214320       29.257592
  H           27.318876       18.772799       28.468950
  H           26.782575       19.996683       27.292833
  C           18.677898       12.982601       30.311583
  C           18.945592       13.732123       31.614798
  C           20.459008       13.564409       31.752144
  O           20.985898       13.496461       30.436596
  C           19.929779       13.327236       29.504463
  H           18.630872       11.908740       30.496713
  H           17.764670       13.297261       29.812042
  H           18.405800       13.324500       32.466270
  H           18.690441       14.786651       31.502857
  H           20.938048       14.396222       32.275671
  H           20.700858       12.632003       32.281625
  H           19.789461       14.266137       28.950391
  H           20.213766       12.544240       28.796125
  C           27.700324       29.911748       35.583302
  C           27.559760       29.002026       34.364919
  C           29.019371       28.638001       34.092077
  O           29.685067       28.642680       35.344963
  C           28.854491       29.240186       36.327830
  H           27.985110       30.917651       35.272303
  H           26.797207       29.968720       36.186353
  H           27.089472       29.489201       33.514021
  H           26.989354       28.109287       34.624375
  H           29.138680       27.650091       33.639008
  H           29.490208       29.383224       33.435436
  H           28.479623       28.456940       37.001789
  H           29.456401       29.942347       36.911053
  C           26.118325       21.666345       21.727175
  C           27.271412       21.489299       22.712496
  C           26.750598       22.260146       23.925743
  O           25.336736       22.143234       23.910805
  C           24.911736       21.614642       22.664666
  H           26.180881       22.642483       21.244573
  H           26.080918       20.893876       20.962695
  H           28.216480       21.883894       22.346876
  H           27.397617       20.434577       22.960077
  H           27.121605       21.867467       24.876338
  H           27.021139       23.323298       23.856914
  H           24.577772       20.577895       22.812464
  H           24.064087       22.205754       22.307523
  C           15.327853        6.726134       27.193433
  C           16.485883        6.859891       28.179783
  C           16.850292        8.335693       28.016580
  O           15.653188        9.019944       27.682454
  C           14.640790        8.082757       27.351353
  H           15.708610        6.610849       26.177856
  H           14.661649        5.896860       27.419291
  H           17.321627        6.200873       27.956701
  H           16.140384        6.665664       29.195938
  H           17.261979        8.780135       28.926777
  H           17.576557        8.469580       27.202434
  H           13.902679        8.052867       28.165306
  H           14.140071        8.419864       26.439699
  C           15.999570       24.904428       23.197024
  C           14.490214       25.132980       23.234738
  C           14.385301       26.542185       22.651169
  O           15.461010       26.689822       21.737960
  C           16.379362       25.620710       21.900830
  H           16.475969       25.388632       24.050401
  H           16.277087       23.853064       23.184639
  H           14.068262       25.067511       24.234841
  H           13.983777       24.416513       22.586771
  H           13.448345       26.717073       22.115444
  H           14.482661       27.299273       23.442093
  H           16.292094       24.941663       21.040888
  H           17.392166       26.032306       21.917872
  C           23.971417        7.337276       36.082739
  C           23.962237        6.633286       34.727702
  C           22.476414        6.310952       34.566925
  O           21.759021        7.333943       35.239036
  C           22.649141        8.103072       36.032146
  H           23.952920        6.603360       36.889393
  H           24.825358        7.996123       36.221459
  H           24.583808        5.741422       34.700047
  H           24.287589        7.318742       33.944146
  H           22.152013        6.287529       33.523043
  H           22.235657        5.343529       35.029904
  H           22.786794        9.086778       35.561405
  H           22.198704        8.248861       37.017705
  C            3.486654        2.606904       24.684782
  C            3.094045        3.324547       25.974223
  C            3.562470        2.322780       27.029903
  O            4.687484        1.649930       26.487212
  C            4.795239        1.935116       25.101588
  H            2.739662        1.854298       24.429338
  H            3.617904        3.278325       23.839499
  H            2.029069        3.532491       26.045790
  H            3.646855        4.260029       26.068761
  H            3.860619        2.796014       27.969387
  H            2.775335        1.585939       27.243689
  H            5.647620        2.610511       24.941868
  H            4.987420        1.000099       24.568406
  C           12.056338       15.511090       34.807914
  C           11.149476       16.731118       34.952635
  C           11.061143       16.860806       36.473424
  O           12.287778       16.378877       36.998787
  C           13.015757       15.709264       35.981653
  H           11.480045       14.594655       34.940939
  H           12.574900       15.469149       33.852994
  H           10.173204       16.600785       34.491720
  H           11.630581       17.611726       34.525166
  H           10.920377       17.891650       36.809606
  H           10.238673       16.248334       36.869204
  H           13.870209       16.333775       35.684807
  H           13.396881       14.768886       36.388970
  C           13.469543       31.794404       30.503925
  C           13.042650       32.644567       31.698411
  C           13.104997       31.621387       32.832710
  O           14.127141       30.696776       32.496240
  C           14.515075       30.880857       31.144013
  H           12.626492       31.206669       30.138555
  H           13.878291       32.377995       29.682412
  H           12.051769       33.078627       31.587575
  H           13.764638       33.443937       31.869885
  H           13.345361       32.067577       33.801530
  H           12.151683       31.081690       32.922940
  H           15.509066       31.349444       31.118933
  H           14.580408       29.900266       30.664799
  C           31.008392       32.313027       33.563974
  C           31.618337       32.192636       34.958709
  C           32.150106       30.759500       34.931128
  O           32.506058       30.479171       33.586654
  C           31.993606       31.490253       32.733422
  H           30.019728       31.852823       33.543483
  H           30.929659       33.339628       33.214076
  H           30.899973       32.351399       35.759511
  H           32.441233       32.899353       35.072972
  H           33.032118       30.615945       35.561144
  H           31.373404       30.049916       35.249633
  H           32.826007       32.117007       32.383411
  H           31.530174       31.011335       31.866622
  C           19.876897       23.070132       35.216034
  C           18.925333       22.483027       34.176012
  C           19.081521       20.984906       34.438038
  O           19.369916       20.837294       35.819318
  C           19.681026       22.101684       36.382723
  H           20.905132       23.024508       34.855043
  H           19.640755       24.096472       35.486957
  H           19.182327       22.752741       33.154374
  H           17.901435       22.798184       34.380881
  H           18.179103       20.411856       34.208410
  H           19.916069       20.572441       33.853552
  H           18.845020       22.423585       37.019666
  H           20.572494       21.994136       37.006576
  C           12.754587       16.912514       31.060106
  C           13.509084       17.764058       32.078644
  C           12.557834       18.949734       32.242092
  O           11.244644       18.454616       32.034036
  C           11.305526       17.146693       31.487660
  H           12.918375       17.296163       30.052311
  H           13.028912       15.860628       31.088694
  H           14.495997       18.069884       31.739514
  H           13.607589       17.225255       33.021857
  H           12.604301       19.404536       33.235304
  H           12.769546       19.724902       31.492082
  H           11.005683       16.423658       32.259369
  H           10.596742       17.083671       30.657523
  C            4.934869       27.669461       33.697189
  C            4.090592       27.185351       32.520480
  C            4.545873       28.136070       31.413108
  O            5.897766       28.468231       31.686880
  C            6.241209       28.042562       32.995983
  H            4.481875       28.553173       34.148315
  H            5.079547       26.913199       34.465090
  H            3.020273       27.246014       32.702892
  H            4.351085       26.156980       32.266985
  H            4.492579       27.691303       30.415704
  H            3.944589       29.056206       31.418454
  H            6.907173       27.171032       32.924232
  H            6.780587       28.852610       33.494347
  C            7.690040       18.961689       28.672559
  C            8.720467       17.915089       28.254635
  C            9.859088       18.800527       27.747721
  O            9.809051       20.003717       28.497872
  C            8.591283       20.067185       29.223068
  H            7.141237       19.320047       27.800746
  H            6.981780       18.598720       29.413611
  H            8.356884       17.231926       27.490676
  H            9.046365       17.339173       29.121684
  H           10.846214       18.349398       27.880153
  H            9.723002       19.038204       26.683197
  H            8.802266       19.902608       30.289193
  H            8.167016       21.067672       29.102667
  C           31.147811       20.234125       27.583864
  C           32.307784       19.390121       27.060479
  C           31.570939       18.153193       26.546197
  O           30.291420       18.587467       26.113607
  C           30.057734       19.913419       26.560976
  H           30.848970       19.891331       28.575252
  H           31.372698       21.297129       27.628409
  H           33.042851       19.145573       27.823637
  H           32.806262       19.903125       26.237065
  H           32.076380       17.670148       25.705560
  H           31.443679       17.413855       27.349569
  H           30.117917       20.595565       25.701165
  H           29.048191       19.966667       26.977463
  C           30.356554       17.545628       22.358587
  C           31.850629       17.811881       22.189292
  C           32.032360       19.061688       23.050906
  O           31.078121       18.981324       24.097742
  C           30.142428       17.952553       23.816661
  H           29.780457       18.193305       21.696552
  H           30.078486       16.510780       22.173373
  H           32.145719       17.976203       21.155630
  H           32.430265       16.983165       22.597844
  H           33.028938       19.137074       23.494326
  H           31.841199       19.970749       22.463296
  H           30.332400       17.104321       24.489442
  H           29.136910       18.334308       24.013312
  C           31.965349       11.314717       27.724621
  C           30.639921       10.830860       28.308517
  C           30.549061       11.670360       29.583038
  O           31.208213       12.897665       29.314452
  C           31.936114       12.796270       28.100872
  H           32.799906       10.815388       28.218432
  H           32.045494       11.162669       26.650845
  H           30.622881        9.763314       28.514898
  H           29.818488       11.076555       27.634318
  H           29.520132       11.887000       29.882779
  H           31.058048       11.167506       30.417479
  H           31.422717       13.384345       27.327043
  H           32.931905       13.220077       28.256628
  C            9.950255       25.910488       22.834355
  C           10.872506       24.935640       22.105702
  C           10.432718       23.600307       22.706445
  O            9.055747       23.726371       23.024180
  C            8.665818       25.087804       22.938434
  H           10.341564       26.128407       23.828866
  H            9.800021       26.845085       22.299103
  H           11.928731       25.134969       22.270606
  H           10.669611       24.953537       21.034172
  H           10.555036       22.758618       22.019370
  H           10.992756       23.384471       23.627310
  H            8.042473       25.224405       22.043447
  H            8.067734       25.334032       23.819990
  C           13.073791        6.563962       34.565522
  C           11.896726        7.484158       34.881067
  C           11.614609        7.121440       36.339239
  O           12.854805        6.744777       36.916244
  C           13.825933        6.571462       35.896554
  H           12.716584        5.558712       34.338499
  H           13.689123        6.916864       33.741286
  H           11.034420        7.317905       34.239720
  H           12.202570        8.528224       34.803300
  H           11.200944        7.952586       36.916780
  H           10.919775        6.272009       36.401640
  H           14.538023        7.407851       35.936563
  H           14.369292        5.642302       36.088637
  C           17.691964        1.991771       26.107338
  C           16.890234        2.903806       25.181469
  C           17.449162        4.276944       25.554981
  O           18.798605        4.078816       25.945680
  C           19.050427        2.693130       26.117019
  H           17.257843        1.994149       27.107937
  H           17.758970        0.966330       25.751643
  H           15.815739        2.839205       25.335818
  H           17.114832        2.674737       24.138998
  H           17.428585        4.989562       24.725990
  H           16.892874        4.706955       26.399880
  H           19.677114        2.339288       25.286188
  H           19.600069        2.552927       27.051743
  C           27.947096        5.128619       31.628514
  C           27.653955        3.631450       31.694592
  C           26.248999        3.626956       32.297502
  O           25.611516        4.817512       31.862661
  C           26.567859        5.689539       31.281392
  H           28.269176        5.493502       32.604622
  H           28.697903        5.389443       30.886357
  H           28.366096        3.078253       32.302345
  H           27.636117        3.205764       30.690532
  H           25.646168        2.773045       31.976716
  H           26.296661        3.628746       33.395658
  H           26.417972        5.708177       30.192628
  H           26.402450        6.696985       31.672756
  C           26.296189       16.103100       36.019967
  C           27.488042       15.381219       35.395319
  C           27.388914       14.007759       36.059550
  O           26.012500       13.770096       36.308337
  C           25.276537       14.968299       36.119756
  H           26.554983       16.467727       37.014821
  H           25.932021       16.934205       35.420648
  H           28.440071       15.868074       35.593185
  H           27.351503       15.290681       34.316976
  H           27.773492       13.198387       35.433060
  H           27.930931       13.997782       37.015761
  H           24.693443       14.886182       35.191597
  H           24.583254       15.085569       36.957061
  C           29.441529        8.169551       26.463070
  C           29.041391        6.794650       25.932648
  C           27.521519        6.842405       26.091167
  O           27.134233        8.197966       25.931916
  C           28.281228        9.032303       25.966299
  H           29.466574        8.160690       27.553464
  H           30.402500        8.514158       26.088481
  H           29.488712        5.971620       26.484972
  H           29.309220        6.704017       24.879217
  H           26.992507        6.240322       25.347449
  H           27.223748        6.501912       27.092974
  H           28.480592        9.406225       24.952071
  H           28.070700        9.885621       26.616682
  C           20.646511       26.420049       32.163400
  C           19.839389       26.694157       30.896422
  C           19.395176       25.282608       30.512201
  O           19.262720       24.550484       31.720235
  C           19.843973       25.279387       32.789693
  H           21.649972       26.079349       31.905229
  H           20.722519       27.281962       32.822085
  H           20.418484       27.173298       30.110541
  H           18.972166       27.313748       31.128141
  H           18.436744       25.261624       29.986423
  H           20.151323       24.794893       29.880855
  H           19.042049       25.673394       33.429926
  H           20.458389       24.596142       33.382266
  C            2.023501       22.052884       25.901811
  C            2.656164       20.905308       25.117836
  C            1.939289       21.029250       23.773161
  O            1.641364       22.404454       23.591635
  C            1.851998       23.105901       24.806749
  H            1.050796       21.751697       26.292701
  H            2.641920       22.407678       26.722918
  H            2.504542       19.932083       25.578684
  H            3.725946       21.077884       24.993547
  H            2.546717       20.691073       22.929277
  H            0.999795       20.458689       23.778861
  H            2.758873       23.719676       24.711470
  H            0.999440       23.768837       24.977438
  C           27.545618       25.254721       32.685927
  C           28.260637       24.692067       31.459558
  C           27.621208       23.307830       31.348030
  O           26.298492       23.424822       31.847660
  C           26.144117       24.669336       32.511174
  H           28.004246       24.872263       33.598642
  H           27.537991       26.341583       32.720704
  H           29.340667       24.640139       31.575208
  H           28.025031       25.289754       30.578126
  H           27.572864       22.938066       30.320211
  H           28.169168       22.575648       31.957842
  H           25.521221       25.329199       31.890849
  H           25.629308       24.495623       33.459998
  C           26.219108       14.700438       22.706398
  C           26.162010       16.050404       21.994960
  C           27.647964       16.389196       21.874212
  O           28.342601       15.157065       21.763629
  C           27.470327       14.083919       22.080479
  H           26.363773       14.844387       23.777852
  H           25.333485       14.090024       22.546383
  H           25.609390       16.806748       22.547310
  H           25.718241       15.936803       21.005098
  H           27.880072       16.998797       20.996724
  H           28.000739       16.918090       22.770896
  H           27.218052       13.544829       21.156380
  H           27.993487       13.397684       22.751940
  C           26.238949       18.778342       24.719912
  C           24.797022       18.800768       25.222062
  C           24.497787       17.306318       25.342464
  O           25.723985       16.665868       25.657361
  C           26.800193       17.571683       25.472508
  H           26.261249       18.597334       23.644551
  H           26.786477       19.692297       24.937711
  H           24.111821       19.306106       24.545548
  H           24.746091       19.276938       26.202027
  H           23.773229       17.074791       26.127883
  H           24.121180       16.906789       24.390222
  H           27.186419       17.872037       26.456804
  H           27.597048       17.057895       24.927975
  C           28.444625        9.604685       30.132350
  C           27.586816       10.263636       31.210199
  C           26.202349        9.710175       30.872038
  O           26.400646        8.422676       30.309970
  C           27.774885        8.235694       30.010970
  H           28.357742       10.152926       29.193443
  H           29.495039        9.528170       30.403115
  H           27.615781       11.350300       31.180899
  H           27.898172        9.925470       32.199322
  H           25.553469        9.611283       31.746480
  H           25.698070       10.348180       30.132530
  H           28.203741        7.527104       30.733606
  H           27.856950        7.804125       29.009727
  C            6.049450       10.623763       25.351073
  C            5.754924       11.816175       26.258387
  C            4.780762       12.617408       25.394411
  O            4.066734       11.680522       24.603649
  C            4.689107       10.408305       24.687399
  H            6.796509       10.893785       24.603640
  H            6.389587        9.743468       25.891374
  H            6.641449       12.388675       26.520787
  H            5.262968       11.482143       27.172753
  H            4.062050       13.196306       25.980759
  H            5.323997       13.304103       24.729906
  H            4.060156        9.743119       25.295814
  H            4.763659        9.991038       23.679528
  C           31.353428        7.917653       33.883960
  C           30.375181        8.504047       32.868585
  C           30.202717        9.925584       33.404225
  O           31.425522       10.279832       34.030445
  C           32.239703        9.127646       34.180359
  H           30.821968        7.608256       34.784786
  H           31.921373        7.073913       33.499151
  H           29.432165        7.965055       32.816199
  H           30.828639        8.525884       31.876838
  H           29.989022       10.657416       32.620496
  H           29.395828        9.965481       34.149584
  H           33.072799        9.184370       33.465549
  H           32.650359        9.121931       35.193671
  C           30.310492       20.734553       32.534434
  C           30.936715       22.082486       32.884767
  C           32.286457       21.980238       32.174021
  O           32.087692       21.164836       31.030120
  C           30.822918       20.526861       31.109055
  H           30.697783       19.956018       33.192881
  H           29.224311       20.736187       32.586836
  H           31.044422       22.243709       33.954787
  H           30.345936       22.894889       32.459744
  H           32.674705       22.948664       31.847084
  H           33.034106       21.505217       32.824864
  H           30.143642       20.990503       30.379781
  H           30.948497       19.472914       30.846572
  C           16.980257       29.723615       23.961478
  C           15.898310       30.128168       22.962709
  C           16.360869       29.392672       21.704731
  O           17.022112       28.214374       22.137475
  C           17.258994       28.282238       23.534679
  H           17.870640       30.338141       23.822775
  H           16.658890       29.792740       24.998050
  H           15.830164       31.202876       22.811399
  H           14.926922       29.751518       23.285515
  H           15.536237       29.106366       21.046336
  H           17.068410       30.008538       21.131743
  H           16.578670       27.586445       24.045808
  H           18.288171       27.967881       23.728196
  C           17.185130       30.536073       27.811179
  C           17.158840       31.920041       28.455969
  C           15.939000       32.544085       27.777753
  O           15.038526       31.484466       27.496236
  C           15.691433       30.238154       27.678768
  H           17.649411       30.587746       26.825565
  H           17.703644       29.790573       28.409435
  H           18.066150       32.494179       28.283657
  H           16.991081       31.832730       29.530165
  H           15.426451       33.277962       28.405599
  H           16.224362       33.029678       26.833831
  H           15.306439       29.764536       28.592927
  H           15.455236       29.594264       26.827247
  C           19.064332       21.889888       29.183407
  C           19.029243       22.964186       28.098758
  C           18.633682       22.140446       26.873032
  O           17.823959       21.072845       27.339373
  C           17.904581       20.991238       28.753493
  H           20.005311       21.340065       29.139627
  H           18.930348       22.285288       30.187520
  H           19.980462       23.473813       27.964597
  H           18.258220       23.702222       28.323457
  H           18.063522       22.712649       26.136164
  H           19.523572       21.723984       26.380207
  H           16.957585       21.344460       29.185528
  H           18.045584       19.943776       29.033522
  C           24.671828        3.648781       22.042836
  C           24.487093        5.163030       22.111650
  C           25.647892        5.566041       23.021345
  O           26.690622        4.630819       22.795578
  C           26.196206        3.531836       22.046787
  H           24.253892        3.176822       22.932918
  H           24.225254        3.198837       21.159287
  H           23.522745        5.462662       22.515124
  H           24.611607        5.603730       21.121729
  H           26.029654        6.569090       22.812478
  H           25.348974        5.518477       24.078041
  H           26.593714        3.589905       21.023637
  H           26.555364        2.607722       22.507755
  C           21.662132        9.017458       31.122350
  C           20.399949        8.651578       30.344637
  C           19.330295        9.402639       31.137837
  O           19.952307       10.560386       31.672270
  C           21.359749       10.461522       31.523175
  H           21.753839        8.389843       32.009679
  H           22.572113        8.934250       30.532817
  H           20.210903        7.581360       30.306771
  H           20.458171        9.039320       29.326831
  H           18.481156        9.716245       30.524577
  H           18.954627        8.785285       31.966070
  H           21.685040       11.159473       30.738783
  H           21.830303       10.753617       32.465902
  C           12.441125       11.470237       28.443484
  C           11.558291       10.255444       28.720420
  C           11.929950        9.938237       30.169098
  O           12.267717       11.170488       30.785838
  C           12.410345       12.178739       29.797920
  H           13.457020       11.152124       28.205946
  H           12.068970       12.100318       27.639098
  H           11.751332        9.419757       28.051913
  H           10.505147       10.530799       28.651648
  H           11.112277        9.480470       30.732421
  H           12.800730        9.268686       30.209894
  H           11.552081       12.862658       29.860045
  H           13.322077       12.744477       30.008059
  C            6.767600       12.901087       32.243922
  C            7.730519       11.928517       32.921201
  C            7.295745       12.044236       34.382365
  O            5.907133       12.335119       34.376016
  C            5.495583       12.684018       33.063845
  H            7.122427       13.925888       32.360293
  H            6.617896       12.694908       31.186748
  H            8.777052       12.187949       32.779782
  H            7.562201       10.914789       32.555565
  H            7.455522       11.125121       34.952603
  H            7.829434       12.864137       34.883523
  H            4.899227       11.860395       32.646441
  H            4.864851       13.575168       33.123026
  C           19.941190        1.918645       34.896429
  C           19.026808        1.948295       36.119064
  C           18.009857        3.013166       35.707627
  O           17.895313        2.947829       34.295003
  C           18.937498        2.143932       33.765382
  H           20.654671        2.742548       34.938763
  H           20.484808        0.983307       34.786157
  H           19.544933        2.205722       37.039832
  H           18.534132        0.983411       36.245285
  H           17.020114        2.853953       36.144130
  H           18.359989        4.015856       35.990898
  H           18.513174        1.188612       33.425477
  H           19.369685        2.659137       32.903262
  C           27.507480       31.439521       31.390328
  C           26.012378       31.142729       31.481942
  C           25.544570       32.247333       32.429795
  O           26.396738       33.361149       32.215035
  C           27.513346       32.967772       31.433154
  H           28.026529       31.034697       32.260023
  H           27.970691       31.049762       30.486967
  H           25.791893       30.149059       31.864752
  H           25.543807       31.259848       30.503991
  H           24.512392       32.559840       32.249734
  H           25.635160       31.925851       33.477012
  H           27.405794       33.385923       30.422311
  H           28.418060       33.381748       31.886572
  C           11.569870       21.626076       29.634286
  C           12.747603       22.597240       29.594330
  C           13.901818       21.686828       30.014281
  O           13.583067       20.382024       29.557353
  C           12.227255       20.336575       29.141894
  H           11.216632       21.503287       30.658888
  H           10.736781       21.931280       29.005517
  H           12.628790       23.447976       30.261164
  H           12.902879       22.960424       28.577645
  H           14.861518       21.981727       29.581286
  H           14.003207       21.666467       31.108596
  H           12.192383       20.276163       28.044918
  H           11.767429       19.434654       29.554898
  C            4.779871       22.957071       22.187987
  C            5.456295       21.816748       22.945566
  C            6.869723       21.867458       22.364989
  O            7.127487       23.221528       22.028910
  C            5.922196       23.967909       22.084455
  H            4.478682       22.623468       21.194177
  H            3.913412       23.364214       22.703759
  H            4.979838       20.851816       22.789258
  H            5.478205       22.034351       24.014132
  H            7.636093       21.532375       23.069170
  H            6.938937       21.254888       21.454940
  H            5.946821       24.619455       22.969386
  H            5.861034       24.595905       21.191509
  C           15.452046       26.579327       29.196635
  C           16.059367       25.930650       27.954786
  C           15.039474       24.830020       27.661782
  O           13.779227       25.309705       28.102889
  C           13.958062       26.477655       28.888259
  H           15.695597       25.995098       30.084904
  H           15.773590       27.607025       29.348237
  H           17.058734       25.534700       28.119178
  H           16.090519       26.646261       27.132232
  H           14.965106       24.584607       26.598901
  H           15.285921       23.913379       28.216088
  H           13.619315       27.350151       28.311871
  H           13.338777       26.391318       29.785201
  C           25.834224       13.582805       28.455613
  C           26.179183       13.515374       26.969589
  C           27.686581       13.768897       26.999519
  O           28.166847       13.245875       28.227806
  C           27.074303       12.943623       29.080970
  H           25.742292       14.621688       28.774882
  H           24.921289       13.050371       28.711738
  H           25.648462       14.250451       26.369145
  H           25.970886       12.518633       26.578714
  H           28.221237       13.279587       26.180866
  H           27.900895       14.846366       26.962751
  H           26.960868       11.851994       29.141796
  H           27.297758       13.326519       30.080436
  C           20.140689       18.144726       30.246299
  C           20.144036       16.618024       30.277589
  C           21.358408       16.302514       29.403991
  O           22.275245       17.371936       29.573239
  C           21.639121       18.448230       30.243936
  H           19.680830       18.502238       29.324140
  H           19.629697       18.593064       31.095074
  H           19.229589       16.175995       29.889087
  H           20.307454       16.261824       31.295469
  H           21.857255       15.370042       29.681699
  H           21.071085       16.243551       28.344656
  H           22.026049       18.506751       31.271109
  H           21.888818       19.377389       29.724526
  C           29.906939       17.149757       29.555029
  C           29.148491       16.774566       28.283888
  C           27.800064       16.337590       28.856792
  O           27.589127       17.097412       30.036230
  C           28.789683       17.758758       30.402541
  H           30.302092       16.254534       30.036788
  H           30.721672       17.848783       29.381507
  H           29.629345       15.985150       27.711055
  H           29.022774       17.650991       27.646913
  H           26.964691       16.516319       28.174384
  H           27.815831       15.270119       29.118476
  H           28.683385       18.832545       30.193009
  H           28.944702       17.627497       31.476884
  C           30.087064       23.720910       23.948090
  C           31.232054       23.336672       24.882526
  C           31.975490       22.302449       24.036885
  O           31.788052       22.670255       22.679505
  C           30.778954       23.663165       22.585969
  H           29.291525       22.976552       24.000171
  H           29.669192       24.702691       24.157914
  H           30.895736       22.928663       25.832766
  H           31.870748       24.200354       25.071697
  H           33.048782       22.269864       24.242931
  H           31.558243       21.297882       24.194908
  H           31.248902       24.627638       22.346886
  H           30.101711       23.394445       21.770737
  C           16.663900       23.524707       31.719921
  C           16.497897       22.058705       32.113738
  C           15.347369       22.145740       33.116798
  O           14.535357       23.238234       32.716808
  C           15.212712       24.005608       31.734350
  H           17.245616       24.054753       32.475116
  H           17.134509       23.660559       30.749040
  H           17.394355       21.624432       32.549980
  H           16.200483       21.466598       31.247356
  H           14.729239       21.244195       33.141397
  H           15.728015       22.336716       34.130138
  H           14.736540       23.835484       30.758369
  H           15.112951       25.063864       31.990505
  C            6.930929       15.427634       24.192859
  C            7.806145       16.170743       25.199634
  C            9.031669       16.499669       24.346803
  O            8.573505       16.659654       23.013616
  C            7.237999       16.193132       22.905559
  H            7.256441       14.390501       24.103070
  H            5.872805       15.447451       24.442896
  H            8.058971       15.575863       26.074124
  H            7.313160       17.088283       25.523285
  H            9.534765       17.420509       24.654085
  H            9.759430       15.676470       24.377287
  H            6.566510       17.056515       22.796498
  H            7.157790       15.574276       22.007752
  C           10.597678       11.398589       25.849611
  C            9.584250       10.929826       24.807960
  C            9.015065       12.262880       24.321734
  O           10.055282       13.220645       24.438064
  C           11.121479       12.681109       25.202931
  H           10.094160       11.627294       26.789732
  H           11.389532       10.677233       26.037091
  H            8.816243       10.276834       25.215763
  H           10.092727       10.415306       23.991637
  H            8.683757       12.234644       23.280144
  H            8.169276       12.577155       24.949502
  H           11.965601       12.462869       24.533566
  H           11.440265       13.431059       25.931919
  C           25.149576       28.345421       29.134513
  C           24.919238       26.864640       28.841178
  C           23.460328       26.697689       29.266771
  O           22.818828       27.941051       29.031344
  C           23.790499       28.939754       28.764244
  H           25.350367       28.492959       30.196388
  H           25.961669       28.779195       28.555824
  H           25.587850       26.206299       29.390797
  H           25.026381       26.670400       27.773258
  H           22.933876       25.922909       28.702823
  H           23.392121       26.458447       30.337440
  H           23.755240       29.194688       27.695606
  H           23.539386       29.832462       29.343457
  C           14.206465        4.859270       24.111887
  C           13.430713        6.172552       24.184773
  C           12.019039        5.670830       24.489521
  O           12.161031        4.476127       25.241466
  C           13.509898        4.038496       25.197495
  H           14.066703        4.392108       23.136239
  H           15.271046        4.975348       24.300910
  H           13.473903        6.751377       23.265190
  H           13.800853        6.784229       25.008490
  H           11.427181        6.380694       25.073703
  H           11.477162        5.444892       23.560251
  H           13.974368        4.215877       26.177814
  H           13.520031        2.963715       24.996953
  C           30.852607        2.753436       32.973572
  C           30.654631        2.109710       31.603085
  C           32.099460        1.982388       31.119681
  O           32.904360        1.800942       32.273851
  C           32.143297        2.078660       33.438563
  H           31.004723        3.828242       32.867195
  H           30.025172        2.577708       33.656952
  H           30.044693        2.706899       30.929380
  H           30.203592        1.122553       31.711475
  H           32.255526        1.132169       30.450170
  H           32.419043        2.898182       30.602564
  H           31.924152        1.133416       33.955002
  H           32.742042        2.707556       34.102993
  C           30.614469       13.555592       36.011361
  C           31.962226       13.236668       35.368205
  C           32.345653       11.948842       36.097525
  O           31.135028       11.281610       36.417031
  C           30.036035       12.153968       36.207024
  H           30.762524       14.041859       36.976393
  H           29.977678       14.182517       35.391684
  H           32.701482       14.022910       35.501851
  H           31.835480       13.044290       34.302095
  H           32.962123       11.278977       35.491951
  H           32.884779       12.174458       37.028471
  H           29.489750       11.829604       35.310039
  H           29.365756       12.081734       37.067827
  C            3.007527       11.881844       34.448963
  C            3.321921       12.744372       35.669215
  C            1.954902       13.364841       35.958523
  O            0.979576       12.420634       35.546080
  C            1.595265       11.398136       34.779058
  H            2.996334       12.494466       33.546615
  H            3.704434       11.058584       34.310755
  H            4.085382       13.495770       35.481960
  H            3.636819       12.116805       36.503878
  H            1.798444       13.585682       37.017873
  H            1.818813       14.292021       35.384033
  H            1.629309       10.475978       35.376290
  H            0.984838       11.215030       33.890619
  C            5.352511       19.250637       33.782005
  C            6.350419       19.459871       32.645250
  C            5.419097       19.511303       31.433880
  O            4.189477       20.057567       31.883910
  C            4.169957       20.092475       33.302112
  H            5.067706       18.199673       33.845431
  H            5.725817       19.576539       34.749975
  H            7.087844       18.664602       32.565949
  H            6.866216       20.413224       32.766635
  H            5.801719       20.137866       30.623638
  H            5.237454       18.501552       31.039381
  H            4.273988       21.135024       33.634513
  H            3.204055       19.712392       33.645686
  C           17.607517        6.066910       32.061243
  C           19.026865        5.598167       32.373560
  C           18.974887        5.477708       33.896783
  O           17.641499        5.131707       34.236279
  C           16.800086        5.295983       33.105822
  H           17.518720        7.140618       32.231330
  H           17.291612        5.840843       31.045549
  H           19.794345        6.292612       32.040007
  H           19.209575        4.621865       31.922877
  H           19.644418        4.708089       34.290342
  H           19.226375        6.436485       34.371884
  H           16.517044        4.304477       32.725002
  H           15.893418        5.819642       33.420796
  C           18.903716        9.041352       35.126762
  C           19.997451        9.910647       34.510417
  C           19.264106       11.241593       34.342464
  O           18.306895       11.317903       35.386888
  C           18.182409       10.053115       36.017532
  H           18.231443        8.673915       34.350423
  H           19.290455        8.196016       35.691012
  H           20.375057        9.525011       33.566364
  H           20.828681       10.022085       35.207770
  H           19.925808       12.109093       34.413648
  H           18.741257       11.278725       33.376300
  H           18.651849       10.102000       37.010234
  H           17.119326        9.832037       36.145795
  C           17.812489       32.405520       34.993126
  C           19.083127       32.461408       34.148042
  C           20.162387       32.287113       35.216798
  O           19.600409       31.481623       36.240645
  C           18.199218       31.369172       36.048514
  H           17.628538       33.372814       35.462347
  H           16.930875       32.111149       34.428646
  H           19.194441       33.391909       33.596395
  H           19.106882       31.626407       33.446706
  H           21.063201       31.793795       34.841772
  H           20.447741       33.258883       35.643950
  H           17.967690       30.352952       35.699352
  H           17.702913       31.528437       37.009653
  C           21.661925        3.327297       32.203825
  C           22.222243        1.927607       32.446152
  C           23.215445        1.797717       31.291120
  O           23.697258        3.103245       31.014806
  C           22.901123        4.062346       31.692441
  H           20.893627        3.297466       31.430202
  H           21.248086        3.787686       33.097870
  H           21.463073        1.149239       32.427722
  H           22.746597        1.891310       33.401872
  H           24.068203        1.155520       31.527470
  H           22.718869        1.403529       30.393207
  H           23.479665        4.478753       32.529170
  H           22.664350        4.871526       30.996279
  C           29.557132       28.857780       30.379424
  C           30.661805       27.905817       29.926351
  C           30.694161       26.909935       31.085917
  O           29.375128       26.839192       31.603647
  C           28.590771       27.891627       31.065072
  H           29.949869       29.575500       31.100741
  H           29.089205       29.397834       29.559715
  H           31.620504       28.396711       29.776496
  H           30.371131       27.402498       29.003398
  H           31.002333       25.905895       30.781931
  H           31.370377       27.258241       31.879413
  H           27.880262       27.471282       30.339326
  H           28.024878       28.354283       31.878207
  C           25.003829       11.861477       34.617621
  C           24.069669       10.966070       33.806817
  C           23.996452       11.728587       32.483704
  O           25.240530       12.391168       32.321985
  C           25.972182       12.342103       33.536552
  H           24.451389       12.705274       35.032928
  H           25.511781       11.337935       35.424110
  H           23.091368       10.836405       34.263600
  H           24.524293        9.986430       33.654225
  H           23.834956       11.077293       31.620450
  H           23.193755       12.479029       32.510819
  H           26.807745       11.637304       33.421163
  H           26.380674       13.336417       33.736422
  C           20.583515       31.486331       24.772156
  C           20.740857       31.255663       26.273437
  C           20.626299       32.682668       26.810051
  O           19.768110       33.386320       25.926150
  C           19.560901       32.622608       24.748566
  H           21.528380       31.818702       24.340387
  H           20.236802       30.607260       24.234047
  H           21.685096       30.787863       26.541978
  H           19.920257       30.643191       26.649145
  H           20.202883       32.730706       27.816970
  H           21.609070       33.174892       26.819924
  H           18.536377       32.224498       24.757531
  H           19.670536       33.281853       23.883205
  C           28.786610       32.370997       22.096235
  C           27.509226       32.208552       22.917035
  C           27.165759       30.742732       22.650909
  O           28.394636       30.062782       22.449846
  C           29.443876       31.004313       22.290132
  H           28.542202       32.527492       21.044837
  H           29.419542       33.186162       22.438932
  H           26.711410       32.881721       22.612291
  H           27.719344       32.361578       23.976326
  H           26.637522       30.267189       23.481750
  H           26.551875       30.645169       21.744350
  H           30.069282       30.997877       23.194039
  H           30.058701       30.698286       21.439361
  C            6.377368       16.912233       36.065330
  C            7.386190       16.800107       34.924489
  C            7.805772       15.334316       35.037755
  O            6.685321       14.623926       35.540579
  C            5.707911       15.538842       36.010150
  H            6.895830       17.042446       37.016069
  H            5.665905       17.724185       35.934593
  H            8.228949       17.479998       35.024704
  H            6.895033       16.980144       33.967402
  H            8.094429       14.894398       34.079307
  H            8.643507       15.222418       35.740535
  H            4.861003       15.546495       35.309502
  H            5.350306       15.195346       36.984625
  C           16.020014        9.364985       23.508336
  C           16.813524        8.970624       24.751972
  C           17.503014       10.290288       25.099120
  O           16.635934       11.330551       24.676128
  C           15.609279       10.796109       23.855611
  H           16.667183        9.359622       22.630380
  H           15.162508        8.722882       23.321456
  H           17.524560        8.167330       24.573968
  H           16.135894        8.675395       25.554045
  H           17.691049       10.408567       26.169693
  H           18.458540       10.382847       24.563748
  H           14.663987       10.804549       24.416480
  H           15.498159       11.436854       22.976650
  C            8.026437       32.090630       26.906396
  C            6.916265       32.332268       25.886131
  C            7.449234       31.565844       24.675364
  O            8.213411       30.481819       25.179169
  C            8.437290       30.657144       26.569146
  H            8.857611       32.774157       26.728625
  H            7.695787       32.193971       27.937186
  H            6.750984       33.384866       25.668743
  H            5.981954       31.889136       26.233061
  H            6.656914       31.165339       24.037165
  H            8.100018       32.207199       24.064328
  H            7.821159       29.935016       27.123343
  H            9.490039       30.450628       26.780202
  C           24.563716        8.605465       27.910838
  C           23.222832        9.327816       27.801064
  C           23.567095       10.692298       28.398636
  O           24.933756       10.936042       28.105849
  C           25.542837        9.745858       27.631110
  H           24.705518        8.224838       28.923102
  H           24.671791        7.785596       27.204672
  H           22.419387        8.831505       28.340220
  H           22.936417        9.434724       26.754068
  H           22.971299       11.507826       27.979811
  H           23.432049       10.684790       29.489474
  H           25.726472        9.845336       26.551942
  H           26.503794        9.621498       28.137637
  C           11.729759       11.263380       33.977117
  C           10.830672       10.256859       33.262715
  C            9.779967        9.977106       34.337508
  O            9.649125       11.164426       35.103045
  C           10.705886       12.057369       34.788710
  H           12.421075       10.745579       34.643172
  H           12.297131       11.894516       33.297196
  H           11.353384        9.355518       32.951440
  H           10.366056       10.718467       32.390527
  H            8.800599        9.720159       33.924847
  H           10.106333        9.161285       34.997918
  H           10.303349       12.892071       34.197561
  H           11.112817       12.456211       35.721880
  C           15.613420       10.328987       33.314332
  C           15.025125       10.192662       31.911786
  C           15.355148        8.735346       31.588160
  O           15.346354        8.029098       32.818621
  C           15.317840        8.947779       33.899411
  H           16.690201       10.493250       33.257542
  H           15.162210       11.129285       33.896114
  H           15.458238       10.883862       31.192625
  H           13.944581       10.338578       31.940006
  H           14.630236        8.269558       30.915094
  H           16.354218        8.653372       31.137205
  H           14.320034        8.925533       34.359964
  H           16.052256        8.630335       34.644620
  C           31.935703       17.684204       34.891015
  C           30.427453       17.446370       34.870336
  C           30.108443       17.411961       36.365150
  O           31.041562       18.268581       37.004202
  C           32.076626       18.613131       36.097106
  H           32.463086       16.746748       35.071868
  H           32.314628       18.134222       33.976446
  H           30.142103       16.526329       34.365720
  H           29.919530       18.286077       34.394343
  H           29.099225       17.762545       36.597619
  H           30.226273       16.394880       36.765007
  H           31.952257       19.663055       35.796417
  H           33.036706       18.509372       36.609896
  C            3.391174       13.620417       22.586980
  C            4.814057       13.662117       22.034281
  C            5.195303       12.182104       22.074691
  O            3.999366       11.444295       21.879068
  C            2.878605       12.306111       21.997666
  H            3.410903       13.564454       23.676082
  H            2.785705       14.472085       22.285972
  H            5.488530       14.278719       22.623710
  H            4.808678       14.023428       21.005161
  H            5.908654       11.900409       21.295427
  H            5.622092       11.916630       23.052237
  H            2.446995       12.468987       20.999966
  H            2.129018       11.816770       22.625471
  C            3.742122       24.087486       34.720773
  C            2.640580       25.141409       34.633235
  C            1.731303       24.721970       35.788530
  O            2.564708       24.133714       36.774576
  C            3.854375       23.895483       36.233372
  H            3.417003       23.161432       34.244974
  H            4.681023       24.405814       34.273930
  H            2.120474       25.144363       33.678239
  H            3.052794       26.134278       34.817501
  H            1.196557       25.561277       36.241393
  H            0.994972       23.977625       35.453882
  H            4.561441       24.617378       36.665975
  H            4.169199       22.887461       36.516659
  C           12.423628       24.927991       33.789271
  C           11.242317       24.163814       33.195682
  C           11.787782       22.735698       33.176394
  O           12.685934       22.624167       34.268996
  C           12.963040       23.911859       34.796213
  H           13.168731       25.128911       33.018482
  H           12.138607       25.865528       34.260783
  H           10.957290       24.510601       32.205210
  H           10.378664       24.229987       33.858546
  H           11.008994       21.976418       33.288002
  H           12.335359       22.540728       32.243459
  H           12.455295       24.017085       35.765410
  H           14.041179       23.996699       34.957127
  C            5.568459       30.563256       29.082286
  C            6.193407       31.464086       30.145186
  C            5.450479       32.777624       29.900042
  O            4.159746       32.436210       29.420103
  C            4.122216       31.059039       29.081150
  H            6.032020       30.746678       28.112166
  H            5.641835       29.503852       29.316414
  H            7.270326       31.572785       30.040465
  H            5.969067       31.082951       31.142217
  H            5.336315       33.382204       30.803880
  H            5.965976       33.380193       29.138862
  H            3.526341       30.522903       29.833288
  H            3.632323       30.953703       28.109356
  C           30.814780       30.936903       27.636441
  C           32.276512       31.213410       27.980964
  C           32.293031       32.741808       28.014806
  O           31.003756       33.157365       28.436682
  C           30.109034       32.056857       28.401324
  H           30.651916       31.050319       26.563932
  H           30.477579       29.950032       27.944528
  H           32.975866       30.808709       27.253187
  H           32.514691       30.810596       28.966192
  H           33.033508       33.148550       28.708873
  H           32.489755       33.151220       27.013855
  H           29.887005       31.744684       29.431602
  H           29.178378       32.380873       27.927650
  C           17.549018        3.386296       29.370539
  C           16.063204        3.429767       29.720220
  C           15.559998        2.149977       29.052131
  O           16.632918        1.222134       29.081214
  C           17.831940        1.885851       29.448259
  H           17.708285        3.749166       28.354359
  H           18.170612        3.959862       30.054045
  H           15.557357        4.317069       29.346924
  H           15.928007        3.370706       30.800913
  H           14.702583        1.705742       29.564935
  H           15.281729        2.340514       28.005956
  H           18.102121        1.593234       30.472758
  H           18.628573        1.562937       28.772555
  C           13.713998        1.708057       36.003555
  C           12.239762        1.711390       35.605522
  C           11.830251        3.135335       35.982486
  O           12.979002        3.951034       35.815447
  C           14.126209        3.134826       35.640465
  H           13.814495        1.546976       37.077621
  H           14.302246        0.961100       35.475772
  H           11.650096        0.960446       36.126015
  H           12.138971        1.560961       34.529941
  H           11.027956        3.532457       35.354719
  H           11.508913        3.182864       37.032583
  H           14.447644        3.191965       34.590877
  H           14.929248        3.524299       36.272059
  C            2.711734       30.551363       33.913477
  C            2.051861       31.509258       32.924125
  C            2.888607       32.772787       33.126038
  O            4.193497       32.348175       33.486405
  C            4.179281       30.964021       33.797549
  H            2.344446       30.739590       34.923098
  H            2.556739       29.503210       33.668758
  H            0.996069       31.676662       33.123663
  H            2.167348       31.137867       31.905108
  H            2.960150       33.389507       32.226031
  H            2.476296       33.386899       33.939110
  H            4.676197       30.411453       32.987632
  H            4.743561       30.809810       34.721281
  C           21.916015       19.801064       35.293102
  C           22.393324       19.326108       33.922553
  C           23.821037       19.872323       33.896004
  O           24.281758       19.883237       35.237837
  C           23.193737       19.661411       36.120957
  H           21.609212       20.846606       35.244348
  H           21.096970       19.208876       35.694369
  H           21.790803       19.704669       33.100241
  H           22.404491       18.236139       33.883744
  H           24.503994       19.261708       33.299185
  H           23.837625       20.899494       33.505026
  H           23.276483       18.649166       36.541356
  H           23.257290       20.384207       36.938881
  C            1.843404        6.652279       26.248433
  C            1.576318        6.233622       27.692456
  C            2.998232        6.144768       28.247151
  O            3.774372        7.101270       27.543158
  C            3.047334        7.578448       26.422171
  H            2.117721        5.783773       25.648341
  H            0.999691        7.154692       25.781242
  H            1.040285        5.291244       27.776895
  H            1.015063        7.010631       28.212949
  H            3.057590        6.367928       29.315865
  H            3.421694        5.145238       28.074406
  H            2.720283        8.608720       26.621662
  H            3.712523        7.586328       25.554452
