13
Properties=species:S:1:pos:R:3:energies:R:1:forces:R:3:charge:R:1 energy=-454.61806261294026 free_energy=-454.61806261294026 dipole="-0.06317706615495353 0.4007183327966761 0.11296496997731406" pbc="F F F"
C        0.50583673       0.93165366      -0.19017967     -59.16171324       0.00003597      -0.00105364       0.00018755      -0.06182164
C       -0.73377320       0.51409697       0.59774465     -59.16171345       0.00025138      -0.00076909      -0.00070139      -0.06182166
C       -1.02567989      -0.85919553      -0.00746477     -59.08940548      -0.00249544       0.00057302       0.00021938       0.08086878
O        0.22229446      -1.40996473      -0.39747752    -111.67213121      -0.00045107       0.00286064       0.00080643      -0.32607399
C        1.22543471      -0.40780485      -0.34970964     -59.08940566       0.00220181       0.00128923       0.00030562       0.08086878
H        0.21796429       1.32501366      -1.16591560     -13.30782950      -0.00287043      -0.00199348       0.00129033       0.04113953
H        1.11635828       1.66990810       0.32438880     -13.39512710      -0.00234347      -0.00200811       0.00260429       0.03757248
H       -1.56902438       1.20125241       0.48500707     -13.39512699       0.00260175       0.00037000      -0.00306607       0.03757249
H       -0.49263658       0.41717187       1.65704720     -13.30782961       0.00320658      -0.00013848      -0.00189139       0.04113951
H       -1.50397395      -1.54619829       0.69590953     -13.24906142      -0.00041140      -0.00034421       0.00220149       0.03737981
H       -1.66684523      -0.76499229      -0.89530132     -13.26982874      -0.00108923       0.00048853      -0.00184884       0.02789805
H        1.88230260      -0.60161095       0.51004893     -13.26982898       0.00104957      -0.00023665       0.00191984       0.02789802
H        1.82174216      -0.46933003      -1.26409766     -13.24906125       0.00031398       0.00096226      -0.00202724       0.03737984
