192
Lattice="14.05790476106759 0.0 0.0 0.0 14.05790476106759 0.0 0.0 0.0 14.05790476106759" Properties=species:S:1:pos:R:3:momenta:R:3:forces:R:3:charge:R:1:energies:R:1 Built=T with=T Packmol=T charge=0 spin=1 external_field="_JSON [0.0, 0.0, 0.0]" energy=-19.102251052856445 stress="-0.013094190508127213 -0.001234975177794695 0.0018145064823329449 -0.001234975177794695 -0.012865559197962284 7.454591832356527e-05 0.0018145064823329449 7.454591832356527e-05 -0.013312761671841145" dipole="0.361144483089447 -0.06570607423782349 -0.5541108846664429" free_energy=-19.102251052856445 pbc="T T T"
O       13.46584697       5.71360840       6.82875146      -0.84328562       0.71439929       0.02477611      -0.00574816       0.01348678       0.02009065      -0.02644880      -0.09991559
C       12.52146063       4.70385057       6.65570684      -1.03570635      -0.63959026      -0.04721783       0.01690754       0.00037584      -0.02014169       0.01314020      -0.27930403
C       11.12983694       5.18214551       7.08948680      -0.42044056      -0.55934616      -0.46271121       0.00452021      -0.03135865      -0.01847088       0.02175445      -0.15998137
F       10.78034651       6.26241382       6.40364311      -0.87277017      -0.59718087       1.56766381       0.01039025       0.00564649       0.02228122      -0.01149616      -0.22168340
F       11.11452826       5.53142062       8.38633145       0.16314967      -0.19466550      -0.61496325      -0.01487112      -0.08695553      -0.00604302      -0.00903266      -0.23333688
F       10.19783748       4.23735287       6.92069763      -0.98865772      -1.96047212      -0.19039243       0.01764593      -0.01610659      -0.07567179      -0.00959182      -0.25579369
C       12.98111329       3.45219743       7.40880546      -0.26702989       1.25498825       0.03568831       0.03929982      -0.01140764      -0.06130254       0.02399043      -0.14017619
F       13.24206191       3.78501681       8.68154441      -0.63938377      -0.55160752       1.37346804       0.11109890      -0.05614258      -0.06522458      -0.00747627      -0.23473272
F       14.09749725       2.95652157       6.88527264      -0.38457680      -0.02490215      -0.19626532       0.00904138      -0.00581351      -0.13351506      -0.00826492      -0.26647809
F       12.05865196       2.47696067       7.42545881       0.39948556      -0.16100700       0.55028196       0.04039948      -0.00147599      -0.03908703      -0.00821977      -0.27054605
H       13.53074666       5.93572321       7.76807796      -0.17125006       0.15270324       0.05198276       0.00953908      -0.03411423       0.03083233       0.02407243      -0.05340148
H       12.46181934       4.46135791       5.59388593       0.03502196      -0.20830666      -0.07483272       0.03886350       0.02955510      -0.02220814       0.01417924      -0.05306259
O        1.83370343       9.05260997       2.16186822      -0.14254588      -0.71539598       0.23312846       0.02601407      -0.00535714      -0.00895285      -0.02575355      -0.12890108
C        2.94046022       9.84718336       2.43607751       0.38935198      -0.05775241       0.50958843       0.02608055      -0.00038312      -0.01181363       0.01171503      -0.27450487
C        2.76562231      11.24806227       1.82545439      -0.64436990       0.68952074       0.23450617       0.02062581       0.00052933      -0.00578845       0.02191369      -0.16629107
F        1.69250132      11.82777569       2.38239024      -0.82141897      -1.27429426      -0.95533072       0.03851535       0.00050008       0.01530550      -0.01082789      -0.26339048
F        2.55505888      11.23431025       0.50850047       0.08094059       1.49677271       0.83435501      -0.00493416       0.01861647       0.00186254      -0.00948733      -0.22727245
F        3.82890226      12.02295377       2.04344243       0.27861318       1.14787029      -0.15756424       0.02351974      -0.00069286      -0.02926811      -0.00798635      -0.23195787
C        4.22501049       9.08414283       2.08208282       0.00609036      -0.10823325       0.13843775       0.01832557      -0.00015962      -0.03290128       0.02138959      -0.18000598
F        4.27322034       8.73666101       0.79183546       0.06090440       0.15608900       0.37427638      -0.01499486       0.00001132      -0.03246811      -0.01045890      -0.25021517
F        4.24573785       7.95240027       2.79864384       0.69306696       1.53360549       0.85181930       0.04444946       0.00171964      -0.04099544      -0.01100311      -0.25990939
F        5.33608993       9.76673826       2.34894520       0.56245943       0.18019809       0.30236858       0.02781195      -0.00507935      -0.06166097      -0.01116818      -0.22996652
H        1.73235006       8.91954985       1.21012501       0.03327480      -0.27883027      -0.10534343       0.02679302      -0.02787697      -0.00785048       0.02324705      -0.06703062
H        2.95848282       9.99006163       3.51336660       0.02793982      -0.32634875      -0.01032867       0.04569716       0.00261213      -0.01384655       0.01080862      -0.04011482
O        7.39821981      12.14532699      13.47815938       0.59045775      -0.56065709      -0.76291740      -0.03555301       0.10260071       0.02446750      -0.02702508      -0.03196025
C        7.93218051      12.31241857      12.21656088       1.14758940       0.40504823       0.01461776      -0.04403785       0.06822151       0.02332442       0.00902865      -0.27792770
C        9.32971774      12.91042154      12.30187662      -0.21248513       0.62883227       0.37517592      -0.03721213       0.05799327      -0.01343829       0.02066729      -0.16515756
F       10.09428851      12.21806411      13.14531631       0.22441130      -0.40555505      -0.20957321      -0.05819326       0.13225834       0.05532514      -0.01188010      -0.22139385
F        9.29412318      14.17057548      12.76823025      -0.40303751       0.39362868      -1.09074559      -0.00850511       0.09257617      -0.12469745      -0.01088557      -0.28330934
F        9.91351296      12.87775150      11.09884706       0.40167755       0.31573253      -0.44831044      -0.01241594      -0.05289379       0.00261380      -0.01165948      -0.21345568
C        6.92849569      13.10828047      11.38416715      -0.13766802       0.05929871       0.36798604      -0.02769135       0.06848443       0.01343893       0.02161970      -0.16992654
F        6.64893008      14.27024176      11.99595375       0.29493929       0.69078055       0.83203285      -0.05034466       0.06504036      -0.00079778      -0.01061647      -0.26878160
F        5.78972645      12.41095730      11.28422325      -0.28993928       0.47358045       0.02836211      -0.02407929       0.06891190      -0.01247932      -0.01294335      -0.27736634
F        7.34887568      13.37945816      10.15593058      -0.16434238      -0.49595617      -0.27915043       0.00275551       0.07253850       0.01992876      -0.01121950      -0.23243929
H        7.36083377      12.99464046      13.93313198      -0.12599574      -0.02273027       0.00926382      -0.04906220       0.12012573      -0.00122290       0.02503812      -0.03503654
H        8.05335432      11.33750545      11.74580867       0.03485154       0.24461914      -0.11219696      -0.07005897       0.06831324       0.03978977       0.00981621      -0.04426315
O       13.44351366       8.42228459       2.37334139      -0.89573851       1.11860965      -0.49973433       0.00832803      -0.01609514      -0.13225529      -0.02964078      -0.13596760
C       12.21711065       8.58291206       2.98322496       0.85131389       0.72517906      -0.60367746       0.04537275       0.01584797      -0.07987434       0.01101336      -0.27870306
C       12.19657375       9.71996547       3.97937177      -0.68276839      -0.79948396      -1.16435652       0.09935184       0.00189630      -0.05821560       0.02143692      -0.15297364
F       12.55190534      10.86522580       3.40601424       0.78334483       0.23059469      -0.60995460       0.14684972      -0.00319580      -0.03559675      -0.00993195      -0.25060880
F       13.04519919       9.50570372       5.00285881       0.63409611      -0.22506701      -1.16591200       0.08154938      -0.03009096      -0.05891555      -0.01281930      -0.27886069
F       10.96152705       9.82695192       4.46282013      -0.49091577      -0.35242523      -0.63343534       0.09563625       0.03916555      -0.07550266      -0.01068846      -0.16433555
C       11.79289679       7.28491088       3.64154676       0.30784562       1.55063825       0.48336146       0.02561377       0.00990227      -0.09038178       0.02125729      -0.15721866
F       12.62816638       6.91966765       4.61755624       1.08688558       0.83096630       0.42228590       0.03265230      -0.05237491      -0.13113984      -0.01068131      -0.26067054
F       11.83717614       6.32734077       2.70420149       0.03965993       0.24547881       0.02123128      -0.02135926       0.03106447      -0.11547220      -0.00882787      -0.21441355
F       10.55698224       7.33625677       4.12634474      -1.45490285       1.40974050       0.13741041       0.03151689       0.04117661      -0.08248210      -0.01230812      -0.20196494
H       14.15899182       8.41204895       3.02717166       0.26946190      -0.03599345       0.06483654       0.06633049       0.06881373      -0.20140368       0.02464379      -0.03288501
H       11.47116960       8.81014700       2.21768756      -0.19153127      -0.45013790      -0.05916782       0.02279282       0.04544657      -0.02754326       0.01330092      -0.04556978
O       10.30669943       4.94052495       0.58123565       2.10505130      -0.93800866       0.77638345       0.01882115      -0.07380515       0.04893567      -0.02758377      -0.11667755
C       10.17149418       3.79916988       1.37069151      -0.79614030      -0.78705463      -0.56244496      -0.02757537      -0.08282064       0.03416969       0.01235846      -0.26721141
C        9.21557084       4.08106455       2.53663548       0.01776814      -0.71454858       0.32001954      -0.04026691      -0.06912577       0.01461866       0.02200928      -0.17363246
F        8.04922084       4.51647191       2.04839059       0.94573851      -0.67292005      -2.00301314      -0.01178199      -0.00793146       0.00812069      -0.00951708      -0.27115250
F        9.69459350       5.03148963       3.34778334       0.71125124       0.42453392       0.25685501      -0.01661789      -0.10710239       0.04971031      -0.00996317      -0.24934408
F        8.97274049       2.99882483       3.28064848       0.54444256      -0.73354225      -0.90135115      -0.09502333      -0.07150577      -0.02268102      -0.00935593      -0.25670803
C       11.51601829       3.16484113       1.79366636       0.05170091      -0.16305176       0.21635600      -0.04008897      -0.07658686       0.06286687       0.02222282      -0.16378132
F       12.33966312       4.02347782       2.40413820       0.66613578      -0.56968691      -0.25016706      -0.03408882      -0.05361397       0.02453010      -0.00899036      -0.24072018
F       12.15781869       2.69784684       0.72780021       0.20697083      -0.09439345      -0.26984636      -0.03782898      -0.11655739       0.07415164      -0.00913642      -0.21561085
F       11.31893499       2.13828200       2.62691894       0.69753853      -0.71364452      -0.52241546      -0.02592440      -0.04317880       0.09483505      -0.00973766      -0.24215059
H       10.82374775       5.61534958       1.04110234      -0.17454800       0.28677764      -0.17716906      -0.00282342      -0.07670671       0.08428512       0.02272676      -0.07345378
H        9.68045197       3.04501619       0.75292566      -0.17963291       0.06414775      -0.20240028      -0.02499875      -0.06617265       0.02077909       0.01418111      -0.03579405
O        8.48726927       7.19441660      11.69112667       0.51104457      -0.90233530      -0.34482928       0.03446974      -0.00413087       0.05741051      -0.03042646      -0.03447186
C        8.29910019       8.52006111      12.04316701      -0.18898005      -0.40395555      -0.72629657       0.02804148      -0.01725209       0.11862794       0.00927789      -0.28122827
C        9.02295283       8.75262071      13.36690759       0.22453927      -0.93070378      -0.67256640       0.01864523      -0.03210510       0.12844808       0.02064326      -0.16004218
F       10.32386698       8.44487964      13.25998152       0.22913054       0.35811557      -0.38451041       0.00128645      -0.07281782       0.13719685      -0.01289609      -0.25677505
F        8.52433152       7.94114222      14.31744548       0.63318521       0.40289586      -0.55522591      -0.00336895       0.00962012       0.14347762      -0.01074213      -0.28706810
F        8.92416036      10.00306904      13.79412840      -0.54420270       0.65487498      -0.36770304       0.07474145      -0.01352594       0.11201143      -0.00987455      -0.22147749
C        6.79624514       8.79602078      12.11971930      -0.30530989      -0.18397604      -0.98457886       0.03640956      -0.01530291       0.10353640       0.02096454      -0.14524984
F        6.25545460       7.90085378      12.95131294       0.59162643       0.59404912       1.35249682      -0.01250033      -0.04078192       0.03712102      -0.01049315      -0.18419237
F        6.27388556       8.67438445      10.88964864       0.23599172       1.28734957      -1.07140468       0.05063227       0.04092250       0.08733780      -0.01330048      -0.22742699
F        6.46196275      10.00545331      12.55646661      -0.07825458       0.06304013      -0.71368277       0.04300994      -0.03767586       0.15246141      -0.00936036      -0.19417951
H        8.16801741       6.63482978      12.41251619       0.33242112       0.02056613      -0.12317878       0.02405028      -0.04014824       0.02681482       0.02513278      -0.03087463
H        8.72653633       9.14599699      11.25660720      -0.14227588      -0.14508295      -0.15864012       0.04412347       0.00312264       0.17208268       0.01166020      -0.05361093
O        4.18071453       1.50038884      12.01463002      -0.82707718      -0.61631191       0.41251562       0.00027778      -0.06629053       0.00128186      -0.02549133      -0.09519304
C        2.92697298       1.71001751      11.44571088      -0.63529816       0.29054679      -0.62471756       0.02711308      -0.03264495      -0.03570491       0.01350980      -0.28130633
C        2.99333239       1.57151099       9.92269375      -0.35192062       0.58403678      -0.71940694       0.06279656       0.00296340      -0.04110993       0.02277499      -0.15617664
F        3.53845860       0.40120059       9.60486215      -0.55232401       1.00987509      -0.04312206       0.08428758       0.00896462      -0.03329569      -0.01108206      -0.22186780
F        3.78194856       2.52029797       9.37064023      -0.19803882      -0.35250093       0.32159970       0.07337780       0.01008694      -0.02321316      -0.00990521      -0.27201754
F        1.78858419       1.68483610       9.36284930      -1.00895574      -1.03338661      -0.00515772       0.07322780      -0.01257750      -0.06099609      -0.01116598      -0.23849314
C        2.38352090       3.06713605      11.86411896       0.77673787       0.62499896       0.07098992       0.00939594      -0.04751717      -0.00067472       0.02267485      -0.15671018
F        3.17775235       4.04033170      11.36665817      -0.08762808       0.01008418      -1.63670310      -0.01398409      -0.01662976       0.03156146      -0.00998095      -0.24475034
F        2.39852849       3.15811480      13.19394667      -0.62964720       0.89393407       0.30222352      -0.00600489      -0.07369661       0.00417501      -0.00857326      -0.25015464
F        1.14348349       3.27667800      11.42662375      -0.77036729      -0.08044581       0.97527933       0.00482181      -0.07154423      -0.00430699      -0.01182982      -0.24472657
H        4.80159677       2.15981269      11.68082463       0.28053521       0.08442116       0.30760652       0.02910092      -0.06867190       0.05413583       0.02300713      -0.04103003
H        2.25073606       0.94784695      11.83543559      -0.07367714       0.18871121      -0.09815002       0.01340267      -0.04465657      -0.09226394       0.01612394      -0.04803693
O        2.39680082       6.90587557      10.59119936      -0.23901354      -0.13199467       0.64515957       0.00643420      -0.01387648       0.04157912      -0.02997014      -0.12200883
C        2.06392759       7.45763738      11.82225755      -0.52222632      -0.40357250       0.92586716      -0.03673111      -0.01038340       0.03166796       0.00816830      -0.29600447
C        2.78070003       8.76314582      12.11080273       0.17460296      -1.20310379      -0.36359426      -0.04243633       0.00735816       0.02495410       0.02044621      -0.15817976
F        2.59581377       9.71198648      11.20818896      -0.08552827       1.05668506      -0.60683583       0.04914424      -0.05963670      -0.04259501      -0.01134233      -0.18478647
F        4.09280169       8.55707064      12.18798062       0.16559761       0.70788577       0.27060869      -0.05414558       0.00967561       0.14756146      -0.01001309      -0.21741675
F        2.33597199       9.25563623      13.27439039       0.45579430      -1.28341482      -0.45058905      -0.14227018       0.07287898      -0.06390893      -0.00812124      -0.18427299
C        2.28013207       6.45413838      12.96132065       0.23784688       0.81540419      -0.11323017      -0.06724305       0.00624747       0.04678357       0.02206079      -0.15744470
F        3.52606402       5.97408031      12.97067818      -0.07326163       0.21585190      -0.00689745      -0.08073099      -0.00019952       0.10595503      -0.00964050      -0.24806416
F        1.41177717       5.45690447      12.78406763       0.16516918       1.14107050       0.37158387      -0.06945924       0.00238083       0.05139894      -0.01064640      -0.21058813
F        2.04063830       6.95034061      14.18566869       0.28663939      -1.09585136       1.19362826      -0.09749948       0.03959910       0.01950445      -0.00852724      -0.25037852
H        3.34650186       6.73547871      10.53147985       0.04971767       0.06285807      -0.08530962       0.00853062      -0.02457808       0.10510860       0.02077974      -0.06877366
H        1.00072958       7.66728617      11.80239126      -0.37534092      -0.02220329       0.07506107      -0.01665873      -0.00244859      -0.00509549       0.00969358      -0.02574653
O        4.20269698      13.61833963       6.86195933      -0.97199001      -0.46183766      -0.24460647      -0.06951306       0.11130781      -0.00641497      -0.02566792      -0.04493047
C        4.68878098      12.41565537       6.36110432      -0.36255832       0.10437258      -0.79976636      -0.04228818       0.13308270      -0.00521759       0.00941038      -0.28693536
C        6.21053959      12.51091416       6.42980132       0.50919522       0.73920976       1.02653135      -0.04254016       0.11930483       0.02844804       0.02036707      -0.14147241
F        6.50826466      12.56452475       7.73029027      -0.09042981       0.59247996       0.51663474      -0.03898526       0.11181778       0.01746938      -0.01221522      -0.20771234
F        6.66059465      13.65138846       5.85907036       0.83203406       1.15269058       0.99270824      -0.02598945       0.11517315       0.03383441      -0.00895483      -0.29145569
F        6.88273878      11.51845637       5.86913919      -0.52572558      -0.58275179      -1.13300606      -0.05480427       0.11626011       0.02661299      -0.00982140      -0.17734343
C        4.15706972      12.12973484       4.96740776      -0.19109247      -0.08568915       0.42445989      -0.00215266       0.12611371      -0.02171181       0.02127484      -0.11918629
F        4.47395970      13.17333940       4.18886255       1.26519635      -0.72976346       0.80278477      -0.00118274       0.09183600      -0.04942649      -0.00819483      -0.20459598
F        2.83697955      11.96932569       4.84170916       0.10045706       0.95812121      -1.71786588      -0.00519679       0.14499031      -0.03723831      -0.00967567      -0.16311806
F        4.69314835      10.98954748       4.51603614      -0.44436099       0.34848462       0.63560280      -0.01810473       0.10025587       0.02490402      -0.01028471      -0.15473206
H        4.49157071      14.31720034       6.26250385       0.22844853       0.10282519       0.31688258       0.00003067       0.14406374       0.05485896       0.02719299      -0.03250115
H        4.42265486      11.58794924       7.01032719      -0.17834411      -0.22169966       0.04400597      -0.04393971       0.12295696      -0.02340745       0.00962257      -0.03744810
O       11.61744427      13.05244693       8.28816143       0.50879711      -0.87502813       1.32487999       0.01945339       0.03053138      -0.00168784      -0.02805945      -0.09541386
C       10.79466092      11.93952668       8.17282336       0.91526173      -0.55274837       0.57250563       0.03552493       0.02419660      -0.03289707       0.00893406      -0.30514777
C       11.38777880      10.90679961       7.21500267      -0.04075908       0.03313530       0.73524160       0.03702344       0.07732069      -0.07784609       0.01890248      -0.15544818
F       12.53804685      10.38627166       7.62842944       0.27424229       0.17263082       0.46954197       0.01526953       0.02967136      -0.05195924      -0.01203630      -0.14007951
F       11.66426392      11.54459810       6.06518325       0.16941769       0.90054712       0.28671401       0.10213390       0.08674446      -0.04660497      -0.01000427      -0.20542420
F       10.54971008       9.89172079       6.98542381       0.36858168      -0.43610031       0.47945662       0.01397709       0.10913876      -0.09516272      -0.01307349      -0.22266971
C        9.41368598      12.32994939       7.67724583      -0.60593516       0.78246627       0.96259907       0.00691660       0.01174448       0.03985207       0.02167932      -0.15563203
F        9.41999658      12.71818358       6.38770183      -0.45180637      -0.91247116       1.29069276      -0.07255007      -0.04989844       0.03409811      -0.00895229      -0.23933753
F        8.94916029      13.35448379       8.37436168       0.18584365       0.17234680      -0.59350436       0.07169120       0.05307062       0.02179234      -0.01040705      -0.20829000
F        8.59546127      11.27720360       7.80543220      -0.26034757       0.59662205      -1.26482182      -0.00030670       0.04178730       0.15717739      -0.01268777      -0.20596114
H       11.76543640      13.42271380       7.40786890      -0.08659926       0.10893398       0.33210283       0.04112147       0.06849849       0.01633222       0.02595708      -0.03923315
H       10.65096113      11.50890093       9.16129142      -0.09410726       0.01897545      -0.05900438       0.07626338      -0.01881562      -0.05836509       0.00988242      -0.05549282
O       14.07623032       8.79199253      10.26618841       0.58634588      -0.48990928       0.53725615      -0.01569244       0.05404694       0.02786995      -0.02618666      -0.07441141
C       12.86813288       8.86557930      10.94668729      -0.11959313       0.91047398      -0.56973902      -0.02683207      -0.00211796       0.03543895       0.01076769      -0.24512355
C       11.84324726       8.09294473      10.13030468      -0.41790227       0.36489121      -0.12298162      -0.00051260       0.00444425      -0.01152956       0.02038215      -0.14154337
F       12.30772313       6.85217638      10.05427956       0.15342687       0.44632323      -0.18673021       0.02865078       0.01492705      -0.05717394      -0.01144044      -0.17559290
F       11.72953502       8.53357307       8.87434316       0.30979492      -1.07408951      -0.97855086       0.00080721       0.04870038       0.01134297      -0.01106374      -0.24300763
F       10.62495033       8.08728550      10.65187475       0.87250917      -0.00077817      -1.14647256       0.00346035      -0.06202092      -0.02664062      -0.01083073      -0.21421707
C       12.52559448      10.29793624      11.33700645      -0.09416051       0.28548779       0.13675493      -0.06648658      -0.01375492       0.05220062       0.02106497      -0.16728102
F       12.51224708      11.11336682      10.28088891      -0.91272219      -0.29357024       0.67563656      -0.05432811       0.01355946       0.08161159      -0.00921779      -0.21345860
F       13.42789858      10.74769301      12.21022707       1.44326912      -0.81927417       0.14973408      -0.11262415      -0.01275707       0.08880075      -0.01033302      -0.25632557
F       11.32030907      10.37592717      11.90546788       1.36456558      -0.32397715       0.66966137      -0.08251359      -0.05515064       0.01897957      -0.00938443      -0.22976665
H       13.97069879       9.15831514       9.37740932       0.13522851      -0.02264946       0.27437874      -0.03245721       0.01041024       0.00993550       0.02270002      -0.04644457
H       12.97006841       8.31951264      11.88855259       0.12178523       0.03660215      -0.19218901      -0.01946450      -0.01361801       0.00750931       0.01386714      -0.03060272
O        2.15266419      12.12584480       7.11900938       0.14735079      -0.84680943       0.47669011      -0.05316653       0.03789233       0.01978818      -0.02346062       0.03942212
C        2.25512068      11.39673145       8.29129334      -0.21186927       0.46141185       0.49572048      -0.03679609       0.01342766       0.00314855       0.01250621      -0.23501202
C        2.17192310       9.91119643       7.89917334      -0.18241076      -0.13510612       0.07443735      -0.03374474       0.02100636      -0.02328838       0.02298017      -0.12330255
F        3.17978789       9.62893983       7.06377841      -1.52689156      -0.87184888       0.10090824      -0.07649452       0.07313780      -0.07604646      -0.01008388      -0.25704941
F        1.02492275       9.66946735       7.22726386       1.13591266       0.89779136      -0.57611380      -0.04496738      -0.01297168       0.01833796      -0.01084987      -0.28692040
F        2.23381809       9.04938965       8.89813285       0.69029595       0.00036912       1.08899044       0.03614359      -0.00264337      -0.04817001      -0.00904280      -0.18557541
C        1.16948545      11.95386061       9.19925596       0.34780963       0.16816854      -0.24659032      -0.01540213       0.00927076       0.04815524       0.02077097      -0.14152399
F        0.01719965      11.92264333       8.52632812      -0.29397269      -0.10742541      -0.13803721      -0.04518655       0.07023414       0.09667838      -0.01070823      -0.18304458
F        1.40357707      13.22795714       9.49004474      -2.51791825      -0.02141910      -0.25801810       0.02778304       0.00893122       0.03894817      -0.01115351      -0.23107176
F        1.03514037      11.30423008      10.34554993      -1.05886093      -0.87479247       0.23236526       0.01014446       0.01590703       0.04829065      -0.00974998      -0.18464459
H        1.32405213      11.89546733       6.67928060       0.17641684      -0.02958259      -0.08377932      -0.04796465       0.03713164      -0.01072877       0.02706061      -0.02606919
H        3.22899920      11.57960273       8.75544446       0.11410545      -0.12987272       0.06026916      -0.04956191       0.01223170      -0.01702446       0.01374024      -0.04539812
O        8.78130615      10.98157069       4.08601658       0.28631520      -0.11115008      -0.40790334       0.02960317       0.07135731       0.02532277      -0.02979218      -0.04524998
C        8.67588986      12.26661032       3.56393179      -0.17305011      -0.41959478      -0.61912294       0.01905429       0.04472717      -0.02457540       0.00860701      -0.29735926
C        7.51481605      12.27439330       2.58815700      -0.43124909      -0.21063252      -0.44058207       0.02171514      -0.00642992      -0.04118651       0.02199885      -0.15444477
F        6.38871868      12.05717131       3.23960638       0.51125388      -0.28845475       0.04328174       0.01483989       0.05830754      -0.04226363      -0.00946986      -0.17104742
F        7.66584141      11.28047532       1.70940951      -0.49233541       0.59677110      -0.12468173       0.01822990      -0.05865696       0.03027550      -0.01107010      -0.19653182
F        7.36711121      13.43722604       1.91846898      -0.29061698       0.43819960      -0.49292327       0.04761345      -0.04401334      -0.09323482      -0.00846038      -0.27295020
C        9.98533949      12.72431022       2.92863162      -0.13018149       0.33701836      -0.32764870       0.01148220       0.04286396      -0.02463949       0.02099654      -0.18113551
F       10.40020537      11.83928132       2.00469354       0.41705845      -0.99106829      -0.27493605       0.04238438       0.01984960       0.00727171      -0.01089631      -0.28409344
F       10.93078939      12.83437694       3.86174348       0.03849794       0.24699594       0.46460901       0.00584412       0.07914916      -0.01862272      -0.01079996      -0.23910320
F        9.86858601      13.91546000       2.33222292      -0.03432552       0.00244963      -1.11223162       0.00742712       0.00597663      -0.06299531      -0.01124582      -0.24696478
H        8.89482680      10.35471374       3.35833938       0.11925462      -0.03810185      -0.03901135      -0.01642606       0.03368969       0.05543165       0.02555060      -0.03115048
H        8.44709730      12.94277776       4.38323902       0.07923468       0.10331482       0.22486326      -0.01336155       0.06862417      -0.06437474       0.01193277      -0.05821994
O        6.99122636       3.95345930       8.90288138      -0.13238641       0.17391739       1.25060186      -0.03503903      -0.06704952       0.00036888      -0.02714624      -0.13874701
C        6.44668177       4.31358308      10.13038811      -0.49550774      -0.14829886       0.27034172      -0.03732739      -0.07196543       0.00115514       0.01273635      -0.28407204
C        5.99344081       5.76518206      10.11176465       0.27703470      -0.40069255      -0.10059688      -0.06210550      -0.07238684       0.00277127       0.02152333      -0.15219328
F        4.92343933       5.92472691       9.30458458      -1.09021692       0.03120544      -0.44346191      -0.02036250      -0.10742039      -0.04564001      -0.01072672      -0.25549856
F        6.98014580       6.54086706       9.69455122       0.59721262       0.83595864       0.38955997      -0.07216719      -0.03673282       0.02804426      -0.01107641      -0.14428604
F        5.59327966       6.16901787      11.32077034      -0.47553120       0.01920092       0.48877376      -0.13011217      -0.08143910      -0.02684848      -0.00961160      -0.21580136
C        7.45810028       4.07757365      11.25615517       1.03058185      -0.91964189      -1.06681562      -0.05518144      -0.09122551       0.00911641       0.02310704      -0.13721232
F        8.55520785       4.79187686      11.02628667       0.61783345      -1.22098605      -0.02171982      -0.04417240      -0.06354459       0.08009304      -0.00976467      -0.13826889
F        7.79397815       2.78452840      11.31681080       0.07240273      -0.47161116       0.04494721      -0.04442140      -0.06747547      -0.02852037      -0.01104346      -0.27200815
F        7.01212114       4.42492859      12.47788723       0.19184237      -0.49698612      -0.67449710      -0.11906444      -0.11809094      -0.01094988      -0.00960759      -0.27585006
H        7.73667508       4.53765621       8.69678271       0.06813233      -0.26967895       0.12934769      -0.03496379      -0.06046569       0.00557074       0.02371381      -0.05493269
H        5.56518417       3.70045510      10.30618986       0.00957127      -0.21090561      -0.15442605      -0.01695495      -0.06879707      -0.01364211       0.01257142      -0.05246629
O       10.40333602       3.46406255      10.00750092      -0.21483097       0.92412643      -0.20027545       0.06478097      -0.02072327       0.02921499      -0.02989049      -0.09214415
C       10.91366551       3.27360093      11.29044386      -0.90861785       0.34389402      -0.37397286       0.07330569      -0.04277765       0.02319796       0.00836602      -0.29811540
C       11.73108894       4.48581752      11.74032911      -0.42236969      -1.04562065       0.65278205       0.08728984      -0.05406028       0.02379542       0.01916512      -0.18478419
F       10.94495600       5.56776891      11.78187468      -1.07540834       1.15354019      -0.71255552       0.09874824      -0.04430579       0.04390270      -0.01423781      -0.23998678
F       12.72976208       4.70527289      10.87858704      -0.18082421       0.15709115      -0.21739436       0.08363373      -0.03185283       0.02798412      -0.01197985      -0.18269092
F       12.29656778       4.34815635      12.93596734      -0.06156870       1.10685827      -0.14666857       0.08881966      -0.07970241       0.01828613      -0.01065268      -0.22293171
C       11.69266459       1.96338659      11.30004953      -0.20649715      -0.43384157       1.14397230       0.06645510      -0.05076136      -0.00277058       0.02092180      -0.17748642
F       12.74709862       1.99691873      10.47348338      -0.20511161      -0.81447524      -0.53061049       0.09912981      -0.03070499       0.04472954      -0.01125450      -0.26374939
F       10.88456712       1.00242872      10.86512511      -0.05009624       0.26114418      -0.77285758       0.08612388      -0.02843944      -0.08547439      -0.01235147      -0.21713577
F       12.13568387       1.63173959      12.51456258       2.05458000       0.72651680       0.90303720       0.00322170      -0.11561927      -0.00338736      -0.01029306      -0.25789398
H       11.14046941       3.57372935       9.39823697       0.16319957       0.16624234      -0.13439227       0.07368987      -0.04839815       0.01603128       0.02028354      -0.05625641
H       10.07323286       3.16339129      11.97527647      -0.10042554      -0.16323504      -0.30173128       0.07961164      -0.04754587       0.02242640       0.01044605      -0.05406836
O        6.31383371       6.85811593       7.36478062      -0.75784445       0.81583518       1.31930419      -0.02578609      -0.06096942      -0.06232309      -0.02581482      -0.06200261
C        6.96904880       7.54210795       6.35498735      -0.02345980      -0.65422311      -0.24715372      -0.02467192      -0.04731046      -0.05301462       0.01163788      -0.27900609
C        6.03662826       8.59609007       5.78990513       0.29268724      -0.37900155      -0.12253884      -0.00688478      -0.01114808      -0.01638951       0.02094140      -0.16718498
F        5.74925006       9.47334400       6.76374316       0.55522763      -1.08524145       0.22184561       0.04248733      -0.01288593       0.00033392      -0.01215274      -0.23149633
F        4.87202830       8.04899429       5.40124041      -0.54869172      -0.28789839      -0.29423011      -0.02866937       0.03279701       0.01175364      -0.00988779      -0.27608338
F        6.56952201       9.23299553       4.75641637      -0.17679301       0.67862183       0.01067171      -0.01434430      -0.00413058      -0.01731465      -0.01036625      -0.20999765
C        7.45712273       6.54703436       5.31106022       0.95673857       0.33558692       1.41378401      -0.04856205      -0.03109619      -0.07678476       0.02148931      -0.16670643
F        6.43548372       5.82356386       4.82634159      -0.44390274      -0.53891048       1.50564529      -0.05166030      -0.02133062      -0.07742853      -0.00777772      -0.28763121
F        8.30585075       5.69203131       5.88788593       1.24144542      -0.69062868       0.60789461      -0.05497713      -0.04899103      -0.09410831      -0.01164830      -0.25144199
F        8.06906785       7.13944317       4.28859372      -1.33813534       0.08973543       0.46978487      -0.03922698      -0.02284428      -0.06816020      -0.01092742      -0.23172647
H        5.51755342       6.44604075       7.00658763      -0.05770034      -0.00222555       0.21046825      -0.04591412      -0.03688152      -0.04783195       0.02706789      -0.03371652
H        7.83312881       8.05828184       6.78283110       0.04803829      -0.01724584       0.28113364      -0.00909834      -0.07602295      -0.06245239       0.01292798      -0.05172319
192
Lattice="14.05790476106759 0.0 0.0 0.0 14.05790476106759 0.0 0.0 0.0 14.05790476106759" Properties=species:S:1:pos:R:3:momenta:R:3:forces:R:3:charge:R:1:energies:R:1 Built=T with=T Packmol=T charge=0 spin=1 external_field="_JSON [0.0, 0.0, 0.0]" energy=-16.603126525878906 stress="-0.00828121230006218 0.00028151541482657194 0.005307686980813742 0.00028151541482657194 -0.012309132143855095 -6.564403884112835e-05 0.005307686980813742 -6.564403884112835e-05 -0.012109427712857723" dipole="0.36310407519340515 -0.024944201111793518 -0.3518969416618347" free_energy=-16.603126525878906 pbc="T T T"
O       13.43796241       5.73405053       6.83096720      -1.03051079       0.55761157       0.09015091      -0.67811298      -0.70999986      -0.31650689      -0.02669216      -0.06317781
C       12.48416018       4.68180063       6.64994854      -0.68661986      -0.34426950      -0.25859733       1.23971045       1.13349867      -0.26566073       0.01513376      -0.27151173
C       11.11045931       5.15767447       7.07274126      -0.56902366      -0.66394926      -0.30117922      -0.48287064      -0.34010273       0.63619572       0.02273665      -0.13678634
F       10.75739517       6.24771538       6.44235902      -0.92258158      -0.51375338       1.35466540      -0.22372827       0.31876311      -0.86140358      -0.00984326      -0.19508630
F       11.11860733       5.52485102       8.37062663       0.14951837      -0.35221229      -0.58724124      -0.05272652      -0.55134100       0.15616535      -0.00915307      -0.21437621
F       10.17347082       4.18809433       6.91556187      -0.86079023      -1.79779773      -0.19773065       0.45187807       0.62745196       0.03778947      -0.01035097      -0.25600857
C       12.97246821       3.49402182       7.41367514      -0.11868852       0.59324999       0.29217365       0.47425798      -2.35627723       0.98867774       0.02409014      -0.13163222
F       13.22622747       3.77117828       8.71434748      -0.58490261      -0.49078507       1.08391703       0.12689768       0.28420243      -1.02997267      -0.00808243      -0.22425583
F       14.08650272       2.95766928       6.87999705      -0.49780991       0.17479939      -0.19002426      -0.36453325       0.72305465       0.13215421      -0.00899194      -0.25963685
F       12.06934632       2.47410372       7.43909043       0.42671993      -0.02025790       0.49298003       0.02034307       0.46895197      -0.17600648      -0.01026803      -0.25341114
H       13.44440855       5.99463654       7.76237442      -0.18542830       0.08674318      -0.06949537      -0.02801717      -0.06132382       0.08225155       0.02381579      -0.06096009
H       12.47867657       4.38417463       5.59398907       0.02285142      -0.08338142       0.09068833      -0.08867479       0.31925330       0.13805430       0.01537082      -0.05343992
O        1.83015536       9.03051826       2.16466768      -0.04989278      -0.69571670      -0.01870574       0.47820833       0.36898604       0.32810566      -0.02552588      -0.11261382
C        2.95377862       9.84329539       2.45187576       0.20259149      -0.15509655       0.22980430      -0.68901956      -0.27777207      -0.43669206       0.01258292      -0.23074676
C        2.74522361      11.27258683       1.83609387      -0.23027544       0.42985478       0.30133324       1.47391772      -0.95404768       0.17380999       0.02257041      -0.12559664
F        1.66974947      11.79663053       2.35956260      -1.00284933      -1.07212434      -0.74498178      -0.70415872       0.75485271       0.80384779      -0.00810991      -0.24440601
F        2.55698669      11.27227400       0.52841190       0.06576359       1.40999530       0.64613310      -0.03206570      -0.35550040      -0.71898198      -0.00961866      -0.22261553
F        3.83469146      12.05217433       2.03967001       0.11480163       1.09661987      -0.11396443      -0.63355517      -0.20338078       0.21887942      -0.00962087      -0.23684576
C        4.22720047       9.08326181       2.08695415       0.13763770       0.13992674       0.09148376       0.45434105       0.88437355      -0.12299877       0.02117491      -0.17710145
F        4.27474072       8.74034616       0.80099089       0.05893044       0.11658253       0.32298391       0.01163503      -0.14873293      -0.16584481      -0.01007122      -0.25406098
F        4.26380952       7.98991022       2.82101522       0.70130260       1.29146448       0.90051969      -0.00423462      -0.92196536       0.20775406      -0.00972684      -0.24209076
F        5.35012902       9.77131460       2.35595130       0.50117430       0.17545516       0.22422704      -0.24388534       0.01661530      -0.24971367      -0.01254581      -0.23225504
H        1.76667476       8.80189192       1.23231090       0.11704434      -0.19303896       0.17030295       0.16128394       0.07775281      -0.26932913       0.02285196      -0.07271601
H        2.97642963       9.86444631       3.53999645       0.04019004      -0.13879000       0.11062622      -0.02086282       0.62030941      -0.10561228       0.01141963      -0.03080127
O        7.41593583      12.13008246      13.45699979       0.56327775      -0.43735611      -0.58008449      -0.03229566       0.02982797       0.44267863      -0.02623114      -0.00546668
C        7.97144946      12.33364590      12.21736696       0.62616132       0.61663060      -0.02058372      -1.79007816      -0.15297091      -0.54368669       0.00878560      -0.24398796
C        9.32578995      12.93411075      12.31370215       0.12793288       0.46968153       0.12910200       1.22976375      -0.66010386      -0.90542990       0.02087130      -0.15374765
F       10.09912116      12.20978196      13.13994912       0.13029354      -0.18650218      -0.21484297      -0.28619918       0.71837759      -0.05252067      -0.01177718      -0.22037652
F        9.28411019      14.18253742      12.74032207      -0.35277908       0.57805371      -1.02871340       0.22360446       0.63640016       0.35527882      -0.00872892      -0.27685583
F        9.92301283      12.88564574      11.08869130       0.30859695       0.29809250      -0.29147090      -0.30699596      -0.01785270       0.55527836      -0.01344155      -0.20796439
C        6.92423164      13.11288928      11.39815033      -0.03780351       0.19561429       0.28577458       0.36650434       0.41537470      -0.35387206       0.02162924      -0.15396866
F        6.65624741      14.28758578      12.01669983       0.27086290       0.62023899       0.74655455      -0.05373329      -0.31041762      -0.32400143      -0.01087083      -0.27046219
F        5.78275935      12.42380758      11.28549852      -0.22454890       0.52805677       0.09354928       0.27214083       0.15732174       0.26810649      -0.01204175      -0.27559996
F        7.34424310      13.36737738      10.14990315      -0.20732857      -0.42712453      -0.14943901      -0.15524893       0.21649674       0.47495669      -0.01240858      -0.23467430
H        7.29820749      12.97037849      13.91947939      -0.12581011      -0.08502909      -0.07271810       0.00103863       0.04338966      -0.07587491       0.02540857      -0.03500165
H        8.07530020      11.39540704      11.68019106       0.06883127      -0.03636075      -0.14174055       0.08684130      -0.26264107       0.24953029       0.01009165      -0.04016094
O       13.42660299       8.45580452       2.36000580      -0.13024106       1.04974598      -0.48533349       0.88981706      -0.18334010      -1.44182968      -0.02789155      -0.09969405
C       12.24238603       8.60650559       2.95661866       0.19620026       0.29733387      -0.69524599      -2.12367916      -1.52122056       0.01635780       0.01214427      -0.19711210
C       12.17331428       9.69725402       3.93576166      -0.37697314      -0.10625422      -0.86654166       1.04402578       2.41729021       1.14508009       0.02198786      -0.11595811
F       12.57178630      10.86943426       3.39046838       0.70965107       0.04390750      -0.58126748      -0.39894885      -0.60842490       0.10517919      -0.01107193      -0.24142276
F       13.06034460       9.49921064       4.97083308       0.47844783      -0.29262151      -1.35929505      -0.63260674      -0.20905055      -0.62135059      -0.01474519      -0.26200137
F       10.95045623       9.81781117       4.44538329      -0.32990466      -0.36100906      -0.73598205       0.52156973      -0.02466680      -0.31060088      -0.00937436      -0.16079791
C       11.80445821       7.33975286       3.66048051       0.23057143       0.94766801       0.44531564      -0.30290028      -2.19472957      -0.07908173       0.02135296      -0.09859398
F       12.65461129       6.94154411       4.62680058       0.89362224       0.88783232       0.26401798      -0.76032406       0.25772873      -0.47635841      -0.01036429      -0.24881293
F       11.83795767       6.33664178       2.70625179       0.01781722       0.55966556       0.20924937      -0.06040546       1.05505371       0.75224108      -0.01248766      -0.20777868
F       10.52338521       7.37318255       4.12856588      -1.01399475       1.45357521       0.00931649       1.60853159       0.10791016      -0.38419428      -0.01331275      -0.19662479
H       14.18372727       8.41246808       2.94858595      -0.14689174       0.04820497      -0.33883369       0.31228036       0.16947159       0.31368554       0.02493711      -0.03054238
H       11.42286628       8.63538494       2.20821468       0.04213476      -0.19117988       0.03300827       0.54446363       0.93887746       0.07581212       0.01379700      -0.00973006
O       10.36931115       4.91226751       0.60165948       1.93526080      -0.85385161       0.46487056      -0.53456563       0.41728222      -1.07550025      -0.02773366       0.00688805
C       10.14361540       3.76877800       1.35112681      -0.45452691      -0.63270327      -0.31585356       1.35752058       0.73465955       0.98887205       0.01231775      -0.27365875
C        9.21750825       4.05525379       2.54590139       0.11296641      -0.45988418       0.04464864       0.38828781       0.97632426      -1.03280258       0.02199569      -0.13720846
F        8.07323640       4.49910914       1.99808705       0.89825905      -0.66647020      -1.83766609      -0.18401954       0.04323350       0.63158029      -0.00952995      -0.26115969
F        9.71164840       5.03958568       3.35346681       0.56467358       0.12527738       0.13871920      -0.54502869      -1.02949548      -0.48551649      -0.01118394      -0.25463504
F        8.98554716       2.97872382       3.25867784       0.42271911      -0.84423307      -0.74743215      -0.37750435      -0.32333899       0.58247554      -0.00671427      -0.24951696
C       11.51694783       3.15589198       1.80008301      -0.01679623      -0.30694377       0.03366767      -0.16213211      -0.45948535      -0.69525278       0.02159469      -0.14189868
F       12.35577435       4.00850899       2.39787861       0.54717535      -0.58576235      -0.23269415      -0.43950593      -0.02116362       0.04077136      -0.00919672      -0.24181007
F       12.16272391       2.69488479       0.72156515       0.16490466      -0.12794380      -0.20491999      -0.13065937      -0.03557548       0.16361934      -0.01029308      -0.21868452
F       11.33677538       2.11923774       2.61472653       0.68134458      -0.77137015      -0.39640714      -0.04622079      -0.17875563       0.38864630      -0.00919649      -0.24400088
H       10.74144482       5.71446343       1.00015132      -0.17237928       0.05331628       0.05433245      -0.04083621      -0.77486336       0.68535143       0.02343570      -0.07234181
H        9.61302119       3.07688274       0.68215339      -0.06716613       0.06445668      -0.05619467       0.32036960      -0.10740933       0.38401332       0.01378286      -0.04278029
O        8.50480559       7.17073409      11.67577989       0.59328443      -0.70615157      -0.58388806      -0.25464490      -0.54677063       0.63556343      -0.03028059      -0.00591500
C        8.29126357       8.50111776      12.01566196      -0.18991017      -0.55633023      -0.60248035       0.10233092      -0.39171100       0.29148695       0.00938325      -0.26660630
C        9.03099448       8.72284509      13.34185675       0.13974465      -0.35293366      -0.53514313      -0.32780072       2.03930569       0.35177433       0.02111264      -0.13751073
F       10.33017347       8.45326047      13.25054422       0.27016092       0.27729859      -0.35876645       0.13111889      -0.22637932      -0.02041969      -0.01135792      -0.25501260
F        8.54035255       7.95048082      14.30432448       0.59450677       0.27911266      -0.44562191      -0.14659873      -0.47353628       0.31181124      -0.00912452      -0.27713901
F        8.91093887      10.01654967      13.78382261      -0.46578855       0.28413265      -0.47783911       0.23184948      -1.27263653      -0.47130632      -0.01349238      -0.21876319
C        6.78552840       8.78932950      12.08580652      -0.18544031      -0.12132926      -0.56385862       0.43464899       0.24768661       1.41270840       0.02085462      -0.11249770
F        6.27048373       7.91632539      12.98446060       0.56184184       0.61442676       1.14044056      -0.12737876       0.09311651      -0.83106786      -0.01157122      -0.18755125
F        6.27935791       8.70686288      10.86211559       0.15429698       1.18752704      -1.06946662      -0.34389862      -0.42242885      -0.02212561      -0.01138832      -0.21994016
F        6.46061851      10.00639979      12.53842545      -0.01279321      -0.00406162      -0.69960363       0.20185910      -0.20657200      -0.05300380      -0.01037920      -0.19276278
H        8.29821798       6.58036313      12.43765060       0.22380022      -0.16968067       0.14975680       0.10678190       0.61670709      -0.60688186       0.02519465      -0.03574046
H        8.68209353       9.09519836      11.19407209      -0.01532961      -0.04131859      -0.09700323       0.32751039       0.24871406       0.21242692       0.01187175      -0.04790016
O        4.15890748       1.48367573      12.02578281      -0.64873841      -0.54254922       0.32759336      -0.67639142      -0.88387525       0.06749019      -0.02604150      -0.02712516
C        2.90677977       1.72653918      11.42051698      -0.29101192       0.55418045      -0.55185277       0.75394046       0.39122650       0.64231408       0.01349105      -0.26871708
C        2.97849391       1.59333043       9.89727317      -0.39725171       0.43558767      -0.43131779      -0.20494039      -0.56306839       1.06215692       0.02248487      -0.15213816
F        3.52511602       0.42592708       9.60302221      -0.46632225       0.85122224      -0.11593458       0.24824744      -0.61877042      -0.23128316      -0.01138006      -0.22140828
F        3.77773569       2.51307587       9.37712961      -0.11200513      -0.13924475       0.11903405       0.25471574       0.80822831      -0.75792998      -0.00825015      -0.26230785
F        1.76296047       1.65894669       9.36156976      -0.97073257      -0.93639813      -0.11766400       0.11373962       0.39304897      -0.34422660      -0.01067346      -0.23840886
C        2.40921920       3.09045611      11.86605810       0.34834097       0.47721098       0.00662952      -1.57159257      -0.50399137      -0.20989324       0.02228513      -0.14226542
F        3.17565720       4.04136050      11.32524217      -0.06772801       0.10013123      -1.54159937       0.06075742       0.34674430       0.35505265      -0.00858962      -0.24350211
F        2.38346344       3.18094778      13.20090960      -0.49008060       0.87967669       0.20383587       0.54858804       0.00820585      -0.39053464      -0.00830040      -0.25029618
F        1.12547942       3.27434066      11.45186155      -0.56092326      -0.09204961       0.97581044       0.74707907       0.03000904      -0.02766311      -0.01442337      -0.24176332
H        4.84533064       2.12917238      11.85220434      -0.11726064      -0.17000053       0.35687391      -0.15222876       0.39407301      -0.32129779       0.02267078      -0.05224937
H        2.19362919       0.99435792      11.79634408      -0.15037663      -0.00949311      -0.05478797       0.15096647      -0.17927313      -0.00462535       0.01652222      -0.04909249
O        2.38998284       6.90099974      10.61154320      -0.25542730      -0.20016438       0.68745755      -0.57125270      -0.19853058       0.12156524      -0.02998727      -0.07916953
C        2.03522240       7.44477830      11.85403468      -0.85180485      -0.16842599       0.49858945       0.35660279       0.67092925      -1.50290215       0.01013910      -0.30285734
C        2.78571642       8.72382615      12.09593399       0.03885086      -0.52044314      -0.35956513      -0.42715636       2.39196873       0.06348126       0.02100833      -0.10955281
F        2.59443994       9.73528206      11.19461190      -0.00394604       0.63029439      -0.37025136       0.25190875      -1.44981301       0.84757376      -0.01392218      -0.17141014
F        4.09668784       8.57427606      12.19511645       0.13138526       0.58225743       0.25133483      -0.10187460      -0.48466486      -0.21772979      -0.00892920      -0.20570080
F        2.34661258       9.22312503      13.26263303       0.35603675      -1.22111863      -0.44396373      -0.28468600       0.21592963       0.12781607      -0.00905803      -0.18087032
C        2.28810601       6.48172085      12.96229799       0.13514550       0.41093373       0.27113308      -0.27031374      -1.43916953       1.33952951       0.02254932      -0.12932794
F        3.52387229       5.98018280      12.97079040      -0.08804234       0.27429872       0.00268845       0.02344694       0.21050511      -0.04661791      -0.00939711      -0.24499319
F        1.41546738       5.48598317      12.79351962       0.10968359       1.08527107       0.34333449      -0.20416340      -0.29232094      -0.14617172      -0.01122998      -0.18981102
F        2.04777339       6.92309214      14.21601504       0.27746442      -0.98231520       1.13563753       0.04619537       0.40406606      -0.20216954      -0.00835313      -0.24355431
H        3.34097090       6.77092046      10.51462583      -0.06158342       0.08439579       0.03060143       0.11471643       0.00630211       0.27457279       0.02083882      -0.07181859
H        0.95111066       7.63734862      11.84114109       0.23069549      -0.09764316       0.08121578       0.66792178       0.03335526      -0.03989122       0.01111209      -0.02588466
O        4.17207588      13.60585582       6.85472499      -1.01606955      -0.29035940      -0.23403616      -0.02996079       0.72040910       0.00202971      -0.02591886      -0.03921097
C        4.67417966      12.41613836       6.33894478      -0.29725520      -0.06734376      -0.15332443       0.61119664       0.28855839       1.54597437       0.00918498      -0.24383865
C        6.22753684      12.53756965       6.46455548       0.25038359       0.47197357       0.51035109      -0.89495450      -0.99011105      -1.90051281       0.02140758      -0.10314499
F        6.50621848      12.58036331       7.74468661      -0.05110129       0.62413011       0.62746098       0.15782335      -0.00038280       0.35473478      -0.00934216      -0.20290095
F        6.68184482      13.68114595       5.88562961       0.80637779       1.11738992       1.08557429      -0.10091694      -0.28126380       0.30912372      -0.00874428      -0.29169208
F        6.86805159      11.50706084       5.84229138      -0.63166056      -0.20062454      -0.86657218      -0.30998501       1.30283689       0.96334541      -0.01207408      -0.17941615
C        4.15030262      12.12868178       4.98029397      -0.11666239       0.06232169       0.11542138       0.27952385       0.46761891      -1.08748281       0.02093749      -0.10919093
F        4.50679757      13.15611183       4.20852670       1.28193258      -0.56306273       0.68827663       0.07346121       0.58050174      -0.42167166      -0.00943667      -0.19134235
F        2.83851841      11.99481345       4.79800962      -0.01595251       1.00798672      -1.63043363      -0.41695419       0.07153046       0.36290011      -0.00905928      -0.18039742
F        4.68186229      10.99785125       4.53245923      -0.41661486       0.24302476       0.62760423       0.13067704      -0.51524681      -0.06874651      -0.01045545      -0.15243284
H        4.60119602      14.36735478       6.42055009       0.20202504       0.03842447       0.34495632      -0.18122216      -0.49798158       0.11455199       0.02718225      -0.03746089
H        4.37243101      11.57648743       6.97191330       0.00244133       0.19319434      -0.20054292       0.30676949       0.33676094      -0.00751683       0.00934508      -0.03331747
O       11.63342402      13.02436753       8.33460804       0.57589547      -0.88635438       1.65378832       0.46015179       0.75237429      -0.28532913      -0.02711136      -0.06700142
C       10.82483521      11.92164891       8.19319456       0.39912990      -0.25703523       0.42987463      -1.90302432       0.77982718       0.05208718       0.00860600      -0.27707097
C       11.38858560      10.90810954       7.23982495       0.11973326       0.01282521       0.38785244       0.50645512      -0.12884879      -1.16141367       0.01892963      -0.16183718
F       12.54502729      10.39084382       7.64011208       0.26058766       0.17795863       0.42907326      -0.04914023      -0.00849582      -0.11729234      -0.01169424      -0.13272041
F       11.66868354      11.56728225       6.07401241       0.15384778       0.81458467       0.44936832      -0.12278229      -0.39743888       0.58755559      -0.01201465      -0.21606879
F       10.55951616       9.88188633       6.99734819       0.39782219      -0.29824908       0.44622308       0.10480243       0.42793387      -0.06236288      -0.01354707      -0.22383037
C        9.39687345      12.35431475       7.71216093      -0.06069464       0.23976535       0.63890490       1.84636223      -1.97118366      -1.20338070       0.02107489      -0.09022385
F        9.40824530      12.69564810       6.41953328      -0.43913369      -0.78077841       1.10323661       0.15400094       0.55704021      -0.79978675      -0.00994287      -0.22585550
F        8.95274207      13.36236622       8.36204783       0.03411253       0.54660872      -0.25716566      -0.59082776       1.31295145       1.21925843      -0.00800472      -0.18686898
F        8.58787744      11.29223164       7.77536853      -0.35490740       0.54089456      -1.00061473      -0.33590192      -0.26522988       0.89119786      -0.01338501      -0.20459884
H       11.73689669      13.51196934       7.48965474      -0.05104860       0.20079058       0.07259516      -0.13195805      -0.51523054       0.53990263       0.02665582      -0.04334268
H       10.62391416      11.49362696       9.16971436       0.00432161      -0.09380507       0.10841974       0.33570984      -0.15329333       0.09827323       0.00986460      -0.04979742
O       14.09368946       8.77561311      10.28821095       0.52273831      -0.50673177       0.76662602      -0.30747685       0.77518648      -1.18068373      -0.02709232      -0.07300812
C       12.86415134       8.89981098      10.92287539      -0.04467892       0.66832269      -0.56459691       0.34603631      -1.15523350       0.41024035       0.00946119      -0.20305140
C       11.83237445       8.10711108      10.12222061       0.02178580       0.31077043      -0.33555099       1.58910263      -0.20656902      -0.75856686       0.01989146      -0.12844031
F       12.31202090       6.86386196      10.04953808       0.18658900       0.45650544      -0.16478651       0.12180229      -0.00586850       0.12748596      -0.01317576      -0.17631631
F       11.73726633       8.50667554       8.84889596       0.27876831      -0.98649042      -1.00086887      -0.11256745       0.29969084      -0.11250687      -0.01190178      -0.24010357
F       10.64412509       8.08715398      10.62359748       0.49027553       0.00144785      -0.98801516      -1.41696215       0.07126042       0.60547960      -0.00909372      -0.19509147
C       12.52530135      10.30788229      11.34351670       0.17175519       0.16168880       0.18856314       1.01794040      -0.47967982       0.13158764       0.02096422      -0.15148652
F       12.48856252      11.10753646      10.29774715      -0.90877401      -0.09434396       0.58853893       0.08451167       0.76967233      -0.39622971      -0.00813473      -0.20105974
F       13.46370762      10.72666897      12.21415812       1.30013699      -0.79753635       0.13672957      -0.44179296       0.10805061      -0.12509868      -0.01128497      -0.25729907
F       11.35297531      10.36743780      11.92419996       1.08883602      -0.32419462       0.82846388      -0.96017754       0.04778582       0.59670681      -0.00830624      -0.21514530
H       14.03123664       9.19481414       9.40051205       0.13215406       0.13162802      -0.09278251       0.13271452      -0.35758311       0.69716930       0.02267639      -0.04353729
H       13.00894696       8.32385025      11.83799698       0.00026596      -0.01248426       0.01095704      -0.46326599       0.06640260       0.31061566       0.01330890      -0.00528443
O        2.16001381      12.10272034       7.13357322       0.32182998      -0.61178822       0.40080665      -0.04094690       0.64011157      -0.77298355      -0.02218771       0.07044520
C        2.25086646      11.41075998       8.31104270       0.05156212       0.11411252       0.43846436       0.51372790      -1.28781402      -0.37260467       0.01318164      -0.21896909
C        2.16442738       9.90722967       7.90534947      -0.16687133      -0.03258885       0.29794764       0.17610869       0.32955188       0.79939884       0.02293764      -0.10048877
F        3.14194345       9.60693930       7.06528803      -1.32227305      -0.82609089      -0.00418882       0.87486082       0.12979047      -0.31120107      -0.00981026      -0.24249303
F        1.05178840       9.69176819       7.21254030       0.85574532       0.79854982      -0.55931901      -1.08738756      -0.36353835       0.07460368      -0.00948966      -0.26734447
F        2.25115064       9.04979321       8.92475214       0.62307106       0.04429778       0.92739317      -0.30090359       0.15916851      -0.56869179      -0.00990630      -0.18699382
C        1.17723767      11.95927457       9.19354198      -0.10162241       0.06283874       0.04314573      -1.59175336      -0.39902568       0.94322056       0.02139466      -0.12936403
F        0.01031137      11.91969362       8.52319573      -0.20877951      -0.14491110      -0.11263809       0.31293800      -0.22069043      -0.00478112      -0.01189093      -0.17122830
F        1.33997158      13.22853966       9.48425530      -2.35686928       0.10439313      -0.16548759       0.59419715       0.45968756       0.33490688      -0.01003358      -0.21761484
F        1.00872963      11.28303456      10.34986236      -0.95442512      -0.72010269       0.03815484       0.37232101       0.55835956      -0.70544839      -0.01105224      -0.17908284
H        1.36335384      11.86892881       6.62624810       0.01539858      -0.08078192      -0.09218870       0.18494879      -0.00974062       0.42735872       0.02825382      -0.02984896
H        3.24178316      11.52907725       8.76867887      -0.07418710      -0.05033650      -0.00717700      -0.18660465       0.32969368      -0.02784917       0.01345431      -0.04540980
O        8.79031815      10.97781070       4.07252644       0.29294042      -0.12379770      -0.46373885      -0.06478705       0.15712081       0.07572853      -0.02998105      -0.04995953
C        8.66930534      12.25687064       3.54574225      -0.11215171      -0.00210588      -0.23257230       0.44637561       0.68768424       0.41014209       0.00807072      -0.28341207
C        7.49987954      12.26844819       2.57205550      -0.24349579      -0.02256118      -0.30079084       0.68899775       0.67729169       0.50758070       0.02174721      -0.14112982
F        6.40051691      12.05005677       3.24074902       0.34858763      -0.26193148       0.05646094      -0.61724436       0.06201760       0.09135363      -0.00877628      -0.15814462
F        7.65323914      11.29416568       1.70481419      -0.48131838       0.41550070      -0.28500027       0.03687792      -0.61581051      -0.61098444      -0.00999475      -0.18572983
F        7.35968973      13.44775650       1.90536447      -0.29142211       0.35767097      -0.51160009      -0.04554173      -0.27353764       0.02361447      -0.00955213      -0.28502142
C        9.98187162      12.73546178       2.91529865      -0.00388605       0.14213728      -0.32005201       0.43950611      -0.74772269       0.02623571       0.02111635      -0.17144838
F       10.41089230      11.81525978       1.99862452       0.39638783      -0.81555012      -0.15934136      -0.11954257       0.64751542       0.43305007      -0.01209509      -0.27865657
F       10.93049039      12.84141774       3.87208765      -0.10609521       0.30346754       0.28203478      -0.52861661       0.14617668      -0.66615748      -0.01140533      -0.24121274
F        9.86800825      13.91523435       2.30329350      -0.00022149      -0.03359026      -1.11733588       0.13079977      -0.16411197       0.04729326      -0.01046097      -0.24572939
H        8.94817840      10.35177898       3.35813127       0.10158168       0.01410495       0.02008693       0.00225282      -0.07483603      -0.12241087       0.02538572      -0.03304631
H        8.49039603      12.93561443       4.39478751       0.07947801      -0.15665708      -0.21620404      -0.22877170      -0.20573375      -0.50464863       0.01143635      -0.05369125
O        6.98487360       3.95523173       8.93836354      -0.21541464      -0.06626235       0.93138862       0.66233343      -0.27194405      -1.51344132      -0.02729934      -0.09144606
C        6.42821817       4.30392544      10.14100299      -0.34235070      -0.36247456       0.24219661       0.76205927      -0.48694316      -0.08291142       0.01288730      -0.27582541
C        6.00043063       5.75329721      10.10931113      -0.00937308      -0.07594763       0.01514701      -0.94501674       1.16422319       0.41140920       0.02230782      -0.13015893
F        4.89756102       5.92441074       9.29424963      -0.82959229      -0.07010636      -0.30797846       0.97657651      -0.27913153       0.53822404      -0.01169685      -0.24022867
F        6.99328550       6.56002764       9.70536953       0.35474531       0.57010108       0.46665295      -0.85383087      -0.95595962       0.25771487      -0.01127957      -0.13496031
F        5.58091903       6.16843128      11.33124112      -0.45643550      -0.08112940       0.25692102       0.16182876      -0.27616507      -0.79823101      -0.01076247      -0.21318351
C        7.49275965       4.04306083      11.21888081       0.51531412      -0.68207761      -0.62819762      -1.83158720       0.93841952       1.55740798       0.02324746      -0.09030801
F        8.57181210       4.76043065      11.02527919       0.69660350      -1.19439886      -0.08970522       0.29746199       0.14804676      -0.32076401      -0.00796697      -0.11373672
F        7.79633705       2.77000476      11.31715050       0.13627597      -0.71957210      -0.04039591       0.26353499      -0.86153728      -0.29097834      -0.00891918      -0.26073301
F        7.01705874       4.41088681      12.45931430       0.21343611      -0.60208674      -0.78840568       0.15906045      -0.26800668      -0.32172182      -0.01303994      -0.27242449
H        7.81214583       4.43845299       8.75254214       0.20351557      -0.15069117       0.11899032      -0.39919400      -0.10639633       0.19589147       0.02399632      -0.05517849
H        5.57912653       3.62232396      10.24794611       0.04706351      -0.06552798      -0.04627889      -0.04502757       0.43553516       0.44045603       0.01279892      -0.04602688
O       10.40328793       3.49293954       9.99588089       0.20316072       0.94174470      -0.55237548       0.00509290      -0.22894645       0.03851277      -0.02956061      -0.10655112
C       10.88225393       3.28243655      11.27484000      -0.59324736      -0.01533753      -0.33979694       0.50476551      -1.27788258       0.60202926       0.00887670      -0.28976923
C       11.71464923       4.45265559      11.76330618      -0.38152469      -0.36808664       0.38449540       0.08377773       2.43872952      -1.01580441       0.02013494      -0.12578063
F       10.91946961       5.59412214      11.76421091      -0.84447867       0.78298264      -0.63609024       0.73474699      -1.28633761       0.26087967      -0.01790896      -0.22801344
F       12.72352313       4.70779255      10.87472363      -0.37058799      -0.00643155      -0.03088616      -0.73975253      -0.55980682       0.63399988      -0.01367756      -0.16476482
F       12.29532347       4.37547405      12.93295885      -0.04372281       0.97940614      -0.06315804      -0.02282072      -0.40772727       0.28981867      -0.00795585      -0.19365340
C       11.68737000       1.94813924      11.33967189      -0.00103208      -0.25302391       0.64346416       0.68129957       0.65799117      -1.80548334       0.02165910      -0.11436241
F       12.74111232       1.97593971      10.46185225      -0.29710029      -0.79813671      -0.30984830      -0.36885148       0.10110449       0.75932211      -0.01383623      -0.24575247
F       10.88389925       1.00863763      10.84643448       0.00163739       0.20620922      -0.60767742       0.12633887      -0.18703139       0.70774877      -0.01194486      -0.20070066
F       12.18747525       1.64933472      12.53713874       1.90201013       0.62129730       0.81000036      -0.61719722      -0.27798289      -0.42338407      -0.00791470      -0.24943621
H       11.14302700       3.63308151       9.40973629      -0.11753629       0.08240491       0.15034445       0.44799384       0.02112925      -0.29978162       0.01997583      -0.05407270
H       10.00072232       3.09068020      11.88262129      -0.18441394      -0.10368918      -0.04359182       0.23771034       0.33948001       0.45173463       0.01016186      -0.04285637
O        6.29107898       6.88269579       7.40319821      -0.72385568       0.77330759       1.13358620       0.03421573      -0.18686773      -0.64570969      -0.02675391      -0.03621853
C        6.97052265       7.51954981       6.35390414       0.07416161      -0.39144129       0.34935954      -0.27641705       0.62476391       1.74906170       0.01254368      -0.26422396
C        6.04658284       8.58143398       5.78343668       0.15290218      -0.32092509      -0.21674765      -0.50105119       0.18729451      -0.28335130       0.02127803      -0.16799608
F        5.76387352       9.44504239       6.76950303       0.57426068      -1.10617913       0.22516183       0.01432672      -0.02442186       0.01791977      -0.01260102      -0.22872920
F        4.85916915       8.04220053       5.39411431      -0.39304417      -0.22280099      -0.24385252       0.61181986       0.21325676       0.17090032      -0.01088180      -0.27161747
F        6.56472109       9.24966522       4.75708348      -0.19906487       0.58071901       0.05722002      -0.06612878      -0.37171200       0.17620131      -0.01017313      -0.20180845
C        7.49137635       6.55358793       5.36184346       0.62535722      -0.15477420       0.94103012      -1.19682324      -1.68905735      -1.60660243       0.02206249      -0.13794360
F        6.42596892       5.81082717       4.86621152      -0.22065252      -0.41027510       1.62376723       0.81725788       0.41712889       0.45630452      -0.01174607      -0.27017149
F        8.33720844       5.67491786       5.90281744       1.17087762      -0.59702143       0.53945160      -0.22460525       0.38694379      -0.19388402      -0.01052078      -0.24444900
F        8.03492524       7.14163827       4.30109268      -1.27697206       0.07883849       0.52407765       0.28630975      -0.03935800       0.24806984      -0.00985171      -0.21870622
H        5.48540390       6.44241851       7.09290484      -0.05168297       0.00121648       0.13187508       0.17495076       0.10336041      -0.21272008       0.02673077      -0.04261852
H        7.80816905       8.01995075       6.86450018      -0.15602082      -0.12914094       0.01313143      -0.06504294       0.06370308      -0.52338737       0.01344609      -0.03672417
192
Lattice="14.05790476106759 0.0 0.0 0.0 14.05790476106759 0.0 0.0 0.0 14.05790476106759" Properties=species:S:1:pos:R:3:momenta:R:3:forces:R:3:charge:R:1:energies:R:1 Built=T with=T Packmol=T charge=0 spin=1 external_field="_JSON [0.0, 0.0, 0.0]" energy=-15.798046112060547 stress="-0.007027237210422754 -0.00014328100951388478 0.006086902227252722 -0.00014328100951388478 -0.012707673013210297 0.0005043030832894146 0.006086902227252722 0.0005043030832894146 -0.012635868974030018" dipole="0.46517467498779297 -0.0034759342670440674 -0.16091321408748627" free_energy=-15.798046112060547 pbc="T T T"
O       13.40074799       5.74504700       6.82988494      -1.39489820       0.17366580      -0.11923439      -0.65406466      -0.56696421       0.06875426      -0.02684011      -0.06661088
C       12.46939746       4.68012311       6.64179282      -0.04150480       0.23698265      -0.06192082       1.16723585       0.80209553       0.57107931       0.01473887      -0.27395517
C       11.08286973       5.12720897       7.06732237      -0.75007061      -0.80995253       0.02617962      -0.09675667      -0.12010570       0.52245474       0.02307103      -0.10465291
F       10.73155780       6.23664141       6.47074061      -1.09480871      -0.34614055       0.80716148      -0.41165137       0.28873652      -1.29456270      -0.00979786      -0.17531887
F       11.12192937       5.51145774       8.35719534       0.09699382      -0.70766501      -0.41505764      -0.18424404      -0.81682199       0.61048293      -0.00866692      -0.19105798
F       10.15444326       4.14626627       6.91087124      -0.60181341      -1.41783590      -0.15778307       0.58469194       0.91726589       0.13185571      -0.01001079      -0.25455964
C       12.97194721       3.49370107       7.43516666       0.06637540      -0.56809421       0.70090171       0.15442352      -1.85671473       0.28978917       0.02387415      -0.12782873
F       13.21217742       3.76066839       8.73526402      -0.48607577      -0.31269049       0.53635582       0.33344325       0.40942708      -1.02818167      -0.00730538      -0.22164539
F       14.07166823       2.96715442       6.87626721      -0.61988931       0.55606404      -0.08653052       0.01599759       0.67075121       0.27740952      -0.00864960      -0.25848657
F       12.07997729       2.47630513       7.45074806       0.36812034       0.16305686       0.41430070      -0.32570279       0.13047579      -0.12605965      -0.01014773      -0.24807924
H       13.35114794       6.03659625       7.75881130      -0.19351216       0.07708452       0.01460346       0.03141945      -0.13360178      -0.28326124       0.02363408      -0.05973127
H       12.47835703       4.37079736       5.60390726      -0.02235644       0.01494369      -0.09467080      -0.06993479       0.18569362      -0.29990870       0.01535152      -0.05521014
O        1.83330999       9.01336936       2.16945723       0.27840038      -0.43767109       0.22247228       0.78866285       0.27144825      -0.61553776      -0.02364838      -0.11214822
C        2.95475546       9.83506272       2.45925247      -0.14415994      -0.20842716       0.12954164      -0.56221563       0.19233841      -0.46120453       0.01325083      -0.23131867
C        2.75073580      11.27988625       1.84928232       0.45315593      -0.06455269       0.31215743       0.90629864      -0.85560203      -0.21839425       0.02257730      -0.10176057
F        1.63930985      11.77409087       2.34623180      -1.32127401      -0.67494537      -0.26897856      -0.29796728       0.74089819       1.02462649      -0.00858219      -0.23478097
F        2.55871949      11.30593326       0.53984664       0.08105680       1.17315037       0.22421179       0.11765416      -0.64334178      -0.89947116      -0.01064535      -0.21259034
F        3.83292274      12.07891201       2.03872566      -0.27022367       0.95820359       0.06532258      -0.85235387      -0.39918438       0.51148897      -0.00941859      -0.23043013
C        4.23765755       9.09807342       2.09009552       0.36921852       0.56204318       0.08606675       0.38621053       0.59887862       0.15714751       0.02114956      -0.16637315
F        4.27642680       8.74230646       0.80821648       0.07480349       0.03439239       0.23733710       0.04928622      -0.15739568      -0.15375946      -0.00970571      -0.25580007
F        4.28191058       8.01667546       2.84567727       0.69827631       0.76755738       0.99974143      -0.03548637      -1.08719599       0.08574618      -0.01005872      -0.23267716
F        5.36141445       9.77635177       2.35986088       0.37275148       0.23369377       0.06763929      -0.24489273       0.24419844      -0.37870252      -0.01218363      -0.22907546
H        1.84085779       8.70520331       1.23621880       0.18482280      -0.17402423      -0.04643705       0.08693539       0.36378983       0.66054803       0.02332395      -0.07204372
H        2.98925639       9.87331458       3.54685561       0.00621171       0.16672915      -0.08466363      -0.09546668       0.51494002      -0.12792876       0.01170486      -0.03474961
O        7.43318951      12.11575670      13.44228667       0.55285238      -0.47025973      -0.35562563      -0.14676569       0.30480701       0.69845736      -0.02637047      -0.00304137
C        7.97866929      12.35137607      12.20809330      -0.23940043       0.19416529      -0.44327046      -1.39433920      -0.80674434      -0.63713145       0.00843814      -0.23562190
C        9.34297079      12.94591845      12.30867659       0.65233044       0.11106712      -0.38480295       0.49466842      -0.62055755      -1.00800037       0.02072426      -0.15116395
F       10.10070490      12.21017329      13.13408729       0.00081777       0.23292798      -0.23423886      -0.18481120       0.90743363       0.00607220      -0.01124330      -0.22264430
F        9.27696575      14.20192980      12.71647907      -0.17767649       0.91764010      -0.80476979       0.49678087       0.55015272       0.51353103      -0.00896969      -0.27590570
F        9.92918620      12.89327975      11.08485804       0.18578392       0.29164980      -0.01358104      -0.11053119      -0.03747869       0.45059165      -0.01305972      -0.20480266
C        6.92638598      13.12503380      11.40526867       0.13173458       0.38977446       0.04405664       0.22587867       0.30181807      -0.56909883       0.02175544      -0.14766826
F        6.66293701      14.30128280      12.03354745       0.24893898       0.42835979       0.54314922      -0.03358112      -0.45785362      -0.50726134      -0.01087083      -0.26791659
F        5.77900759      12.43869040      11.29005951      -0.05852776       0.63086536       0.27296488       0.35877553       0.22782548       0.42401060      -0.01228931      -0.27320170
F        7.33781383      13.35810188      10.14951368      -0.28906913      -0.27275451       0.12722928      -0.13373096       0.43930370       0.56266576      -0.01249818      -0.22912791
H        7.23352499      12.95375055      13.88792063      -0.13634839      -0.00117233      -0.06225637       0.04809383      -0.12381414      -0.11004239       0.02557915      -0.03292315
H        8.11082050      11.40256804      11.67065577       0.06122510       0.09981521       0.10856495      -0.09469088       0.10869170       0.30064082       0.00993270      -0.03848624
O       13.42361309       8.48661455       2.32870617       0.08799040       0.93435181      -1.43533222       2.01510143      -0.44032288      -0.49467507      -0.03083048      -0.07462616
C       12.23275638       8.60413949       2.93327633      -0.54395350      -0.33901989      -0.34860838      -0.79692811      -0.63384485       1.01780903       0.01082136      -0.24600255
C       12.16974578       9.71641413       3.91207751       0.21760494       0.94116501      -0.32307229       1.21064579       1.18196678       0.80255383       0.02163643      -0.11347063
F       12.58709967      10.86718053       3.37592183       0.46475659      -0.17442586      -0.55613112      -0.53575087      -0.07388017      -0.02561726      -0.00983315      -0.24216239
F       13.06821790       9.49040476       4.93172018       0.12737865      -0.37741678      -1.64670906      -0.67521346      -0.06374127      -0.33015397      -0.01498703      -0.26015347
F       10.94553325       9.80889717       4.42441752      -0.04731774      -0.29425363      -0.87364857       0.57520616       0.39393651      -0.14067118      -0.00901386      -0.15807071
C       11.81019113       7.35495135       3.67667086       0.03272251      -0.18078518       0.29422727      -0.51272762      -1.90712547      -0.71170574       0.02175286      -0.07468434
F       12.67202632       6.96641349       4.63046418       0.43139679       1.03757890       0.02379020      -1.04419351       0.24405254      -0.42616114      -0.00936057      -0.24015152
F       11.83794577       6.35790460       2.71704181      -0.02294017       1.05848339       0.63367920      -0.10906310       0.69660473       0.82930684      -0.01256290      -0.20472530
F       10.50887802       7.41121424       4.12636544      -0.07387897       1.46914428      -0.17021250       2.03285408      -0.17124812      -0.26891032      -0.01388825      -0.19159679
H       14.24007775       8.45253715       2.90172147       0.19282219       0.12813771       0.03062820      -1.21895301       0.25470307      -0.54036605       0.02462760      -0.02936964
H       11.45839356       8.65988651       2.18809592       0.01402803       0.27292952      -0.17668187      -0.36319655       0.70432836      -0.49647316       0.01350734      -0.02377373
O       10.42406478       4.88822384       0.60722676       1.62237627      -0.72868451      -0.07811518      -0.67507601       0.38223383      -0.70573050      -0.02757142      -0.05017122
C       10.14187192       3.75191892       1.35008373       0.41869347      -0.19375330       0.27005196       1.91262960       0.67336023       1.00650692       0.01225610      -0.26267982
C        9.22651800       4.04667743       2.53660259       0.32885762       0.01977232      -0.48772599       0.39119300       0.73010904      -0.88124275       0.02257477      -0.11074916
F        8.09504316       4.48230496       1.95529729       0.78050412      -0.62600268      -1.45117805      -0.30576664       0.15317604       0.93607283      -0.00902022      -0.24801695
F        9.72212511       5.03532743       3.35330901       0.22577870      -0.47722442      -0.17061859      -0.79391837      -1.28541934      -0.71776527      -0.01051788      -0.25135002
F        8.99391387       2.95529983       3.24316794       0.22487998      -0.93079733      -0.46625070      -0.38128796       0.14836422       0.43445995      -0.00671948      -0.24852568
C       11.51546960       3.13841165       1.79428458      -0.02638418      -0.54640510      -0.29887358       0.18651995      -0.42513633      -0.46507752       0.02150782      -0.13734789
F       12.36646167       3.99313274       2.39205568       0.25704210      -0.60826430      -0.22067331      -0.71643621      -0.05403252       0.01495945      -0.00997717      -0.24754614
F       12.16602680       2.69130331       0.71713375       0.08686231      -0.15438706      -0.14996101      -0.17691128      -0.09488858       0.02172735      -0.01033563      -0.21413863
F       11.35404304       2.09799412       2.60713080       0.65136533      -0.87522703      -0.19005719      -0.10374010      -0.19026782       0.40894097      -0.00918605      -0.24425712
H       10.66052061       5.67233600       1.11668230      -0.14833269      -0.17634067       0.41130458       0.07163800      -0.29710016       0.43765482       0.02298197      -0.07218727
H        9.60816383       3.07477315       0.68694179       0.03105161      -0.09795732       0.05537300       0.15622431      -0.36463073       0.17413652       0.01363073      -0.04522499
O        8.52071921       7.14436591      11.66377877       0.46419286      -0.87005921      -0.34744223      -0.11391188       0.95909053      -0.90239495      -0.02972232      -0.00624724
C        8.28656285       8.47602190      11.99343139       0.00831204      -0.62918490      -0.47926817       0.65574604       0.10890850       0.40798250       0.00984886      -0.26374668
C        9.03307482       8.72958857      13.32364573      -0.03862742       0.64508599      -0.35024490      -0.33433524       1.56658542       0.41909784       0.02117911      -0.13158914
F       10.33779905       8.45909990      13.24088561       0.30522663       0.18463675      -0.39656808      -0.05018736      -0.11058306      -0.10498062      -0.01167544      -0.25224483
F        8.55469110       7.95435599      14.29489084       0.51337272       0.01921868      -0.28661455      -0.18019421      -0.49403149       0.29437819      -0.00986162      -0.27454486
F        8.90049978      10.01529108      13.76796578      -0.33893057      -0.37626220      -0.76032194       0.27656543      -1.19375098      -0.58345670      -0.01303773      -0.21667433
C        6.78292040       8.78717180      12.07714184       0.06493085       0.01699836       0.10813337       0.52346599       0.25930554       1.03459501       0.02105051      -0.06832786
F        6.28388483       7.93279989      13.00769979       0.46183293       0.65550085       0.62932377      -0.29982066       0.01860666      -1.19119215      -0.01172457      -0.18091385
F        6.28092768       8.73426547      10.83493893      -0.03276021       0.91073182      -0.99381565      -0.34443313      -0.71436721       0.47511339      -0.01167926      -0.21158700
F        6.46180325      10.00500602      12.51996772       0.11401279      -0.09609080      -0.72332562       0.31303105      -0.10752279       0.02940752      -0.01025316      -0.18274753
H        8.42012275       6.58730896      12.41982897       0.24279467       0.07550969      -0.06688507      -0.21024084      -0.64216852       1.01820385       0.02424087      -0.03478529
H        8.70248734       9.09010847      11.18731488       0.07589027      -0.00366421       0.07870140       0.06729202      -0.01295368       0.29042095       0.01189593      -0.05186725
O        4.12977115       1.45671675      12.03639351      -1.13229437      -1.09806709       0.32758197       0.31655240       0.16278906      -0.25069043      -0.02603836      -0.02266645
C        2.89966882       1.74911770      11.40775162      -0.09775385       0.49085048      -0.03257154       0.28945518      -0.31951511       1.11687338       0.01294410      -0.25317115
C        2.96052137       1.60501722       9.89089428      -0.45851036       0.14108853       0.10635234       0.08770745      -0.50841337       0.90353847       0.02248074      -0.14601351
F        3.51469716       0.44325879       9.59851459      -0.34090931       0.46870217      -0.22895796       0.24447232      -0.88475317      -0.17786290      -0.01147385      -0.21902287
F        3.77624314       2.51531072       9.37461921      -0.02459309       0.32023888      -0.32889563      -0.00065524       0.89579219      -0.93604356      -0.00831645      -0.25296581
F        1.73891310       1.63783100       9.35630769      -0.87243608      -0.67616071      -0.28338727       0.34962106       0.66835445      -0.26131827      -0.01052083      -0.23397574
C        2.40612272       3.10462678      11.86416374      -0.50071157       0.22032326      -0.09745730      -1.56298101      -0.45752332      -0.18348032       0.02246319      -0.12112312
F        3.17392793       4.04635122      11.28825206      -0.08876754       0.28350583      -1.29387164      -0.21024993       0.30838841       0.71077216      -0.00860270      -0.23873064
F        2.37505026       3.20390926      13.20312028      -0.13644337       0.90160469      -0.05067859       0.84687555       0.03969393      -0.60376930      -0.00823466      -0.24425548
F        1.11604772       3.27242758      11.47660016      -0.17431805      -0.04410481       0.92063016       0.68235373       0.17340097      -0.26717609      -0.01398473      -0.23615675
H        4.82495425       2.15242571      11.97492241      -0.07892768       0.15920668       0.16752932      -1.05951059      -0.50161242      -0.20743699       0.02332168      -0.05054871
H        2.17138253       1.00506138      11.75572266       0.06921340       0.07707735      -0.11069671       0.24918634       0.07968723       0.02011782       0.01628935      -0.04221562
O        2.37655321       6.89286812      10.63325341      -0.56576833      -0.35215781       0.70499410      -0.02813374      -0.43626523      -0.14464633      -0.02996467      -0.09671848
C        2.02015884       7.44354171      11.85944252       0.25264802       0.11271721      -0.19023683       1.60219777       0.79366851      -0.97250831       0.00955831      -0.28761169
C        2.78299694       8.72745455      12.08225979      -0.16246888       0.66044667      -0.30239634      -0.30778822       1.92977560       0.16480729       0.02063234      -0.08693729
F        2.59603123       9.74181477      11.19084395       0.12595516      -0.11751729       0.07941416       0.23401745      -1.35620928       0.85088623      -0.01312291      -0.17171249
F        4.09925516       8.58580149      12.19964472       0.06262928       0.30173560       0.07966325      -0.15581173      -0.58632851      -0.45369166      -0.00944769      -0.20776407
F        2.35351065       9.19367102      13.25285063       0.15569303      -1.01925332      -0.27070545      -0.55183321       0.70504075       0.64094013      -0.00888544      -0.17434713
C        2.29101684       6.48422160      12.98665837       0.00583347      -0.23761760       0.86820995      -0.29002315      -0.82947516       0.70142907       0.02227587      -0.10600691
F        3.52215570       5.98857507      12.97057801      -0.02297095       0.36277292      -0.01190360       0.28548262       0.05241062       0.03972460      -0.00923446      -0.24981703
F        1.41629875       5.51101850      12.80135316      -0.07506159       0.79943361       0.26277869      -0.55560112      -0.94079787      -0.15399341      -0.01072099      -0.17429447
F        2.05540233       6.90068123      14.24441954       0.31677703      -0.73910864       1.08357860       0.08625062       0.57547158       0.02004081      -0.00722427      -0.24534778
H        3.34261429       6.80898372      10.55801022       0.02448568       0.06968511       0.13683881      -0.28886956      -0.04375188       0.12481547       0.02123159      -0.06330630
H        0.96626990       7.62895809      11.86968978      -0.28997242       0.08719545       0.03065761      -0.38810757       0.24948907      -0.11024977       0.01093298      -0.02932953
O        4.13992933      13.60166657       6.84865380      -1.10288687      -0.02069317      -0.13066435      -0.19415697       0.41363499       0.31724757      -0.02613470      -0.05668901
C        4.67146856      12.42503325       6.34233020       0.16327781       0.53614958       0.27233506       0.53249830       0.51044708       1.10965312       0.00886460      -0.23721993
C        6.22839175      12.54680252       6.46561494      -0.19717964       0.00176502      -0.41795959      -0.75994855      -0.72792757      -1.41297626       0.02221825      -0.08382579
F        6.50575492      12.59610473       7.76243286       0.00151865       0.57570924       0.69154067      -0.00428063      -0.23416132      -0.30330589      -0.00993394      -0.20147882
F        6.70173330      13.70742079       5.91585601       0.71818862       0.88602035       1.25199612      -0.29028872      -0.65862483       0.26006451      -0.00885788      -0.28705931
F        6.84965216      11.51123010       5.82685943      -0.79209202       0.54774929      -0.30742551      -0.28929344       1.58286214       1.21312821      -0.01155780      -0.17344311
C        4.14867198      12.13645291       4.97425843       0.03730363       0.31527415      -0.36586895       0.28322533       0.42073709      -0.54513621       0.02084728      -0.08662894
F        4.54070826      13.14620552       4.22277701       1.35255403      -0.16506205       0.37662119       0.16411920       1.04432476      -0.88345790      -0.00905434      -0.17583340
F        2.83530449      12.02140687       4.75854046      -0.22646986       1.05409414      -1.41130095      -0.33393469       0.09659794       0.54955930      -0.00921821      -0.19635017
F        4.67211331      10.99992315       4.54798490      -0.33322419      -0.10998832       0.56186470       0.19127432      -0.83490390      -0.22454055      -0.01038052      -0.15197811
H        4.68851601      14.34666217       6.58719329       0.18732625      -0.05827769       0.31127847       0.08705983       0.13261752      -0.16497514       0.02652285      -0.03346967
H        4.37407468      11.59835678       6.96229151      -0.00953930      -0.16743377       0.20428923       0.20402943      -0.25416383       0.37389621       0.00934971      -0.03198026
O       11.65447131      13.00360205       8.38255440       0.75680371      -0.56661531       1.60807287       0.03314269      -0.25929642       1.03884053      -0.02689104      -0.06252711
C       10.82145635      11.91705161       8.21500841      -0.50736702      -0.01321314       0.66107873      -1.21102500       0.25856635       0.28286538       0.00904205      -0.29862443
C       11.39833372      10.90777335       7.24383612       0.33651282      -0.00511458      -0.16603236       0.24719380       0.15580626      -0.84989107       0.01894877      -0.16100682
F       12.55149167      10.39534563       7.65033795       0.24213574       0.16891558       0.35703020      -0.02317630      -0.03115672      -0.18957312      -0.01172195      -0.12823522
F       11.67182302      11.58532055       6.08954285       0.09107167       0.56756112       0.74507204      -0.10085335      -0.57644188       0.47903490      -0.01166336      -0.22674140
F       10.57060805       9.87717841       7.00832245       0.46317709      -0.06101720       0.39197046       0.12608996       0.49006012      -0.20539449      -0.01336378      -0.22527479
C        9.41171217      12.34477068       7.72619038       0.69059445      -0.62303248       0.08286664       0.69161719      -0.98583871      -0.80630606       0.02129871      -0.10276482
F        9.39867822      12.67972316       6.44164363      -0.26427882      -0.43187379       0.56706365       0.60315204       0.80453938      -1.29794967      -0.00994349      -0.19935726
F        8.95021924      13.38435460       8.36335656      -0.18809160       1.08246652       0.33099464      -0.10480962       0.44604662       0.90193248      -0.00960605      -0.20325816
F        8.57653717      11.30399494       7.75624942      -0.51209324       0.34994165      -0.44163044      -0.19793043      -0.50530487       1.34896302      -0.01318504      -0.18651819
H       11.69564375      13.53695096       7.60172780      -0.09983488      -0.00087397       0.24020319       0.03813026       0.48741698      -0.93945724       0.02601882      -0.04413491
H       10.66596016      11.44964793       9.19083952       0.14535882      -0.06785140      -0.05148074       0.05851406       0.05340476      -0.22127974       0.00980806      -0.04885771
O       14.10752673       8.76680356      10.30134765       0.38785210      -0.16297544       0.28793074      -0.23749223      -0.23923682       0.88047051      -0.02655911      -0.06685635
C       12.86656927       8.91234344      10.90744466       0.16553129      -0.08109979      -0.15227147       0.36874071      -1.44109309       0.83261949       0.01007721      -0.17777424
C       11.84893090       8.11733444      10.10035978       0.72011815       0.18124188      -0.72739459       0.77350628      -0.30736563      -0.66389585       0.01989739      -0.13863227
F       12.31805523       6.87522976      10.04625134       0.30043504       0.40143397      -0.08594330       0.35336375      -0.27774251       0.17245339      -0.01293536      -0.17371465
F       11.74380733       8.48341009       8.82199906       0.23367300      -0.80173187      -1.08807619      -0.04407626       0.46490777      -0.17804356      -0.01172879      -0.23184066
F       10.64754742       8.08798209      10.60202874      -0.18834940       0.07708073      -0.69393343      -0.98270547       0.24261586       0.47219744      -0.00990927      -0.20541464
C       12.54284400      10.30909080      11.35232752       0.65623688      -0.10185340       0.23190498       0.64053398      -0.47014979      -0.00326566       0.02125885      -0.13932589
F       12.46598696      11.11087414      10.31022364      -0.82044278       0.37091579       0.38212114       0.31825092       0.97776347      -0.34148908      -0.00808061      -0.19187434
F       13.49430213      10.70692557      12.21663135       1.06340183      -0.72317413       0.04628427      -0.51492900       0.21171978      -0.22700660      -0.01070233      -0.25257581
F       11.37474381      10.35937393      11.94999332       0.61083751      -0.30237260       1.17460695      -0.79555291       0.02639947       0.65362018      -0.00856813      -0.21077769
H       14.10878513       9.20170166       9.46590066       0.17326426      -0.01386597       0.18087172       0.00121142       0.58495390      -1.15980470       0.02217145      -0.04033728
H       12.95174674       8.34323590      11.84612979      -0.21641279       0.09485822      -0.01229178      -0.23733702       0.08017761      -0.07244096       0.01362205      -0.00493941
O        2.16932053      12.08892665       7.13932910       0.35273641      -0.27458416       0.03030327       0.58698064       0.75328159      -0.22723475      -0.02248809       0.05803756
C        2.25428614      11.40236371       8.32399166       0.06605387      -0.47518332       0.20216339      -0.00732872      -0.67400950      -0.26388261       0.01355760      -0.23464425
C        2.16060347       9.90882909       7.92511419       0.00598415       0.08892786       0.62463210       0.49288255       0.06679875       0.25695133       0.02327577      -0.07240820
F        3.11456571       9.58657920       7.06330325      -0.75915720      -0.74204834      -0.13609682       1.33891630       0.23645993      -0.14900114      -0.01050118      -0.22416429
F        1.06558980       9.70984049       7.19913328       0.17543542       0.59505606      -0.44516594      -1.53432178      -0.44020447       0.48207584      -0.00950645      -0.23859555
F        2.26478542       9.05206290       8.94466325       0.41074551       0.13256406       0.60366234      -0.56670964       0.16984221      -0.70216602      -0.00913791      -0.17989981
C        1.15651401      11.95732866       9.20402552      -0.88154730      -0.15914980       0.41941680      -1.20318151      -0.40229574       0.33878952       0.02156156      -0.11805693
F        0.00669848      11.91400851       8.51991925      -0.09241943      -0.31337921      -0.15514294       0.05260416      -0.43428394      -0.17411827      -0.01172879      -0.15368244
F        1.28339928      13.23440884       9.48263290      -2.00151584       0.34584599       0.05838521       0.87559253       0.40183032       0.55425286      -0.01032769      -0.21575129
F        0.98654872      11.26833457      10.34630372      -0.76424387      -0.41352635      -0.29539651       0.36428440       0.61558521      -0.48086125      -0.01025036      -0.17883879
H        1.39890370      11.83065059       6.63820433       0.05321960      -0.09432866       0.08402660      -0.56260324      -0.17457929      -0.13994631       0.02767513      -0.02753761
H        3.22824500      11.54922762       8.78240862       0.05323125       0.12630616       0.07957255       0.15453196       0.23340335       0.12912215       0.01357362      -0.04746278
O        8.79856429      10.97560776       4.05915057       0.24475898      -0.03484365      -0.43687704      -0.08494718       0.05607963      -0.18209288      -0.02991363      -0.04872241
C        8.67166176      12.25647057       3.53072746       0.24338162      -0.08159775      -0.58536470       0.57093894       0.12503757      -0.32092384       0.00832605      -0.28941822
C        7.49757351      12.27451976       2.56466109       0.12946363       0.30329707      -0.08314604       0.66481543       0.47695076       0.24657685       0.02159142      -0.14301138
F        6.40525610      12.04384066       3.24287486       0.02192437      -0.20960901       0.10565034      -0.56945235       0.18087862       0.05779423      -0.00867773      -0.15398793
F        7.64107462      11.30075905       1.69317659      -0.45882689       0.09808259      -0.61639868       0.06233709      -0.57992369      -0.60796136      -0.01037674      -0.18375716
F        7.35173518      13.45494644       1.89259441      -0.32682867       0.18784900      -0.46201339      -0.06893703      -0.40990138       0.21116339      -0.01002587      -0.28718942
C        9.98642226      12.73325649       2.90233450       0.22205249      -0.23838066      -0.31430243       0.37735552      -0.60093182       0.03434030       0.02138675      -0.16292669
F       10.42025959      11.79890795       1.99769738       0.32880004      -0.43606240       0.09603318      -0.12097678       0.82117212       0.52990901      -0.01167192      -0.27573621
F       10.92397879      12.85025172       3.87444513      -0.40333590       0.37960787      -0.11885203      -0.58340722       0.13025118      -0.89395142      -0.01128339      -0.24210443
F        9.86907113      13.91274478       2.27491199       0.09090487      -0.18543150      -1.06889528       0.22988194      -0.47591549       0.19350746      -0.01063943      -0.24466655
H        8.99842216      10.34789950       3.34706517       0.09550057      -0.00042289      -0.03792905      -0.09164393       0.19961299       0.12509255       0.02555420      -0.03515212
H        8.47630600      12.92416215       4.34753033      -0.14601183       0.17357548       0.11484055      -0.26826614       0.35460079       0.35293183       0.01171948      -0.05351631
O        6.98465801       3.95100950       8.95356877       0.10925963      -0.26762001       0.05461577      -0.25873506      -0.85152215      -1.63007021      -0.02734606      -0.09200069
C        6.42420082       4.28727119      10.15003817       0.15702294      -0.37559115       0.19798544       0.84364152       0.39392787      -0.10259598       0.01292578      -0.27138191
C        5.99065234       5.76144330      10.11411002      -0.43934799       0.42437080       0.20666675      -0.58196437       0.56119120       0.25046745       0.02234179      -0.11802574
F        4.88322531       5.92078249       9.29031819      -0.25833052      -0.20758296       0.02036535       1.24199963      -0.23777905       0.73771000      -0.01189876      -0.23210712
F        6.99609345       6.56789662       9.71928380      -0.16472057       0.02378623       0.61316938      -1.17594600      -1.13599503       0.27838153      -0.01149055      -0.12882760
F        5.57015894       6.16475099      11.33258396      -0.38372965      -0.18904793      -0.14246184       0.08082557      -0.09607904      -0.66612548      -0.01049374      -0.21835017
C        7.49459309       4.02526146      11.21043001      -0.39248686      -0.19980946       0.22382172      -1.42882824       0.80688715       1.64544821       0.02330051      -0.08897406
F        8.59136547       4.73045697      11.02058188       0.78356593      -1.13133783      -0.27776492      -0.11080468       0.10223765      -0.36151949      -0.00816772      -0.10398853
F        7.80155298       2.74562095      11.31397752       0.25726829      -1.15218236      -0.21228229       0.13781695      -0.65219951      -0.37034556      -0.00948058      -0.26283744
F        7.02361551       4.39364545      12.43731281       0.28562845      -0.72546750      -0.88272533       0.05172481      -0.16666910       0.08978654      -0.01273291      -0.27261090
H        7.84625793       4.34628177       8.83672870       0.02918759      -0.18019728       0.20201407       0.52526629       0.34785682      -0.04784895       0.02370470      -0.05010221
H        5.57349796       3.62723271      10.28347176      -0.09015337       0.06089632       0.18446165      -0.23124419       0.17743702       0.33736745       0.01252262      -0.05406805
O       10.40676540       3.51874240       9.98236206       0.18351194       0.74219205      -0.42240452       1.36453199      -0.32628104      -0.60207826      -0.03030002      -0.09948305
C       10.86147880       3.26933248      11.27040413      -0.38106561      -0.55598044       0.14345056       1.01597822      -0.43631935       0.83641821       0.00853588      -0.29384428
C       11.69947493       4.46321163      11.76760618      -0.37536900       0.84626753      -0.17924793      -0.07083647       1.96620238      -1.06725276       0.01984923      -0.11316390
F       10.90268252       5.60540466      11.74966749      -0.44788844       0.08109221      -0.48239467       0.82332122      -1.39504123       0.35567024      -0.01786723      -0.22835651
F       12.70879649       4.70389344      10.87810434      -0.76749758      -0.28816332       0.28229076      -0.70345169      -0.46783116       0.50284803      -0.01363915      -0.16454342
F       12.29373802       4.39810696      12.93324822      -0.09173277       0.77627470       0.08019777      -0.17732096      -0.37626985       0.22154240      -0.00829958      -0.18419215
C       11.69454877       1.94476723      11.34640882       0.34599364       0.08400469      -0.30796274       0.59507614       0.60882431      -1.72807789       0.02184563      -0.07313973
F       12.73118030       1.95622679      10.45904609      -0.45245474      -0.71419875       0.09117033      -0.12631853       0.27737939       0.73433316      -0.01346105      -0.23437232
F       10.88485442       1.01251235      10.83622993       0.07661417       0.08316989      -0.15129158       0.17563763      -0.31307805       1.08195019      -0.01190759      -0.17904748
F       12.23169238       1.66367415      12.55403778       1.48030945       0.49212728       0.43932674      -1.12700093      -0.24404724      -1.13288605      -0.00853438      -0.23784044
H       11.19144668       3.68737795       9.40451903       0.15962581       0.10739937      -0.04349657      -0.86734092      -0.26755160       0.75969130       0.02033019      -0.05458910
H        9.98024643       3.08898067      11.88756500       0.10773993       0.08845978       0.04414308       0.31121773       0.23877589       0.22235683       0.00981134      -0.05117863
O        6.26965516       6.90511290       7.43307342      -0.64212168       0.69845851       0.82241150       0.34519902      -0.11058544      -0.58163524      -0.02674865      -0.03671025
C        6.96522908       7.50666318       6.38167640      -0.36019339      -0.27668139       0.91079588      -0.44907945       0.28153953       0.64018273       0.01198224      -0.27000830
C        6.04748610       8.56983701       5.77240613      -0.10261350      -0.25960214      -0.29184166      -0.42391899       0.04054466       0.09515155       0.02096851      -0.15225902
F        5.77855228       9.41668600       6.77555827       0.54745093      -1.06591469       0.24842247      -0.17018726       0.26791859       0.07204088      -0.01309558      -0.22519955
F        4.85349070       8.03792851       5.38892543      -0.03619394      -0.10590356      -0.16073391       0.73349339       0.23767288       0.13820288      -0.01108340      -0.26993573
F        6.55913882       9.26185814       4.75975167      -0.23202535       0.34763769       0.14786801      -0.05002435      -0.56380445       0.15748991      -0.01014679      -0.19912246
C        7.50255306       6.53022468       5.38433110      -0.12071721      -0.93967971       0.20948093      -1.67967975      -1.08761632      -1.01391482       0.02190193      -0.13043579
F        6.42588714       5.80248964       4.91130324       0.21267234      -0.26648501       1.85763022       0.78560805       0.03890720       0.31334826      -0.01133953      -0.27072850
F        8.36584489       5.66223270       5.91521669       1.03422489      -0.38079777       0.40433808      -0.38512588       0.44445512      -0.39313474      -0.01000919      -0.24124548
F        8.00421751       7.14321030       4.31639900      -1.08239738       0.03161950       0.66000959       0.51333541      -0.17591795       0.23074327      -0.00990700      -0.21926028
H        5.47652704       6.45291159       7.12626646      -0.00943221       0.02760377      -0.00529985      -0.05607865      -0.03247276      -0.31166059       0.02671083      -0.04173578
H        7.79543887       8.01132752       6.85306802       0.15403858       0.12797897      -0.01304124       0.38829941       0.37814319      -0.04538488       0.01331940      -0.03800522
192
Lattice="14.05790476106759 0.0 0.0 0.0 14.05790476106759 0.0 0.0 0.0 14.05790476106759" Properties=species:S:1:pos:R:3:momenta:R:3:forces:R:3:charge:R:1:energies:R:1 Built=T with=T Packmol=T charge=0 spin=1 external_field="_JSON [0.0, 0.0, 0.0]" energy=-15.55030345916748 stress="-0.00821665022522211 -0.0014357847394421697 0.005714111495763063 -0.0014357847394421697 -0.012105552479624748 -0.0014433737378567457 0.005714111495763063 -0.0014433737378567457 -0.011315506882965565" dipole="0.5154604911804199 0.023264825344085693 -0.048278048634529114" free_energy=-15.55030345916748 pbc="T T T"
O       13.35383968       5.74763838       6.82749814      -1.60407890       0.03381141      -0.07329697       0.07110630      -0.04816933      -0.22181541      -0.02645699      -0.10542217
C       12.47584534       4.69229119       6.64198521       0.24590638       0.22520356       0.03406904      -0.17224537      -0.76579088       0.19721739       0.01268325      -0.25350034
C       11.05375822       5.09460352       7.07159215      -0.60206406      -0.73042673       0.13149646       0.75613904       0.53997725      -0.09508232       0.02268418      -0.07943234
F       10.70027357       6.22860594       6.48363308      -1.32493706      -0.31477084       0.20295431      -0.36676818      -0.17600133      -1.12737346      -0.01127020      -0.17612718
F       11.12283368       5.48765424       8.35135155      -0.04553045      -1.13644396      -0.00001410      -0.39838108      -0.80691111       1.03659952      -0.00833615      -0.18193080
F       10.14233017       4.11515148       6.90776944      -0.34456753      -0.99393658      -0.07638752       0.47636950       0.87331307       0.20021380      -0.00895090      -0.25571617
C       12.97408742       3.45923534       7.46188195      -0.01076413      -0.91044387       0.49097123      -0.42216018       0.63221371      -1.08861852       0.02314881      -0.11281083
F       13.20223747       3.75496036       8.74398429      -0.26086175      -0.13877424       0.18933445       0.59510249       0.29172078      -0.41475546      -0.00711104      -0.23319334
F       14.05736861       2.98466720       6.87579044      -0.41315923       0.74208939       0.04511663       0.88852453      -0.02429014       0.22144045      -0.00760481      -0.26007587
F       12.08633100       2.47948146       7.46104189       0.07485170       0.00047736       0.39257872      -0.89472735      -0.84098792      -0.00853432      -0.00847547      -0.25125486
H       13.26414516       6.06146144       7.73098081      -0.15961294       0.05427684      -0.06234042       0.08599805       0.16645886       0.36285877       0.02321754      -0.04985200
H       12.46342035       4.40645250       5.57645307      -0.02783255       0.12676344       0.04814235       0.06066832       0.10227500       0.40624133       0.01414535      -0.05714214
O        1.84848537       9.00206085       2.17175457       0.71620614      -0.23933375       0.07392890       0.81445795       0.87133950       0.81635988      -0.02289449      -0.13458642
C        2.94538141       9.83095431       2.45735571      -0.25046175       0.07220376      -0.21194477       0.21681575       0.96902418      -0.29720682       0.01341967      -0.24995196
C        2.77249410      11.27136848       1.85762661       0.45727479      -0.27588525       0.03596242      -0.92971563       0.06694386      -0.91725057       0.02229110      -0.09164517
F        1.60540716      11.76013941       2.34526216      -1.20463099      -0.44854622       0.16985449       0.87620926       0.21867102       0.71922958      -0.01179169      -0.23265053
F        2.56201478      11.33203518       0.54045188       0.18901141       0.83400854      -0.15517213       0.28934979      -0.79768389      -0.62594897      -0.01183856      -0.20676011
F        3.82055880      12.10096130       2.04425211      -0.67883780       0.73201674       0.38219180      -0.73927444      -0.59582865       0.73154527      -0.00794844      -0.22036353
C        4.25525868       9.12383514       2.09655484       0.44683710       0.60770099       0.25897553      -0.15894379      -0.48528686       0.49123991       0.02147560      -0.14654931
F        4.27877449       8.74244606       0.81388365       0.11031915      -0.01243464       0.22375876       0.08755577      -0.02394575       0.11290386      -0.00967624      -0.25627095
F        4.29985481       8.03069057       2.87153316       0.68898588       0.35991703       0.96888340      -0.06191208      -0.56907868      -0.31144634      -0.01147346      -0.23682559
F        5.37003005       9.78471162       2.35911293       0.31549456       0.44119044      -0.12692122       0.00797770       0.56328911      -0.38719201      -0.01044809      -0.22167097
H        1.93261011       8.65924559       1.28937740       0.18115830      -0.07936558       0.10901557      -0.04382655      -0.30681199      -0.87750399       0.02299698      -0.06265181
H        2.98046792       9.99648921       3.53011466      -0.04387185       0.28508588       0.03007500      -0.10965873      -0.14779840       0.01689311       0.01152738      -0.04299074
O        7.44869680      12.10461454      13.43674200       0.45833990      -0.26862810      -0.03649364      -0.16021733       0.23817134       0.36987716      -0.02705614      -0.01622049
C        7.95962377      12.35626919      12.18824728      -0.55835329       0.09348225      -0.44280267       0.23881455      -0.35988450       0.31850260       0.00818015      -0.24126825
C        9.36846596      12.94668100      12.28478835       0.43854224      -0.00966405      -0.71564870      -1.35608852       0.13838366      -0.16851075       0.02028054      -0.14576654
F       10.10009843      12.22183832      13.12825231      -0.02806254       0.65974418      -0.20953361       0.04680135       0.76732886       0.09751017      -0.01083401      -0.22883056
F        9.27595812      14.22790777      12.69843007       0.11401752       1.02893066      -0.60947562       0.65326071      -0.22860196       0.30752993      -0.01137264      -0.28108999
F        9.93441960      12.90048665      11.08603006       0.26419425       0.25957102       0.04281819       0.41740668      -0.11721907      -0.28582707      -0.01096050      -0.19978836
C        6.93252736      13.14294932      11.40188468       0.12718719       0.45166204      -0.18521925      -0.26847962      -0.12552838      -0.26121739       0.02192457      -0.14756668
F        6.66934365      14.30956498      12.04428994       0.25146436       0.21866062       0.28269613       0.01682887      -0.37817404      -0.56784546      -0.01074626      -0.26681849
F        5.77946614      12.45663237      11.29992585       0.07679166       0.75681805       0.48925592       0.14468409       0.20143978       0.39408502      -0.01311773      -0.27220845
F        7.32976811      13.35437390      10.15573076      -0.31703189       0.00831530       0.31686529       0.06981337       0.71859205       0.10488965      -0.01131979      -0.21986914
H        7.17477939      12.93056011      13.84352274      -0.11611527      -0.05654747      -0.09154405      -0.06612436       0.23402461       0.17935646       0.02538129      -0.03015238
H        8.12761830      11.40317153      11.71063141      -0.00345085      -0.14487959      -0.00593669      -0.24689859      -0.31101087      -0.36443076       0.00976514      -0.03456797
O       13.43817621       8.51190229       2.28306983       0.49431961       0.70341851      -1.62017371      -2.02125525      -0.60884881      -1.24132490      -0.03284580      -0.11898400
C       12.20460750       8.59164151       2.92335707      -0.75029420      -0.07571654      -0.27988056       0.30437496       1.64306295      -0.53887159       0.00971119      -0.22309689
C       12.18869992       9.75657122       3.90331364       0.63456644       0.76192365      -0.18936943       0.29328260      -1.91306233      -0.20358050       0.02097932      -0.09149766
F       12.59629735      10.86480789       3.36053693       0.27223838       0.09871502      -0.66495600      -0.23786864       1.18850148      -0.36941636      -0.00748337      -0.23769762
F       13.06829030       9.48082584       4.88848547      -0.07055913      -0.33803074      -1.62009968      -0.05303880       0.24564061       0.63874727      -0.01318810      -0.26416132
F       10.94786307       9.80505929       4.40145838       0.22700114       0.04721112      -0.87636303       0.55560982       0.97762865       0.19226690      -0.00994021      -0.15519708
C       11.80600720       7.33534894       3.67882025      -0.23277183      -0.57818516      -0.23653521      -0.42616326       0.51946706      -1.23943353       0.02202142      -0.08710574
F       12.67681410       6.99450742       4.62899706      -0.04959928       1.11355639      -0.11293858      -0.89718407      -0.04696043      -0.13322516      -0.00860988      -0.24228589
F       11.83654619       6.38712092       2.73771811      -0.08969465       1.07219617       0.90289170      -0.15864566      -0.88903993       0.03435623      -0.00913024      -0.20226067
F       10.51915244       7.44744115       4.12093144       0.82335633       1.29423788      -0.22044877       1.43306458      -0.66424996       0.09659662      -0.01339567      -0.20100379
H       14.18368368       8.54098531       2.84681691      -0.18597116       0.22205297      -0.08959584       1.31748676       0.14316693       1.22997224       0.02207465      -0.03483403
H       11.46536835       8.83085301       2.11249334       0.08597980       0.32369626      -0.00798356       0.35812867      -0.51432788       0.85737479       0.01264234      -0.04564608
O       10.46961491       4.87117304       0.60504109       1.34231129      -0.34725539       0.09666002      -0.72654587       0.71942335       1.09327316      -0.02758533      -0.10447916
C       10.17618869       3.74515182       1.36648874       1.19264900      -0.27523748       0.41537538       1.07686174      -0.90779978      -0.35335591       0.01182071      -0.23811696
C        9.24288010       4.05106750       2.51082365       0.43959808       0.09319057      -0.68851248       0.00578719      -0.48545337       0.14078511       0.02360681      -0.11601433
F        8.11347986       4.46718353       1.92341676       0.65100349      -0.53640405      -1.02137734      -0.25320759       0.24926043       0.87093151      -0.00811794      -0.24736810
F        9.72294949       5.01529657       3.34431657      -0.15661093      -1.03798508      -0.51762246      -0.71382022      -0.83285272      -0.60459673      -0.00796003      -0.25026107
F        8.99776553       2.93376885       3.23243845       0.09039640      -0.66835731      -0.41777677      -0.17556125       0.94218212      -0.19733620      -0.00903150      -0.25044942
C       11.51804742       3.11254706       1.78031039       0.19781382      -0.69166600      -0.30189293       0.71908730      -0.08285006       0.52603292       0.02147957      -0.16057707
F       12.36850589       3.97686401       2.38640385      -0.09522888      -0.65119970      -0.21373841      -0.65601003      -0.04802258       0.05609706      -0.01083906      -0.25822553
F       12.16726891       2.68627807       0.71268193       0.01704342      -0.25287758      -0.22377599      -0.07831283      -0.30946207      -0.32219478      -0.00937945      -0.20441298
F       11.37026552       2.07406509       2.60440352       0.60022616      -0.97162493      -0.03791138      -0.15502398      -0.11624467       0.20397487      -0.00954126      -0.24575455
H       10.59609816       5.54470197       1.30274390      -0.09776786      -0.30363154       0.23406168       0.28865090       0.30047417      -0.86711955       0.02283193      -0.03012267
H        9.64984612       3.00549887       0.74398695       0.14682057      -0.14378661       0.18239082       0.20101352       0.10917757       0.16861594       0.01363800      -0.04451381
O        8.53359915       7.12391113      11.64857919       0.35082518      -0.61655048      -0.38426782      -0.34287503      -0.32147712       1.48178101      -0.02933075      -0.00130112
C        8.29377248       8.45243053      11.98053918       0.34409101      -0.48472093      -0.09789745       0.66253269       0.62173837       0.97169203       0.00906556      -0.26700842
C        9.02906519       8.76467566      13.31306988      -0.12609204       0.86294574      -0.18498079       0.05021270      -0.94948298       0.20704404       0.02083516      -0.12442723
F       10.34478016       8.46377991      13.22986925       0.20985100       0.20001384      -0.45361727      -0.34854013       0.15297976      -0.07062110      -0.01347852      -0.24801020
F        8.56702432       7.95233566      14.28897769       0.44424160      -0.14899514      -0.18174857      -0.14731902      -0.17067544       0.16310164      -0.01184702      -0.27642608
F        8.89327843      10.00012147      13.74494753      -0.22863394      -0.68545802      -0.98930593       0.16967079       0.17437571      -0.18274683      -0.00915938      -0.21091251
C        6.79065114       8.78970219      12.08763047       0.30702179       0.08392006       0.29139396       0.43016565      -0.01344111      -0.32827613       0.02111945      -0.03336025
F        6.29366205       7.94963455      13.01654206       0.28110995       0.63021416       0.06152385      -0.46030617      -0.19487071      -1.09747553      -0.01099760      -0.17819516
F        6.27841159       8.75309460      10.81363921      -0.13824333       0.53288405      -0.59428746      -0.05431074      -0.87309998       1.18860698      -0.01406310      -0.20313711
F        6.46694723      10.00257444      12.50182943       0.28951207      -0.05841680      -0.65622421       0.37124097       0.29014665       0.32306367      -0.00938444      -0.16916203
H        8.52091953       6.56741692      12.47826329       0.19091289       0.01069229       0.06312789      -0.04168045       0.82364500      -1.17154789       0.02513931      -0.03104383
H        8.74605941       9.09353679      11.23100628       0.09578574       0.02576312       0.04886470      -0.04745715       0.04192904      -0.27957183       0.01158112      -0.05130820
O        4.09769864       1.42559419      12.04437307      -1.08238841      -1.02922500       0.18789468      -0.78879201      -0.68760300      -0.32243261      -0.02510341      -0.09137801
C        2.89868232       1.76631001      11.41552387      -0.00528007       0.29935598       0.37001958      -0.45090762      -0.98904061       0.60156947       0.01278940      -0.22880140
C        2.94456618       1.60732949       9.90106746      -0.27405875       0.01147598       0.30159412       0.64777952      -0.03982818      -0.16872673       0.02266296      -0.14384553
F        3.50709838       0.45002056       9.59187637      -0.25826023       0.06850920      -0.26426971       0.11433548      -0.70645410       0.07052979      -0.01141678      -0.22260705
F        3.77429828       2.52828276       9.36072612      -0.17848503       0.63373202      -0.71349684      -0.61792487       0.28321818      -0.52334911      -0.00982128      -0.25151756
F        1.71914380       1.62478473       9.34796330      -0.62447348      -0.32201983      -0.33032107       0.74503380       0.79956478       0.12540036      -0.01082180      -0.22823629
C        2.37411780       3.11036764      11.85890719      -0.93121896       0.09181296      -0.13949702       0.06791025      -0.09063116       0.06204540       0.02325192      -0.10281073
F        3.16923797       4.05501459      11.25969691      -0.31518931       0.35772065      -0.89273800      -0.68615639      -0.04527254       0.98593485      -0.00992677      -0.23422033
F        2.37702189       3.22769181      13.19793522       0.28975293       0.93854921      -0.34579529       0.83864903       0.02286319      -0.52976996      -0.00820318      -0.24095462
F        1.11426167       3.27268534      11.49812330      -0.04165363       0.07573524       0.71088835      -0.25775179       0.31097904      -0.68003780      -0.01082208      -0.22811000
H        4.67924961       2.16466674      12.03896151      -0.32108826       0.04243060       0.11012878       0.96517318       0.98032856       0.00163717       0.02302212      -0.03821990
H        2.18532504       1.01509203      11.72704502      -0.06968084      -0.06422217       0.01482572      -0.35835323      -0.17454870       0.24541025       0.01601944      -0.02556126
O        2.36030603       6.87852879      10.65332294      -0.50631149      -0.57888367       0.58277088      -0.03621565      -0.39100045      -0.40207574      -0.02959204      -0.14400752
C        2.03162640       7.45836841      11.84736182       0.12767387       0.62345589      -0.26025006      -0.50203532       0.87539959       0.68658823       0.00714731      -0.24435930
C        2.77472346       8.76666117      12.07221492      -0.19562471       1.04538859      -0.15790166       0.26245427      -0.63468629       0.54076266       0.01970206      -0.09882063
F        2.60040179       9.73250966      11.19701356       0.19247094      -0.48608343       0.33062245      -0.00908025       0.05991789       0.02971520      -0.00964565      -0.17904089
F        4.09995901       8.59038961      12.19864171      -0.00725147       0.07452100      -0.16124473      -0.14525910      -0.32708746      -0.48954064      -0.01097591      -0.22248742
F        2.35349512       9.17285586      13.25113009      -0.17666953      -0.54269431       0.18241362      -0.77303606       1.28370166       1.15690649      -0.00894873      -0.16818659
C        2.28828234       6.47184822      13.02408999      -0.13088576      -0.22719713       0.83284577      -0.17470814       0.82786477      -0.85833853       0.02140610      -0.08362192
F        3.52396038       5.99753993      12.97101338       0.17513627       0.30123304       0.06424381       0.41439238      -0.29854846       0.25850889      -0.00942197      -0.25775224
F        1.41015556       5.52460280      12.80747704      -0.42002496       0.21373823       0.22182497      -0.76399338      -1.36475182      -0.02591045      -0.01006446      -0.17555183
F        2.06417884       6.88501573      14.27358015       0.35971764      -0.47945805       1.19788015       0.04736242       0.49804044       0.29223543      -0.00645959      -0.25334609
H        3.31972223       6.83003202      10.62301844      -0.05325774      -0.00438153       0.09215550       0.33879653      -0.27764791      -0.30767959       0.02161380      -0.04244275
H        0.93757531       7.66758155      11.87319904       0.29580669       0.03753319      -0.01344625       1.01146257      -0.13666837      -0.07190353       0.00933276      -0.02221474
O        4.10680301      13.60631208       6.84633747      -0.97527747       0.37996092      -0.03143805       0.67058951       0.94640034       0.20211317      -0.02601974      -0.07640755
C        4.67804884      12.44216612       6.36751203       0.06892068       0.18747969       0.90837749      -0.53159690      -0.80650824       0.44060382       0.00854358      -0.26010445
C        6.21475505      12.54314347       6.44066654      -0.41442014      -0.07220951      -0.63522240      -0.08666834       0.58735740       0.59293228       0.02247375      -0.07721740
F        6.50508118      12.60906704       7.77637638      -0.07975263       0.40509540       0.31431751      -0.31219071      -0.50256312      -1.16068780      -0.01333512      -0.19241080
F        6.71820975      13.72594238       5.94957161       0.53974346       0.53463859       1.32939892      -0.49795541      -0.80664861      -0.09445661      -0.00912107      -0.27669454
F        6.82750713      11.53477410       5.82598901      -0.90024382       1.22383538       0.20518404      -0.00987907       0.93018955       0.77216548      -0.00862300      -0.17514750
C        4.15238374      12.15206191       4.95848676       0.12738449       0.40905280      -0.29423695       0.07874516      -0.05039019       0.76967400       0.02082524      -0.06591310
F        4.57715474      13.14912362       4.22624193       1.46777698       0.39915933      -0.12332506       0.13195698       1.10654771      -1.03016186      -0.00783763      -0.16641651
F        2.82828185      12.04977000       4.72532039      -0.27078102       1.15204914      -1.15645645       0.22563095       0.21090382       0.59765065      -0.00985905      -0.20560411
F        4.66444471      10.99201259       4.56098645      -0.27090617      -0.47910287       0.43932856       0.06491604      -0.53685737      -0.28363046      -0.01043514      -0.16057298
H        4.76363188      14.31651086       6.73432118       0.06829309      -0.09303458       0.31431600      -0.43226805      -0.07841854       0.06543040       0.02644347      -0.02271944
H        4.42585838      11.58241050       7.02106523       0.22855037       0.16967810      -0.03544331       0.26259145       0.50448030      -0.45103332       0.00943066      -0.03666198
O       11.67665901      12.98492781       8.43732649       0.63616854      -0.52251051       1.73367288      -0.63414192       0.83299690      -1.12030995      -0.02735239      -0.05005050
C       10.79625459      11.91782738       8.24021598      -0.53564520      -0.00202192       0.50296980       1.04194975      -0.41501600      -0.44985133       0.00909862      -0.29980570
C       11.41240920      10.91066506       7.23248287       0.29402901       0.17445573      -0.27754538      -0.43582723       0.46935397       0.49148455       0.01868533      -0.14415866
F       12.55784177      10.39954411       7.65826997       0.25575363       0.15656148       0.24908847       0.04434919      -0.02481390      -0.28157181      -0.01186182      -0.12465496
F       11.67394057      11.59662699       6.11078029       0.09084968       0.32082625       0.83943213       0.11159001      -0.40984443      -0.23968980      -0.00950093      -0.23601504
F       10.58341575       9.87844878       7.01669427       0.52374092       0.14838445       0.23363112       0.06381673       0.35340863      -0.46720791      -0.01295516      -0.22691646
C        9.43855584      12.31681712       7.72467271       0.41623539      -0.56660074      -0.08870669      -1.74371564       1.14363337       0.01467984       0.02197292      -0.10120247
F        9.39661704      12.67343697       6.44820987       0.13731481      -0.06514976      -0.04703392       0.97146130       0.66757298      -1.13483071      -0.00924682      -0.18447651
F        8.94666168      13.41180758       8.37568397      -0.01538066       0.91286378       0.54722247       0.74346256      -1.10426962      -0.01851447      -0.01334041      -0.20709091
F        8.56281284      11.30974341       7.75367431      -0.51317187       0.09456383       0.24921952       0.24691553      -0.50150019       1.40507805      -0.01221233      -0.17324564
H       11.65238917      13.57917908       7.64287962      -0.07363412       0.04052074       0.13739935       0.10856353      -0.68288398       0.95761973       0.02650027      -0.04170211
H       10.71709533      11.40502893       9.18543585       0.01911140      -0.12758220       0.07221799      -0.47194505      -0.03539475       0.19715859       0.00975481      -0.04520021
O       14.11853534       8.76001067      10.31595308       0.37598776      -0.16891729       0.42884334       0.25195113       0.64370048      -1.08364570      -0.02515589      -0.03156427
C       12.87553895       8.89883201      10.90594892       0.23121539      -0.48386275       0.01972287      -0.13284665      -0.32902113       0.19744480       0.01025316      -0.18891366
C       11.87968623       8.12176924      10.06583459       0.62724556       0.03928617      -0.89989269      -1.09947634      -0.26408222       0.09190708       0.01995604      -0.13757488
F       12.32863902       6.88309332      10.04493607       0.53363772       0.17508238      -0.02609481       0.51522970      -0.65245605       0.04700174      -0.01165129      -0.17145014
F       11.74999135       8.46558112       8.79245884       0.25926629      -0.57578721      -1.19828136       0.12324207       0.49078238      -0.15788510      -0.01068852      -0.22291557
F       10.63940973       8.09187820      10.58566278      -0.32566022       0.23532486      -0.62379660       0.40493304       0.36376899      -0.13137674      -0.01259434      -0.22385302
C       12.57186505      10.30142013      11.36100156       0.64735482      -0.24165037       0.17354839      -0.74758112      -0.08205292      -0.22066744       0.02138680      -0.13577512
F       12.44716118      11.12604483      10.31910909      -0.61433638       0.76525968       0.35435910       0.58484149       0.50059235       0.23745686      -0.00903095      -0.19543615
F       13.51903161      10.68954410      12.21635163       0.86275426      -0.61673597      -0.06838128      -0.37456438       0.27799648      -0.23027895      -0.00911398      -0.24427010
F       11.38748448      10.35148205      11.98403311       0.45220842      -0.31426168       1.42435286       0.12114850      -0.04029493       0.20372131      -0.01010378      -0.21501657
H       14.18183801       9.25016515       9.45144885       0.08614030       0.06820829       0.03664063      -0.42626294      -0.69187796       1.28896153       0.02316035      -0.04252003
H       12.84400694       8.36669820      11.85702175      -0.17436618      -0.04331413       0.07611016       0.38018361      -0.40243551       0.07806712       0.01423979      -0.00433080
O        2.18238909      12.08413133       7.13897302       0.35871659      -0.12946269      -0.08006953      -0.79538208      -0.23792805      -0.34677470      -0.02394652       0.02927305
C        2.25922940      11.38247980       8.33302482       0.18397550      -0.34398437       0.29452591       0.02768399       1.12213039       0.34223056       0.01322552      -0.23088011
C        2.16643323       9.91144281       7.94905368       0.28735519       0.00001381       0.43575125       0.55416590      -0.38594395      -1.05625820       0.02405632      -0.04562013
F        3.10324237       9.56892823       7.05962531      -0.12609285      -0.61486307      -0.11633139       1.21923542       0.34901485       0.23308995      -0.01109747      -0.21479228
F        1.06081880       9.72270782       7.19192522      -0.51543684       0.40720832      -0.05970180      -1.14747417      -0.36020562       1.10234630      -0.01029746      -0.22152889
F        2.27154811       9.05635934       8.95622424       0.10282834       0.18708340       0.30526006      -0.67452985       0.01144613      -0.52750731      -0.00697731      -0.16516702
C        1.11349887      11.94824334       9.22051549      -1.07681291      -0.23777719       0.28435162       0.55099946       0.16911432      -0.88544506       0.02115903      -0.09243339
F        0.00318805      11.90281692       8.51429492      -0.23832602      -0.55964853      -0.29902047      -0.63732302      -0.49971393      -0.39033160      -0.01040561      -0.13178782
F        1.23678598      13.24494842       9.48788633      -1.60966788       0.42224744       0.35222336       0.83983785      -0.17490683       0.58721691      -0.01198324      -0.22942916
F        0.96837265      11.26084874      10.33725944      -0.66670344      -0.19437212      -0.33099686       0.08153807       0.27072820       0.39660662      -0.00811298      -0.17616735
H        1.38016523      11.77768521       6.66504715      -0.01466365      -0.06847075       0.07314667       0.52187306       0.37379938       0.22900818       0.02719303      -0.02000724
H        3.22649096      11.61500204       8.81503783      -0.10759633       0.10005054       0.03011342      -0.33853194      -0.26308921      -0.12849313       0.01368880      -0.04948804
O        8.80519342      10.97599904       4.04443841       0.16923308       0.11644744      -0.48735462      -0.27221259       0.62735802       0.15001796      -0.02961320      -0.05511340
C        8.68370803      12.26107780       3.51273263       0.27798518       0.36556437      -0.19249377      -0.21353592       0.75996900       0.83635587       0.00889764      -0.27388456
C        7.50737413      12.28931887       2.56144363       0.28754503       0.35228093      -0.13149705      -0.08424351      -0.34986353      -0.43016911       0.02161182      -0.15890431
F        6.40350111      12.03990797       3.24553384      -0.10004462      -0.07968923       0.07972710       0.12210169       0.35673925      -0.18510851      -0.00930369      -0.15839484
F        7.62954027      11.30051171       1.67413968      -0.43023450      -0.07733053      -0.81376108       0.11042503      -0.09834939      -0.07795712      -0.01170855      -0.18689409
F        7.34287765      13.45711634       1.88231861      -0.35351086      -0.02155360      -0.31888302      -0.00382861      -0.41809902       0.37890068      -0.00976966      -0.28194538
C        9.99788765      12.72009200       2.88986222       0.29533472      -0.33465453      -0.29508594      -0.15222512       0.24948338       0.04868017       0.02150159      -0.16768897
F       10.42846014      11.79226140       2.00313696       0.32279577      -0.10523290       0.30277555       0.07620355       0.48848939       0.25276732      -0.00986739      -0.27919495
F       10.91042299      12.86083739       3.86590139      -0.61037865       0.43449866      -0.52294504      -0.14262319       0.06306669      -0.63807094      -0.01054041      -0.24682531
F        9.87303508      13.90418335       2.24848507       0.21976643      -0.49835433      -0.97050356       0.26859581      -0.70637673       0.26880595      -0.01154713      -0.24634732
H        9.03507717      10.36504366       3.33945111       0.06494322       0.03394692      -0.02790789      -0.00212306      -0.15168220      -0.19249417       0.02549454      -0.03492687
H        8.41659728      12.96261808       4.34134758      -0.03748781      -0.09763996      -0.22742243       0.43111426      -0.56840801      -0.61923885       0.01200327      -0.05497930
O        6.98634755       3.93714058       8.94481988       0.11865130      -0.56042886      -0.55396675       0.73517781      -0.09860191      -0.69917357      -0.02801351      -0.12651318
C        6.43426184       4.27724395      10.15735498       0.22821549      -0.07462714       0.16078878      -0.37749073       0.88506120      -0.11452039       0.01207736      -0.25913325
C        5.97015164       5.77951025      10.12337132      -0.47344002       0.33108133       0.20090640       0.50039339      -0.96731251      -0.28892350       0.02145875      -0.11988764
F        4.88389930       5.91417357       9.29536204       0.28114595      -0.29110710       0.35520460       0.86578476      -0.07962240       0.54145736      -0.01141340      -0.24182177
F        6.98446951       6.56209806       9.73672924      -0.71771986      -0.43080393       0.72010229      -0.93760830      -0.61556953       0.06321006      -0.01162143      -0.13296571
F        5.55994875       6.16000317      11.32622746      -0.43703260      -0.14691945      -0.27771385      -0.27461040       0.27650449       0.19666530      -0.00956974      -0.22667533
C        7.47013740       4.02178789      11.23204577      -0.64138847      -0.06211723       0.69442797       0.53035343      -0.28628159      -0.05008890       0.02343626      -0.11257869
F        8.60948377       4.70119129      11.01155311       0.55666260      -1.14770364      -0.39635515      -0.85139412      -0.04839691      -0.05826409      -0.00955851      -0.10613704
F        7.80828765       2.71330317      11.30623856       0.22733050      -1.27095115      -0.37671582      -0.30300459       0.29524055      -0.24132842      -0.01233074      -0.27241984
F        7.03057530       4.37430491      12.41710354       0.21554850      -0.74097339      -0.57403099      -0.39853370       0.20524754       1.37244225      -0.00895043      -0.26137680
H        7.90872659       4.28636385       8.92414473       0.08398030      -0.13679797       0.15038343      -0.77872753      -0.32123733      -0.17695771       0.02399951      -0.04167476
H        5.53590537       3.68321248      10.38819765      -0.01075376       0.16130337       0.19053708       0.34527507       0.04665058      -0.30619356       0.01164678      -0.06364988
O       10.42134849       3.53781634       9.96755344       0.54177466       0.41225454      -0.31616101      -0.88356000      -1.27478051       1.73791897      -0.03015004      -0.07653850
C       10.86133042       3.24886277      11.28097936       0.41619877      -0.29246275       0.32477328       1.44282877       1.37662220       0.27777174       0.00874368      -0.25522500
C       11.68317376       4.51024244      11.75227505      -0.41340314       1.23997453      -0.48356038       0.04023421      -0.64349222      -0.00350763       0.01883188      -0.13272288
F       10.89558344       5.60010907      11.73927933      -0.13988868      -0.41348304      -0.32661698       0.34625894      -0.43304062       0.29368976      -0.01393535      -0.24463399
F       12.68559914       4.69444774      10.88727451      -0.96439013      -0.39566637       0.36218922       0.08116113       0.10732953      -0.28842089      -0.01214041      -0.17469175
F       12.28976383       4.41656687      12.93603083      -0.23444249       0.67785448       0.10416168      -0.38834718      -0.07640090      -0.14658745      -0.01130353      -0.19366373
C       11.71263652       1.95288878      11.32090596       0.47122828       0.27220949      -0.80394335      -0.22846667       0.11244994      -0.07260355       0.02156510      -0.07824860
F       12.72020867       1.93976990      10.46469247      -0.31902623      -0.54424460       0.27413935       0.80923873       0.45829791      -0.14016618      -0.01066400      -0.22637236
F       10.88805701       1.01258871      10.83927503       0.17447078      -0.07706867       0.38479067       0.20852315      -0.30301178       1.03389931      -0.01200689      -0.17117798
F       12.26244788       1.67523313      12.55685827       0.87810020       0.41367540      -0.26920414      -1.37714124      -0.11539358      -1.67613900      -0.01145680      -0.23264618
H       11.18571322       3.71220278       9.45873095       0.04126015       0.04770037       0.09627240       1.34713030       0.26267773      -0.90459085       0.01974641      -0.04319237
H       10.01770375       3.13714065      11.95062798       0.00907587       0.07073843       0.19356743      -0.08098109      -0.21988249      -0.07576307       0.00989171      -0.06312673
O        6.25150900       6.92536331       7.45443195      -0.57741214       0.59822642       0.58020467      -0.01738513      -0.34872368      -0.43148059      -0.02585327      -0.05561849
C        6.95464540       7.50106141       6.42229482      -0.02097383       0.03186936       0.94392841       1.08378243       0.56597841      -0.96222985       0.01066847      -0.23393434
C        6.04068516       8.55885942       5.76355463      -0.18269959      -0.29190457      -0.08990144       0.14557166      -0.12240482       0.69347912       0.02007017      -0.12385596
F        5.79118900       9.39145978       6.78267175       0.40792626      -0.85015900       0.31022263      -0.44060767       0.70520753       0.16432142      -0.01355256      -0.21841580
F        4.85656267       8.03644602       5.38529497       0.24295918      -0.02095890      -0.13251645       0.35276416       0.08871835      -0.00538221      -0.01023292      -0.26994982
F        6.55286507       9.26719008       4.76438781      -0.24934739       0.06142289       0.20264782       0.00364901      -0.59935915       0.05718091      -0.01040620      -0.20303196
C        7.48253422       6.48697775       5.38874095      -0.77507922      -1.00346893       0.15821537      -0.63013500       0.98813510       0.78868836       0.02107404      -0.13148177
F        6.43477725       5.79374912       4.96052103       0.38982108      -0.50040027       1.89485448      -0.25712153      -1.03110087      -0.38772920      -0.00687700      -0.27420840
F        8.38983848       5.65479816       5.92272153       0.79731769      -0.20804357       0.15582631      -0.69448930       0.28450838      -0.63121080      -0.01064324      -0.24204656
F        7.97929355       7.14243738       4.33475225      -0.85034507      -0.11172611       0.74754876       0.46894085      -0.41247708       0.06834064      -0.01123520      -0.23224434
H        5.47427136       6.46694571       7.09856397       0.02269465       0.04118313      -0.07748445       0.14394309       0.06052767       0.03271154       0.02744704      -0.03163433
H        7.83488787       8.06326876       6.81596315      -0.08497082       0.01326197      -0.14529060      -0.63194025      -0.42404523      -0.08907621       0.01251157      -0.04953312
192
Lattice="14.05790476106759 0.0 0.0 0.0 14.05790476106759 0.0 0.0 0.0 14.05790476106759" Properties=species:S:1:pos:R:3:momenta:R:3:forces:R:3:charge:R:1:energies:R:1 Built=T with=T Packmol=T charge=0 spin=1 external_field="_JSON [0.0, 0.0, 0.0]" energy=-14.56851863861084 stress="-0.0119326738640666 -0.0024708460550755262 0.003329918021336198 -0.0024708460550755262 -0.012551745399832726 -0.0011970842024311423 0.003329918021336198 -0.0011970842024311423 -0.01358594186604023" dipole="0.5521538853645325 0.09254123270511627 -0.03168380260467529" free_energy=-14.56851863861084 pbc="T T T"
O       13.30672578       5.75101841       6.82548902      -1.40268359       0.28177993       0.04897461       0.82454497       0.97511858       0.82430148      -0.02634211      -0.09842276
C       12.47924359       4.69168180       6.64921586      -0.18256987      -0.28670086       0.37624614      -1.36492467      -1.13782680       0.69097161       0.01166397      -0.23002325
C       11.03783743       5.07159247       7.07459522      -0.16538931      -0.36176504      -0.00954391       0.86789262       0.91890222      -0.37786984       0.02260669      -0.07132875
F       10.66378463       6.21805347       6.48271854      -1.46933186      -0.54557315      -0.23362071      -0.00416865      -0.68726528      -0.62228394      -0.01249453      -0.18284637
F       11.11876539       5.45312925       8.35806086      -0.27991636      -1.51517365       0.51062305      -0.51478034      -0.54865009       0.90319884      -0.00777813      -0.17962466
F       10.13605892       4.09438071       6.90708473      -0.14819605      -0.62228228       0.02360686       0.37531805       0.74559563       0.19647272      -0.00849901      -0.25247815
C       12.96872096       3.43441494       7.46904930      -0.25651000      -0.19055642      -0.16377352      -0.46833423       1.94183946      -1.30996811       0.02330946      -0.08263489
F       13.19945009       3.75285283       8.74711781       0.04951021      -0.03585678       0.06817272       0.62495726       0.14543693      -0.23831734      -0.00650418      -0.23570755
F       14.05351858       3.00259445       6.87811605       0.14751105       0.60274685       0.12610227       1.23608458      -0.52321059       0.11170046      -0.00674014      -0.25510004
F       12.08186299       2.47254438       7.47136196      -0.43160944      -0.57621170       0.40522338      -0.98892790      -1.26358616      -0.02159065      -0.00709977      -0.24917397
H       13.19850897       6.10322528       7.72901922      -0.10098443       0.08526954      -0.02312036       0.16859347      -0.13424365      -0.34477592       0.02333988      -0.04554408
H       12.45996098       4.45492930       5.59741524       0.01555328       0.02723053      -0.04256281       0.08342315      -0.39111027      -0.38850877       0.01373927      -0.04748576
O        1.87647425       8.99972270       2.17713191       1.09546630      -0.00961066       0.08200607       0.58406115      -0.07529868      -0.98991084      -0.02269354      -0.13702321
C        2.94015394       9.84541340       2.44982918       0.05825099       0.64345753      -0.11815753       0.94968742       1.01031482       0.12957159       0.01262300      -0.24928895
C        2.77790272      11.26371517       1.84870917      -0.26249722      -0.03029192      -0.48002313      -1.72569311       0.86907834      -0.97232318       0.02211562      -0.09056607
F        1.58113090      11.74888798       2.35340197      -0.62409313      -0.44927926       0.42418009       1.44472218      -0.10821725       0.27044281      -0.01416958      -0.22834994
F        2.56887668      11.34873306       0.53281216       0.33905207       0.45716004      -0.42648379       0.24422628      -0.78643674      -0.49676189      -0.01156457      -0.20940739
F        3.79833362      12.11601059       2.05906421      -1.03273930       0.42143581       0.76340219      -0.62012625      -0.70952541       0.70128185      -0.00745098      -0.21692175
C        4.27042860       9.14162690       2.11241146       0.26360640       0.22305067       0.50895996      -0.52092075      -0.93717128       0.37752619       0.02169666      -0.13278681
F        4.28227137       8.74222513       0.82122790       0.16069640       0.00349753       0.37466543       0.08905052       0.07358064       0.46799263      -0.01033086      -0.25542626
F        4.31747966       8.03769158       2.89424159       0.67265253       0.22353236       0.76584938      -0.08830754      -0.05866352      -0.57011497      -0.01208594      -0.24254556
F        5.37887635       9.80025869       2.35346399       0.38338643       0.76898848      -0.30339050       0.17066142       0.62638360      -0.29450065      -0.00948101      -0.21648398
H        2.00670111       8.59723994       1.28304938       0.09283344      -0.09854822       0.05468280      -0.33390784       0.39433414       0.86652917       0.02377283      -0.06036653
H        2.94816397      10.09153711       3.51310827      -0.07875431       0.07137864      -0.10608188       0.00877496      -0.52424967      -0.02686176       0.01133564      -0.03158060
O        7.46152487      12.09906979      13.43772730       0.35469047      -0.02518069       0.09987032      -0.37251779       0.87616253       0.27561513      -0.02725282      -0.01723792
C        7.94332971      12.35139553      12.17226699      -0.17719766      -0.37783295      -0.34065428       0.94453382      -0.79376304       0.32670510       0.00819507      -0.24954899
C        9.36986603      12.94949225      12.25707124      -0.40101705       0.18006485      -0.55816880      -1.66980755       0.52392745       0.79324657       0.02029782      -0.14230047
F       10.09970417      12.24376016      13.12328247      -0.00913460       1.02941006      -0.18344426      -0.03444618       0.65784854      -0.00275305      -0.01136748      -0.23350324
F        9.28293795      14.25177911      12.68378140       0.41124289       0.75944163      -0.54831439       0.45577782      -0.92185658       0.01294160      -0.01336036      -0.27523810
F        9.94476744      12.90640701      11.08374627       0.55259478       0.19358242      -0.26796080       0.58386511      -0.17341615      -0.83496380      -0.00966968      -0.19007507
C        6.93400275      13.15888929      11.39394016      -0.06837486       0.29533653      -0.13821185      -0.41366032      -0.50704026       0.51096296       0.02182867      -0.14101352
F        6.67608265      14.31343029      12.04814095       0.27078440       0.10372487       0.01944021       0.02561258      -0.09268606      -0.50206596      -0.01039394      -0.26625708
F        5.78157992      12.47748253      11.31498914       0.05177018       0.84254321       0.66365481      -0.27465242       0.02600596       0.23071766      -0.01348358      -0.27078953
F        7.32241071      13.35970489      10.16317413      -0.23446132       0.42214910       0.19924414       0.27674404       0.90768367      -0.59815449      -0.01017652      -0.21248308
H        7.11194939      12.92344137      13.81861660      -0.11757179      -0.02933595      -0.03761723       0.16840670      -0.28800425      -0.06734513       0.02571245      -0.02991809
H        8.08697803      11.36798794      11.68860681      -0.16251518       0.08194501      -0.05645628      -0.21713413       0.56327695      -0.06136660       0.00944368      -0.03988209
O       13.43972022       8.52918820       2.22871544      -0.13548685       0.45829480      -1.59110036       0.08379050      -0.25138268       1.93604994      -0.03621121      -0.11249840
C       12.18474183       8.60668057       2.90833955      -0.03177169       0.77737934      -0.37625523       2.36132407       1.26643598       0.16500573       0.00831967      -0.17450899
C       12.21403747       9.76415422       3.89080423       0.52016941      -0.41494052      -0.47674090      -0.70949835      -2.11132526      -0.82279652       0.02099424      -0.07753889
F       12.60247702      10.87623534       3.34049642       0.21798610       0.79134240      -0.87984812      -0.09174092       1.20828974      -0.28380197      -0.00743794      -0.24421351
F       13.06782161       9.47387522       4.85216731       0.09774782      -0.19264156      -1.11858422       0.69078857       0.32528555       1.46079004      -0.01076074      -0.25014889
F       10.95753499       9.81321868       4.38015271       0.53139698       0.59918689      -0.76061103       0.66024143       1.12201297       0.32257637      -0.01120311      -0.15189122
C       11.79466370       7.32578739       3.65835929      -0.24275687       0.30942785      -0.69515796       0.51931554       2.79960489      -0.40207741       0.02163343      -0.06976756
F       12.67014556       7.02287562       4.62542903      -0.45530323       1.06620356      -0.16263361      -0.73584843      -0.22742602      -0.12263962      -0.00981602      -0.25354695
F       11.83308572       6.40552866       2.75872169      -0.18035726       0.21047369       0.60970895      -0.17896292      -2.50313544      -1.27366745      -0.00638342      -0.18002227
F       10.54739345       7.47632700       4.11657653       1.25878437       0.91761932      -0.08825069       0.17664383      -0.91636562       0.42280337      -0.01221778      -0.20675614
H       14.19516572       8.66083080       2.89109080      -0.06843447       0.22607479      -0.01852408      -1.30802262      -0.30087218      -1.43916643       0.02291419      -0.02934291
H       11.49476091       8.91804957       2.16063528      -0.09984297       0.04721349       0.06388343      -1.03901923      -0.42735055      -0.62202960       0.01222659      -0.03744242
O       10.50526233       4.86237335       0.61554834       0.97312239      -0.30138609       0.56258692      -0.78702676      -0.08989153       0.87559050      -0.02735775      -0.09169274
C       10.23309740       3.72369869       1.37911206       1.49523334      -0.74689923       0.20128435      -0.13504802      -0.59677410      -0.40305704       0.01161847      -0.19703710
C        9.26034317       4.04646883       2.48601033       0.40380645      -0.39088220      -0.49137311      -0.12888105      -1.32990944       0.53766012       0.02374047      -0.12638949
F        8.12929693       4.45470127       1.90167737       0.58866017      -0.43316652      -0.68240089      -0.06130787       0.19876245       0.59316248      -0.00823312      -0.26076040
F        9.71485084       4.98431043       3.32763290      -0.44486711      -1.29787769      -0.73941265      -0.39171880      -0.07247695      -0.18291496      -0.00652925      -0.25329971
F        8.99927413       2.92293458       3.21936236       0.03101391      -0.16215124      -0.61518514      -0.11608285       1.00655901      -0.43918958      -0.01076179      -0.25272369
C       11.53481646       3.08420736       1.77589547       0.64308030      -0.67082755       0.13566086       0.92858070       0.19800405       1.08584821       0.02155926      -0.17277537
F       12.36264524       3.95967073       2.38154253      -0.31656774      -0.66888478      -0.14211181      -0.13637452       0.08029111       0.29959631      -0.01050203      -0.26739404
F       12.16776762       2.67708185       0.70409358       0.04728156      -0.48169170      -0.46081707       0.22987662      -0.57041633      -0.54280394      -0.00860003      -0.19689800
F       11.38504242       2.04790050       2.60432990       0.54777571      -1.05411518       0.02173295      -0.09546360      -0.12407942       0.07577818      -0.00944456      -0.25060451
H       10.59787120       5.49933593       1.33599894       0.11662206       0.18025903      -0.06751212       0.40439901       0.91932726      -0.60508162       0.02288343      -0.00989411
H        9.72718338       2.94197391       0.82195186       0.13386999      -0.12830063       0.07178413      -0.19747858       0.03301111      -0.56319422       0.01392907      -0.02794879
O        8.54185407       7.10639862      11.64410902       0.17344270      -0.32110685      -0.14015113      -0.46818349       1.63033116      -0.65091896      -0.02887160      -0.02645352
C        8.31450066       8.44111279      11.98404010       0.64738221      -0.03058329       0.20331832       0.34171078       1.00907075       0.21828009       0.00961786      -0.25400746
C        9.02620862       8.78248914      13.30642463       0.02933709      -0.14897504      -0.15830376       0.54878634      -2.72469735      -0.00295402       0.02116023      -0.09250040
F       10.34776254       8.47031553      13.21768579       0.01737466       0.31085689      -0.48257135      -0.37695777       0.20458366       0.01227546      -0.01437311      -0.24024357
F        8.57773506       7.94790976      14.28507374       0.38360038      -0.17719081      -0.12531414      -0.15487257       0.02341960       0.10285804      -0.01292300      -0.27817726
F        8.88796153       9.98683878      13.71906573      -0.19706196      -0.22742866      -0.97281459       0.00255290       1.48669207       0.29349414      -0.00655635      -0.18518054
C        6.80704409       8.79229801      12.09295588       0.47423365       0.03098558      -0.09227687       0.16999057      -0.15393223      -1.03900683       0.02136217      -0.01612659
F        6.29793538       7.96441797      13.01158274       0.04706838       0.49604065      -0.43101874      -0.47578725      -0.39897820      -0.89956033      -0.01050219      -0.17902443
F        6.27515162       8.76125864      10.80655358      -0.08684055       0.08988013       0.07118509       0.27070922      -0.95595413       1.45390940      -0.01595103      -0.19658846
F        6.47703389      10.00361097      12.48723874       0.49796570       0.16042010      -0.45600597       0.44312844       0.54021662       0.51257080      -0.00892888      -0.15353617
H        8.61087649       6.61404035      12.44066561       0.19186003      -0.00797535       0.04216912       0.09181535      -0.97110713       1.25130475       0.02395030      -0.02758135
H        8.77344126       9.09472862      11.23196780      -0.00230929      -0.04532172      -0.02235422      -0.23975962      -0.20573437      -0.04886280       0.01150449      -0.04907038
O        4.06270351       1.39428557      12.04823217      -0.98124520      -0.73264367       0.09683442       1.30644143       1.95744228       0.04753147      -0.02469571      -0.09807558
C        2.88683703       1.76354518      11.43549539      -0.68974388      -0.49002928       0.54947959      -1.72705257      -1.55838120      -0.10977947       0.01261024      -0.21793589
C        2.94011797       1.60826256       9.90908877       0.04952548       0.04760613       0.04014476       0.54711789       0.12228107      -0.76502311       0.02255178      -0.14375663
F        3.50087998       0.44804263       9.58586178      -0.22615177      -0.19328930      -0.18688371       0.07505684      -0.35248885       0.23729917      -0.01148568      -0.23072162
F        3.76469458       2.54532198       9.33979975      -0.59511845       0.63513718      -0.86343488      -0.96192294      -0.31735703      -0.00270275      -0.01114521      -0.25153130
F        1.70833540       1.62157707       9.34085956      -0.18388199       0.07770082      -0.19543529       1.05578172       0.82301372       0.40564108      -0.01162665      -0.22289208
C        2.34258665       3.11371533      11.85467154      -0.47479124       0.07676271      -0.05299515       1.65550411      -0.01658667       0.22250228       0.02374297      -0.08082534
F        3.15591389       4.06344917      11.24277571      -0.73550118       0.27104398      -0.41328375      -0.90014791      -0.33312067       1.00046635      -0.01144729      -0.23317125
F        2.38970251       3.25240697      13.18606164       0.68094258       0.97205111      -0.54686046       0.68982685      -0.00511903      -0.20275906      -0.00801042      -0.23958917
F        1.10896597       3.27693105      11.51156807      -0.45581928       0.26157824       0.30206433      -1.25926340       0.39967710      -0.97826970      -0.00854279      -0.21191853
H        4.60491228       2.22845831      12.10438478      -0.12941739      -0.03616143       0.16411551      -0.30458659      -1.39745867       0.08620618       0.02439717      -0.02142714
H        2.14185392       1.00669134      11.74293724      -0.06914456       0.07704959       0.02241875       0.06390370       0.32829338      -0.06734949       0.01560869      -0.02422690
O        2.34614107       6.85796963      10.66801976      -0.32654936      -0.74139519       0.37387110       0.83208716      -0.13222705      -0.38955685      -0.02991881      -0.14573699
C        2.04500691       7.48794577      11.84627305       0.69529915       0.70625318       0.24132777       0.78957891      -0.41320354       1.09214759       0.00651504      -0.21956804
C        2.77170416       8.79552397      12.07331481       0.09817382       0.22231245       0.26033883       0.82836598      -2.27282286       1.07962537       0.01963260      -0.08055539
F        2.60474379       9.72360941      11.20376721       0.12147152      -0.09381820       0.12808454      -0.26379886       1.31098032      -0.69767392      -0.00737258      -0.16200551
F        4.09879999       8.59087037      12.19156104      -0.07970832      -0.01604238      -0.37123249      -0.09898237      -0.06662112      -0.28973582      -0.01183871      -0.23065181
F        2.34387362       9.16763253      13.26358664      -0.56095669       0.15982584       0.77617253      -0.66115731       1.49265909       1.05122221      -0.00858862      -0.17016542
C        2.28211867       6.47308469      13.04705101      -0.15287265       0.30445588       0.24846979       0.03512179       1.01120019      -1.32321477       0.02152327      -0.06418926
F        3.53038085       6.00337627      12.97464209       0.27971890       0.15202959       0.22528145      -0.08869783      -0.27633151       0.35412359      -0.01009245      -0.25831679
F        1.39478561       5.52224249      12.81349767      -0.73266251      -0.34400321       0.25965220      -0.30667695      -0.70777607       0.15775631      -0.01026881      -0.19292215
F        2.07378288       6.87519123      14.30669427       0.37920266      -0.29828678       1.34231131      -0.00421671       0.27931115       0.00432894      -0.00531647      -0.25353557
H        3.31833017       6.79219965      10.62786442      -0.02899326      -0.14741772      -0.06823264      -0.37095267      -0.23809779      -0.26178911       0.02161605      -0.04641956
H        1.01222634       7.70297154      11.86188089      -0.22160162       0.14552950      -0.02456481      -1.05076766       0.16470739       0.02368793       0.00882033      -0.01608904
O        4.08068016      13.62284407       6.84736249      -0.74158427       0.63488373       0.10618936       0.58380038       0.28736919       0.29719615      -0.02552631      -0.07491615
C        4.67660833      12.45121151       6.39787415      -0.13442707       0.39457203       0.39516053      -0.52935463       0.49329907      -1.42893076       0.00918096      -0.25060779
C        6.19824973      12.55141031       6.42540411      -0.36900285       0.58379900      -0.01206694       0.19951487       1.79116094       1.75548637       0.02228832      -0.03730307
F        6.50057521      12.61605586       7.77690453      -0.28056852       0.12438565      -0.26500374      -0.43934563      -0.61848068      -1.02789128      -0.01563599      -0.18423834
F        6.72881737      13.73497555       5.98293176       0.27114273       0.18384550       1.21788545      -0.59908837      -0.54042357      -0.50138992      -0.00959559      -0.27249366
F        6.80492348      11.57033893       5.83471731      -0.80535029       1.43333269       0.41033813       0.47841069      -0.20534730       0.04942168      -0.00674325      -0.16944042
C        4.15801243      12.16769888       4.95544656       0.13987303       0.34240628       0.14596450      -0.01955096      -0.21208864       0.75263041       0.02144141      -0.05122684
F        4.61590960      13.16541235       4.21749826       1.50297955       0.79996646      -0.49902002      -0.20748748       0.35253170      -0.36411634      -0.00788377      -0.16806287
F        2.82402412      12.08158151       4.69898944      -0.00542755       1.31852862      -0.87081142       0.85089701       0.30785888       0.70649475      -0.01016150      -0.20352814
F        4.65728902      10.97746177       4.57094332      -0.30322103      -0.58442788       0.34544277      -0.17879629       0.22151743      -0.10541008      -0.01106863      -0.16662757
H        4.77106164      14.29465285       6.89568742      -0.00275685       0.03962791       0.34785346      -0.11160323       0.25228801       0.04551946       0.02598765      -0.02514839
H        4.51649949      11.61116072       7.03627596       0.07177547      -0.17602892       0.18980254      -0.51111066      -0.60640997       0.35430723       0.01002626      -0.03098104
O       11.69010934      12.97088982       8.48639147       0.20739032      -0.58326909       1.65613699      -1.02487290      -0.99814272       0.64109021      -0.02725296      -0.05091377
C       10.78778257      11.91060407       8.25951618       0.14149014      -0.37284237       0.46519608       1.24826539      -0.60940391      -0.23360468       0.00965125      -0.28007856
C       11.41922479      10.92193534       7.22997173       0.03308297       0.34923267       0.23102582      -0.50195223       0.13721023       1.36569297       0.01854867      -0.13440229
F       12.56471570      10.40358286       7.66282222       0.26827753       0.15934078       0.09741535      -0.04745142       0.01303027      -0.34079668      -0.01264948      -0.11491493
F       11.67744851      11.60316182       6.12966395       0.19216419       0.21288215       0.57155094       0.24300972      -0.07322206      -0.81956333      -0.00812472      -0.23517120
F       10.59727490       9.88440271       7.01945482       0.53538560       0.30698791      -0.03095684      -0.09791829       0.27708986      -0.58423251      -0.01308566      -0.22771230
C        9.43512319      12.30865065       7.72221365      -0.59036045       0.22323190      -0.01417117      -1.75795817       1.77189374       0.23097165       0.02231051      -0.09480603
F        9.40637750      12.67545033       6.44075624       0.60513527       0.20023193      -0.48477724       0.79006165       0.40544087      -0.56834257      -0.00902784      -0.20109092
F        8.95172255      13.42702286       8.38867856       0.41872079       0.22090392       0.42042529       0.86166966      -1.59589815      -0.47353482      -0.01456423      -0.20265794
F        8.55158729      11.30945724       7.76879792      -0.33957877      -0.09622726       0.90297838       0.42678487      -0.24249226       1.14875627      -0.01164107      -0.18255234
H       11.63077012      13.57290735       7.76177129      -0.02234598       0.10320843       0.14933736       0.04684185       0.89350808      -0.89840287       0.02559272      -0.04297580
H       10.67084562      11.36507063       9.20009726      -0.19398075      -0.00713780      -0.05583984      -0.28758198       0.26885003      -0.25718027       0.00981662      -0.05171327
O       14.13181359       8.75593748      10.32717408       0.45293409      -0.27117225       0.59168376      -0.09699593      -0.96751863       1.55779576      -0.02454218      -0.03976917
C       12.88257296       8.87620246      10.91057411       0.09239007      -0.60083776       0.21929542      -0.37532201      -0.00190959       0.26398283       0.01159080      -0.19217902
C       11.89168744       8.12088446      10.03202150      -0.07347253      -0.08097309      -0.69830102      -1.45942962      -0.23830420       0.75432950       0.02068508      -0.10844187
F       12.34575597       6.88313649      10.04406808       0.77663742      -0.17809092      -0.06128487       0.32599375      -0.70685619      -0.19423495      -0.01076348      -0.17328729
F       11.75783291       8.45341931       8.76029562       0.35509499      -0.37572152      -1.27488915       0.20794278       0.35396728       0.03849374      -0.00946575      -0.21590659
F       10.63530798       8.10036782      10.56746248       0.05868788       0.41796291      -0.81668754       0.98931986       0.30833650      -0.50788295      -0.01360354      -0.22685522
C       12.58789861      10.29167616      11.36617726       0.08212295      -0.21149550       0.09365477      -1.37017226       0.19420417      -0.05064270       0.02170429      -0.12787138
F       12.43518746      11.14785898      10.33118157      -0.30206000       0.86602977       0.62358746       0.68673444      -0.18698204       0.74681675      -0.00987088      -0.19698025
F       13.53948078      10.67518233      12.21305341       0.72320044      -0.49538300      -0.19014508      -0.32593662       0.26235119      -0.26287663      -0.00839921      -0.23552352
F       11.40165627      10.34290389      12.02163712       0.69020342      -0.35147171       1.44933058       0.65366590      -0.05898660      -0.23076032      -0.01115345      -0.21334633
H       14.18132069       9.25058937       9.53508026      -0.05233759       0.10267873       0.01547205      -0.07885937       0.85181743      -1.38985085       0.02226461      -0.03580945
H       12.81524263       8.31720283      11.86419982       0.06535837      -0.12524307      -0.09357543       0.46731746      -0.02340601      -0.40584630       0.01446254      -0.01557955
O        2.18965704      12.07820360       7.13644549       0.22651914      -0.23130340       0.01168481       0.23739471      -0.03971022       0.61804599      -0.02456929       0.01563473
C        2.26189890      11.38131527       8.34634280      -0.14834273       0.29526870       0.29669041      -0.94685954       1.22940791      -0.30375519       0.01334739      -0.21214181
C        2.18210298       9.90748490       7.95402993       0.41891392      -0.17813955      -0.21904773      -0.16165583      -0.19099355      -1.33133054       0.02431133      -0.04189474
F        3.10722624       9.55522483       7.05850965       0.41573335      -0.44058945       0.03935088       0.95943677       0.39938948       0.33746338      -0.01052431      -0.22750114
F        1.04167998       9.73127777       7.19832400      -0.89637470       0.26040040       0.58075011      -0.30141708      -0.30394694       1.37385964      -0.01240355      -0.22942820
F        2.27002739       9.06088279       8.96122947      -0.21422017       0.14686983       0.09036176      -0.58132356      -0.17695609      -0.42125297      -0.00636136      -0.16486049
C        1.07887933      11.94211027       9.22122082      -0.53786420      -0.02386835      -0.27093828       1.46715164       0.61082053      -1.09588003       0.02112512      -0.07075045
F       -0.00802952      11.88511914       8.50367289      -0.64837339      -0.79953810      -0.52888314      -0.83317602      -0.36106274      -0.44487897      -0.00943657      -0.11642288
F        1.19962056      13.25356595       9.50060134      -1.27828595       0.19717645       0.61692730       0.67789847      -0.73087746       0.39188206      -0.01324717      -0.24272481
F        0.95093463      11.25681380      10.33240900      -0.69466785      -0.13399817      -0.01769300      -0.05771307       0.08213010       0.68774962      -0.00741188      -0.17576489
H        1.39744698      11.77775007       6.69772009      -0.03001521       0.02789937      -0.01590182      -0.54773194      -0.00131026      -0.50298637       0.02625005      -0.01952622
H        3.18599882      11.63745797       8.83790093       0.02423033       0.00606118       0.09878380       0.49553505      -0.13619621       0.20847008       0.01373707      -0.05277906
O        8.80856965      10.98381790       4.02980690       0.06158316       0.36165553      -0.49559125      -0.17161544       0.33012444      -0.10396983      -0.03007792      -0.05209948
C        8.69451760      12.27465870       3.50303004       0.26716104       0.13911543      -0.45452305      -0.17545830      -0.77200675      -0.77773070       0.00914657      -0.27418461
C        7.51621611      12.29787932       2.55040532       0.10029314       0.02019758      -0.41764493      -0.61114293      -0.87523425      -0.51360750       0.02177470      -0.15758245
F        6.40305675      12.04031417       3.24593643       0.11149973       0.11528941      -0.06671708       0.65901375       0.39259359      -0.39543015      -0.01016451      -0.15832174
F        7.61916762      11.29879498       1.65345169      -0.36478524      -0.02827560      -0.75092507       0.19725522       0.22223818       0.35088950      -0.01256293      -0.18464682
F        7.33369306      13.45420045       1.87635379      -0.35369151      -0.18889180      -0.14889572       0.04026468      -0.22861397       0.29498497      -0.00906815      -0.27742150
C       10.00658045      12.71088923       2.87799774       0.08633499      -0.07544218      -0.28767509      -0.65514064       0.71490377       0.01885502       0.02148653      -0.16488442
F       10.43781808      11.79153413       2.01183276       0.41696969       0.00532589       0.33481917       0.26071873      -0.04243978      -0.17465767      -0.00866407      -0.28039700
F       10.89486133      12.87261944       3.84926968      -0.54138040       0.47872993      -0.71629059       0.48173466       0.07771590      -0.05456687      -0.00991523      -0.24591306
F        9.88044744      13.88686062       2.22454493       0.34872938      -0.82220447      -0.89491251       0.19838947      -0.44727039       0.10987554      -0.01180568      -0.25143790
H        9.06162201      10.37605825       3.31707119       0.02964827       0.04470306      -0.02366666      -0.13490182       0.15051028       0.18584004       0.02558826      -0.03480155
H        8.42248550      12.94333720       4.27797865       0.01901725       0.15432427       0.13629282       0.06580102       0.67835402       0.95030701       0.01243778      -0.04918647
O        6.99180168       3.91884639       8.92572072       0.04470568      -0.65224049      -0.59102248      -1.14952028      -0.20066616       0.48631877      -0.02852729      -0.15124893
C        6.44031367       4.28424191      10.16166391       0.09148330       0.41127924       0.01767156      -0.16478240       0.73108137      -0.46994549       0.01198525      -0.22551546
C        5.95825385       5.78010505      10.12802794      -0.06416691      -0.35576608       0.02951987       0.99848020      -1.56808305      -0.23571520       0.02113573      -0.12594594
F        4.89540719       5.90622249       9.30717716       0.55291424      -0.32115342       0.51768209       0.17246956      -0.04352412       0.03442242      -0.01045224      -0.24609238
F        6.96099419       6.54838209       9.75534332      -1.03880858      -0.57240637       0.69267654      -0.19268855       0.09370066      -0.26957363      -0.01136898      -0.13501036
F        5.54615116       6.15829904      11.32189394      -0.64573240       0.01890855      -0.00773278      -0.43929997       0.30894452       0.77198261      -0.00954968      -0.23034582
C        7.45444098       4.01336404      11.25305351      -0.02625895      -0.40164849       0.18714304       1.66841137      -0.87917227      -1.72212100       0.02402559      -0.08085038
F        8.61760807       4.67073318      11.00154433       0.04458721      -1.20769764      -0.35129194      -1.14470243      -0.02701008       0.25930589      -0.01066018      -0.10922562
F        7.81139541       2.68348706      11.29523739      -0.01797571      -0.98372025      -0.46000093      -0.66045070       0.91446376      -0.06344812      -0.01419910      -0.26997033
F        7.03272590       4.35693671      12.41374482      -0.07448350      -0.58405518       0.39823240      -0.66762435       0.41141987       2.28106880      -0.00655827      -0.24170400
H        7.90432258       4.19374462       8.96657130       0.06585669      -0.19339641       0.00953204       0.81684750       0.14208885      -0.33587891       0.02300506      -0.04030865
H        5.54704935       3.73630783      10.43488532       0.00434429       0.00131804      -0.01042673      -0.19062124      -0.55089676      -0.45384049       0.01146375      -0.05380683
O       10.43759085       3.54180898       9.96805102       0.79273283      -0.09698467       0.20009892       1.68100154      -0.76060098       0.41203761      -0.03269404      -0.06219933
C       10.88812526       3.25307301      11.29789670       0.81599417       0.52057944       0.46888341       0.49861750       1.58161926      -0.16151294       0.00743061      -0.23213191
C       11.66788955       4.54602308      11.73666334      -0.29152338       0.32217304      -0.18068346       0.55005223      -2.79886961       1.15899456       0.01860784      -0.10286051
F       10.89229481       5.58963187      11.73233386      -0.18566402      -0.28192337      -0.22027975      -0.48589730       0.91218621       0.17580825      -0.01096168      -0.23471262
F       12.66302777       4.68607302      10.89296355      -0.70304981      -0.20800103       0.01005560       1.00148416       0.62314099      -1.07313228      -0.01069726      -0.16305973
F       12.28091046       4.43443468      12.93724832      -0.45445562       0.72212804      -0.02547891      -0.42282245       0.12349101      -0.32615352      -0.01371546      -0.19696569
C       11.72672185       1.96400100      11.29302734       0.16087531       0.24818876      -0.43073280      -0.85878056      -0.17077115       1.42965329       0.02103942      -0.09681343
F       12.71937721       1.92861127      10.46844250       0.33178116      -0.31399599      -0.07371208       1.66835213       0.51141137      -1.17631996      -0.00886949      -0.20905125
F       10.89397580       1.00899112      10.85550914       0.28222664      -0.18317485       0.85294178       0.18439871      -0.07581435       0.78466707      -0.01228945      -0.18039504
F       12.27667942       1.68545326      12.53900514       0.22746936       0.37791590      -1.10047914      -1.29133463      -0.10202120      -1.48356426      -0.01346788      -0.23745038
H       11.26951674       3.74562390       9.46009095       0.02169143       0.02336464       0.08560327      -1.27916121      -0.34664208       0.71460843       0.02020032      -0.04196497
H       10.05093371       3.14097901      11.99419022       0.14740850      -0.06087583      -0.04810425       0.11442204      -0.28329235      -0.43612704       0.00986794      -0.06378039
O        6.23409289       6.94169462       7.46996984      -0.53247625       0.47787004       0.44270898       0.21940126      -0.23898092      -0.33521625      -0.02589157      -0.05483703
C        6.95826600       7.50299720       6.44462510       0.05630252      -0.03990415       0.04254045      -0.31694826      -0.46181008      -2.05235100       0.01064654      -0.21674500
C        6.03637032       8.54584943       5.76737886       0.00839136      -0.32310624       0.27587155       0.57366222       0.14097378       0.66281605       0.01978276      -0.10365932
F        5.79864866       9.37440810       6.79207694       0.15678052      -0.44819829       0.42419056      -0.57718158       0.93397087       0.23437564      -0.01381553      -0.21452257
F        4.86429843       8.03597584       5.38166613       0.32529739      -0.03490609      -0.14868022      -0.01469915      -0.14346550      -0.00778009      -0.00920501      -0.26613691
F        6.54647229       9.26498110       4.77007137      -0.24017826      -0.23330448       0.24166825       0.06742520      -0.59334034       0.10767967      -0.01084798      -0.20702972
C        7.45094818       6.46100735       5.40707826      -0.60510906      -0.16953086       0.79024572       1.29203987       2.07558465       1.34788787       0.02125622      -0.10246126
F        6.44036049       5.77179192       5.00626832      -0.05789708      -1.26658157       1.60167578      -1.39238298      -1.77320635      -0.87861580      -0.00359242      -0.25349778
F        8.40540227       5.65104544       5.92257102       0.37063463      -0.08063230      -0.16859511      -1.10414541       0.29786730      -0.62195724      -0.01166266      -0.23421621
F        7.95949848       7.13642127       4.35468080      -0.70265854      -0.36807357       0.79487974       0.20900032      -0.56606078       0.06666965      -0.01261294      -0.24004760
H        5.48606924       6.48385985       7.06803988      -0.00486186       0.00842649      -0.04086025      -0.15993422      -0.13822676       0.14637789       0.02752647      -0.02275009
H        7.79927853       8.06341245       6.78227745       0.07617319       0.06155593       0.07876146       0.70420343       0.26575777       0.63665265       0.01262236      -0.05070762
192
Lattice="14.05790476106759 0.0 0.0 0.0 14.05790476106759 0.0 0.0 0.0 14.05790476106759" Properties=species:S:1:pos:R:3:momenta:R:3:forces:R:3:charge:R:1:energies:R:1 Built=T with=T Packmol=T charge=0 spin=1 external_field="_JSON [0.0, 0.0, 0.0]" energy=-15.96865177154541 stress="-0.011170024052262306 -0.0031186987180262804 0.0028675056528300047 -0.0031186987180262804 -0.009801489301025867 -0.0019413807895034552 0.0028675056528300047 -0.0019413807895034552 -0.010610880330204964" dipole="0.5737344622612 0.16020695865154266 -0.0033148974180221558" free_energy=-15.96865177154541 pbc="T T T"
O       13.26987617       5.76587997       6.83129710      -0.99593537       0.60780979       0.23665090       0.80284470       0.13680007      -0.07147630      -0.02632233      -0.08451632
C       12.45828114       4.67022605       6.66522790      -0.79526421      -0.67426144       0.26622395      -0.79144830      -0.05625854      -0.84959644       0.01281677      -0.25932205
C       11.03732005       5.06535571       7.07132684       0.06359287       0.03026105      -0.11578626      -0.05793056       0.57787305       0.02896655       0.02313251      -0.10129987
F       10.62636206       6.19873853       6.47369568      -1.37963823      -0.96376362      -0.42552259       0.52231383      -0.85620123      -0.14635989      -0.01207150      -0.18713661
F       11.10809860       5.41057079       8.37601840      -0.54389528      -1.74839829       0.82458681      -0.49000302      -0.20486085       0.24971639      -0.00822015      -0.18976551
F       10.13455625       4.08268711       6.90882046       0.03233851      -0.28614293       0.10397376       0.36411223       0.67050022       0.11304266      -0.00914420      -0.25084707
C       12.95452141       3.44357124       7.45285808      -0.39972721       0.52425125      -0.51262952      -0.00539250       0.55365855       0.06067140       0.02398621      -0.13109390
F       13.20423053       3.75265367       8.74632001       0.29625217       0.01684828      -0.18087538       0.33113328       0.10139187      -0.81890368      -0.00816603      -0.22930969
F       14.06419738       3.01509634       6.88206346       0.61628509       0.37886987       0.17911502       0.47531459      -0.33624136       0.10876063      -0.00678751      -0.25763544
F       12.06558601       2.45065910       7.48146798      -0.75978939      -1.04363534       0.35822041      -0.17411995      -0.38427523      -0.23160222      -0.00799265      -0.26095951
H       13.16328371       6.13810991       7.70882893      -0.05880198       0.08266380       0.02484827       0.00764970       0.06710294       0.44268587       0.02302675      -0.05229852
H       12.47307563       4.43068061       5.58384221       0.02536534      -0.10381390       0.07589921      -0.06819523      -0.13651159       0.53836489       0.01434453      -0.04655962
O        1.91274321       9.00035082       2.17664377       1.18632135       0.12644513       0.07352568      -0.30347583       0.56265730       0.73651797      -0.02471024      -0.13692810
C        2.95236790       9.87843920       2.44282922       0.52328906       0.87321769      -0.24784282       0.74458414      -0.14673528      -0.06999713       0.01232779      -0.25499719
C        2.75135608      11.27195999       1.82193046      -0.96131601       0.42810050      -0.73247998      -0.80618674       0.77752817       0.18831721       0.02240715      -0.12898438
F        1.57374169      11.73637151       2.36526378       0.02615513      -0.51209693       0.45565576       1.08806789      -0.02986033      -0.17952730      -0.01328032      -0.24296597
F        2.57879906      11.35599574       0.51817235       0.40333303       0.11960441      -0.72402571      -0.05621986      -0.58334494      -0.69891447      -0.00948993      -0.21868674
F        3.76736414      12.12264632       2.08302044      -1.36072219       0.10263029       1.06387483      -0.58668149      -0.55524999       0.38690045      -0.00841632      -0.22509307
C        4.27687398       9.14287223       2.13549133       0.08536480      -0.10603889       0.56849732      -0.11125112      -0.24969247      -0.22669320       0.02194759      -0.14367463
F        4.28695099       8.74279776       0.83464870       0.19696318       0.03729782       0.68038819       0.03887845       0.02778875       0.65555888      -0.01123059      -0.25446376
F        4.33445863       8.04378697       2.91061840       0.63647005       0.26483404       0.50328613      -0.12891625       0.14826705      -0.52259594      -0.01095697      -0.24733922
F        5.38968117       9.82382315       2.34391043       0.43111761       1.02303983      -0.42410948      -0.07678343       0.25771475      -0.15378016      -0.01021148      -0.22305368
H        2.02749123       8.56650119       1.34086060       0.03358175      -0.11077304      -0.01053442       0.08149627      -0.34208044      -0.91507417       0.02267580      -0.06307529
H        2.91706271      10.08216922       3.50393697      -0.03529879      -0.07268782       0.09566842       0.17550470      -0.09021666       0.21439235       0.01147345      -0.03175183
O        7.47051292      12.10319431      13.44162797       0.27014821       0.21013137       0.10312373       0.02397898       0.03449979      -0.25667471      -0.02649255       0.00715625
C        7.94253233      12.33580401      12.16371107       0.05407097      -0.22709788      -0.04974407      -0.03927737       0.86873001       0.53755414       0.00894077      -0.28062257
C        9.34117445      12.96193031      12.24258487      -0.85036088       0.40873970      -0.16087304       0.14655013       0.28821051       0.65111572       0.02067271      -0.16366464
F       10.09856178      12.27484529      13.11808537      -0.10812638       1.36984392      -0.23083448      -0.37159207       0.58477855      -0.14612083      -0.01250473      -0.23073289
F        9.29563554      14.26504890      12.66902444       0.52797807       0.24969849      -0.60681659      -0.05938427      -1.09344244      -0.15486680      -0.01309231      -0.26550031
F        9.96194685      12.91032360      11.07191398       0.71983541       0.10827497      -0.60594715      -0.08715551      -0.18104191      -0.34039912      -0.01094647      -0.19297169
C        6.92816065      13.16587266      11.39519634      -0.18146486       0.05405932       0.22050309       0.01274522      -0.40225294       0.72971737       0.02165950      -0.13998728
F        6.68331594      14.31621741      12.04578442       0.28670010       0.13742105      -0.18573035       0.00375131       0.21665837      -0.29789412      -0.01004780      -0.26699066
F        5.78029567      12.49917164      11.33343279      -0.18224990       0.81219130       0.74682766      -0.63686007      -0.23669429       0.04057322      -0.01260969      -0.26852676
F        7.31810142      13.37651157      10.16390390      -0.10273964       0.86834536      -0.14785533       0.22078626       0.77692378      -0.63650739      -0.01065129      -0.22317274
H        7.06753595      12.89637030      13.79801956      -0.09146942      -0.01332772      -0.02436037      -0.07528837       0.36057350       0.12505233       0.02591804      -0.03096176
H        8.00462015      11.40533277      11.63146221      -0.13062518      -0.03352747      -0.19709032       0.30034640      -0.47238338      -0.17428190       0.00994433      -0.04287043
O       13.42940664       8.54109761       2.18940095      -0.85755834       0.26039520      -1.24172963      -2.85580182      -0.72067291      -0.60312724      -0.03247940      -0.14784582
C       12.20153675       8.64691634       2.88741911       0.64161934       1.05163647      -0.85078367       0.02977549      -0.45020366      -1.99622273       0.01080150      -0.19075361
C       12.22757511       9.73576239       3.86365166       0.14389083      -0.68149207      -0.79112612      -0.66591877       1.32914948      -0.10688507       0.02209213      -0.11101595
F       12.60732099      10.90180643       3.31669811       0.14513419       1.06428780      -0.91853202      -0.21498460      -0.23117235       0.20869410      -0.01004409      -0.25715476
F       13.07537814       9.47070459       4.83231350       0.48976729      -0.06033350      -0.43758093       0.71295220       0.23023064       1.17388713      -0.00975002      -0.23790747
F       10.97605545       9.83536044       4.36199755       0.91357643       1.07676934      -0.65840004       0.78649259       0.67562205       0.14101487      -0.01116851      -0.15376197
C       11.79328848       7.36589609       3.62855753       0.24581407       1.53486286      -0.70991499       1.32384384       1.36652184       0.22514367       0.02181967      -0.11768094
F       12.65389417       7.04951846       4.61990538      -0.78260780       1.00625092      -0.28488705      -0.48797691      -0.07515190      -0.35798287      -0.01167318      -0.25110993
F       11.82731650       6.39523145       2.76571341      -0.26090659      -0.93791269      -0.06109956      -0.11656185      -1.63788545      -1.15917432      -0.00687518      -0.21255921
F       10.57923431       7.49498953       4.11704976       1.12957438       0.55515671       0.11875870      -0.70197093      -0.54302967       0.33975363      -0.01114838      -0.20302376
H       14.11304009       8.75096124       2.78491106       0.07368711       0.21966612      -0.14658300       1.92047060       0.39989954       1.02813005       0.02187760      -0.02422233
H       11.37978009       8.88661117       2.15646658      -0.19996267      -0.17891316       0.03362533       0.78813398      -0.36570424       0.51995075       0.01271051      -0.04599056
O       10.53051217       4.85388305       0.63926344       0.69603325      -0.24040148       0.90089089      -0.49486718      -0.04244997      -0.11737188      -0.02712512      -0.04687210
C       10.28796706       3.69033864       1.38363216       1.05936598      -0.79214792       0.02346946      -1.58936977       0.53051150      -0.32687590       0.01123030      -0.19990967
C        9.27595406       4.01676557       2.46985679       0.36105425      -1.03304199      -0.33714928      -0.11129953      -0.95140815       0.07329176       0.02223127      -0.15907322
F        8.14477320       4.44423508       1.88692868       0.62349119      -0.39408492      -0.48279733       0.12281188      -0.02145746       0.27964947      -0.00954551      -0.27543870
F        9.70159281       4.95124222       3.30811874      -0.54443196      -1.21295681      -0.73319984       0.04449436       0.47253579       0.24787757      -0.00802691      -0.25850323
F        8.99908385       2.92372430       3.20092660      -0.06002555       0.15135844      -0.78022068      -0.28317389       0.12083042      -0.07066726      -0.00984020      -0.26029536
C       11.56929976       3.05826584       1.79100273       0.98338890      -0.60882445       0.53863515       0.19775862       0.06239504       0.30060261       0.02177737      -0.16681141
F       12.35525388       3.94316289       2.38060900      -0.18126242      -0.58582090       0.10684533       0.74047661       0.33231032       0.72807878      -0.00854470      -0.26193309
F       12.17127667       2.66048663       0.68888411       0.25387335      -0.80964610      -0.68967284       0.57703596      -0.65310484      -0.22432385      -0.00898306      -0.20166546
F       11.39920949       2.01928196       2.60547745       0.56686785      -1.16707858       0.07426555       0.13643420      -0.21950927       0.15709899      -0.00862828      -0.25724632
H       10.68504899       5.61850202       1.22042858       0.20805725       0.18227056      -0.36220483       0.03423483      -0.48855489      -0.03642766       0.02315708      -0.06651310
H        9.78031371       2.90655781       0.79405109       0.11337225       0.03203010      -0.16050822       0.11203907       0.54972804      -0.28345147       0.01383860      -0.02883665
O        8.54481803       7.10326396      11.64342260       0.06169143      -0.04168537       0.32495849      -0.05837006       0.04252240       1.57978034      -0.02927857      -0.01487884
C        8.34122668       8.44695169      11.99319645       0.57310110       0.22880992       0.20341877      -0.64668965       0.00474106      -0.32587621       0.00925669      -0.27470714
C        9.03336804       8.75259624      13.30061511       0.31523142      -1.14782676      -0.09536917       0.46787515      -0.75325066       0.34459347       0.02144817      -0.13525026
F       10.34648641       8.47922835      13.20534092      -0.08056505       0.35026326      -0.46303460       0.05576146      -0.13134626       0.11682264      -0.01289528      -0.23486730
F        8.58675624       7.94323027      14.28255961       0.31226136      -0.19867381      -0.06174271      -0.16982092      -0.14077817       0.18613470      -0.01085499      -0.28205073
F        8.88283492       9.98948525      13.69542538      -0.19242691       0.35201588      -0.86785693       0.08156079       0.53409380       0.14647718      -0.00842578      -0.20480567
C        6.82716180       8.79246376      12.07966041       0.47697637      -0.00548671      -0.50853111      -0.21344167       0.05447237      -0.43550274       0.02140378      -0.04928204
F        6.29643798       7.97468495      12.99474197      -0.14784466       0.29305569      -0.86655801      -0.28656319      -0.44745797      -0.81815732      -0.01078746      -0.18458135
F        6.27513308       8.75744889      10.81731019       0.10194522      -0.38616303       0.73394758       0.45722151      -0.95139802       1.09599340      -0.01540648      -0.20464779
F        6.49315121      10.01121997      12.47849322       0.75817379       0.41824452      -0.22739011       0.55012727       0.41069528       0.41593015      -0.00980714      -0.15131468
H        8.70047936       6.58054180      12.47501163       0.13575268       0.02668815      -0.13907818      -0.28305361       0.57509971      -1.08634424       0.02481663      -0.03084899
H        8.76066772       9.06626682      11.20871136      -0.01327286      -0.03383615      -0.07985321       0.16680206       0.19555065      -0.07638894       0.01155663      -0.05056230
O        4.03778893       1.37916875      12.05174554      -0.82360986      -0.54396089       0.11465653      -0.38170576      -0.81712210      -0.04363956      -0.02461662      -0.08825676
C        2.84563928       1.73416878      11.45332291      -1.18525076      -0.78359868       0.24961969      -0.17674445       0.28137651      -0.91333133       0.01390916      -0.25877166
C        2.94557906       1.61107622       9.90342808       0.15648306       0.07288105      -0.28874293      -0.18503906      -0.08128896      -0.41285631       0.02262234      -0.13644236
F        3.49564174       0.44134522       9.58248057      -0.16783943      -0.30344866      -0.07831564       0.20204715      -0.09073281       0.18760774      -0.01136430      -0.24039498
F        3.74293374       2.55912631       9.31803644      -1.07952234       0.40798105      -0.78982661      -0.84180558      -0.59628528       0.34685683      -0.01065513      -0.25731319
F        1.71040273       1.62873803       9.33837375       0.34117382       0.46936589      -0.00274938       0.99260944       0.72203493       0.32176420      -0.01221896      -0.22385085
C        2.33967927       3.11695785      11.85371642       0.27993134       0.08674394      -0.02840275       0.99007553       0.02895109      -0.18318532       0.02347638      -0.11006846
F        3.13104425       4.06796098      11.23798594      -1.17288446       0.06426603       0.02504152      -0.69874620      -0.47838369       0.75687873      -0.01127238      -0.24283031
F        2.41165884       3.27767695      13.17130885       1.00708718       0.97312830      -0.56057730       0.55734563      -0.10743799       0.19523557      -0.00751420      -0.23798954
F        1.08921951       3.28612272      11.51349880      -1.02500866       0.43568376      -0.13091171      -0.69565433       0.23429707      -0.69739085      -0.00994494      -0.22568078
H        4.56475689       2.14524644      12.20150072       0.10128248      -0.04730142       0.25545274       0.82840598       0.95003253       0.22505167       0.02396120      -0.03712068
H        2.08264634       1.03789377      11.75815070      -0.21753656      -0.02444498       0.05708875      -0.32778510      -0.44322172       0.08204982       0.01618861      -0.04031917
O        2.33980267       6.83538111      10.67802631      -0.18862675      -0.68001866       0.32183944      -0.20621081       0.42462620       0.11009465      -0.02979105      -0.11712277
C        2.06479531       7.51103583      11.86499823       0.04872693       0.34016184       0.59808287      -1.73736131      -1.37243474       0.19281401       0.00767056      -0.23372968
C        2.78363081       8.78567288      12.09445205       0.45551490      -0.54949100       0.73405776       0.46623164      -0.44128138       0.59847802       0.02032645      -0.12650755
F        2.60622844       9.72879585      11.20362673      -0.00044739       0.42783718      -0.07115084      -0.18760626       0.51256090       0.10351837      -0.00919158      -0.17597994
F        4.09666209       8.59025167      12.18075873      -0.05961765      -0.02823100      -0.43104365       0.21031746      -0.02016432       0.11043916      -0.01029121      -0.22164595
F        2.32597870       9.18071996      13.28911145      -0.77723680       0.81845978       1.13027760      -0.10817441       1.06017017       0.23463872      -0.00947420      -0.18391068
C        2.27605194       6.49251259      13.04654197      -0.14393960       0.54069468      -0.18621611       0.03985434      -0.25219402      -0.27428681       0.02259876      -0.07276702
F        3.53571349       6.00609129      12.98270748       0.07609126       0.08143553       0.39040195      -0.75642329       0.00890544       0.25262254      -0.01075816      -0.24670784
F        1.37537259       5.51128013      12.82161039      -0.70211032      -0.40260408       0.37657014       0.48189238       0.50296259       0.26287219      -0.01193012      -0.20038481
F        2.08365258       6.86878201      14.34003914       0.38182678      -0.20830667       1.15726362      -0.03159610       0.14120607      -0.91351044      -0.00635413      -0.24605075
H        3.28622377       6.69603331      10.57366607      -0.03455061      -0.23462531      -0.12664100       0.25481424      -0.06323502       0.08650327       0.02114495      -0.06855169
H        0.96794623       7.75256805      11.85731953       0.24819748       0.01116871       0.01381235       1.28739154      -0.35764343       0.10041682       0.00903725      -0.00245603
O        4.06325033      13.64548068       6.85295668      -0.40407761       0.82505130       0.25336269       0.39899638       0.07848033       0.20570253      -0.02485566      -0.04877930
C        4.66415328      12.46527108       6.40704639      -0.47889654       0.22674043       0.16353793      -0.55427158      -0.21398991      -0.17572764       0.00956527      -0.24160515
C        6.18449495      12.59191954       6.44238922      -0.31800777       1.30536221       0.79452064       0.02225738       0.68196100       1.13185167       0.02146638      -0.07252610
F        6.49057880      12.61564528       7.76523020      -0.48215269      -0.14164670      -0.54744986      -0.30749494      -0.43359056       0.08069862      -0.01437445      -0.19268321
F        6.73230019      13.73809069       6.01094658       0.00886580       0.13542479       0.92305323      -0.45722389       0.40365520      -0.78824651      -0.00859411      -0.26733637
F        6.78725356      11.60535688       5.84499191      -0.55877950       1.25009511       0.36839609       0.49436280      -0.49399477      -0.14224426      -0.00824253      -0.18199243
C        4.16372076      12.18011735       4.96565201       0.14655217       0.28296480       0.25841697       0.07109775       0.01518522      -0.36985537       0.02223563      -0.05787116
F        4.65307441      13.18658999       4.20396462       1.33719775       0.76169055      -0.47686263      -0.59555620      -0.55331033       0.47858047      -0.00941190      -0.16001821
F        2.83019030      12.11817059       4.68107315       0.50658727       1.51184582      -0.49793752       1.11560833       0.31746691       0.88173336      -0.01012222      -0.19757448
F        4.64769877      10.96529684       4.57997513      -0.45361395      -0.29388544       0.37854891      -0.35341778       0.95263356       0.19974710      -0.01185286      -0.16676414
H        4.73546906      14.30860917       7.06607525      -0.14264656      -0.01806417       0.33855108      -0.06110299      -0.13288529      -0.07206238       0.02567270      -0.03712246
H        4.51178361      11.57128069       7.07868103      -0.06404647       0.15062728      -0.12204935      -0.19966424       0.94284588      -0.83016479       0.01005748      -0.03057477
O       11.68860766      12.95061562       8.53688731      -0.30019745      -0.58806171       1.48938649      -0.92397642       0.43715373      -0.72305626      -0.02693859      -0.02887598
C       10.80088446      11.89398263       8.27215815       0.34349899      -0.33004991       0.10187026      -0.61843348       0.63608134      -0.71032971       0.00918822      -0.27756763
C       11.41713293      10.93618119       7.25213611      -0.08546634       0.30700824       0.78599513       0.10095055      -0.34621626       0.54218215       0.01823999      -0.16666770
F       12.57113850      10.40782314       7.66327943       0.21518630       0.16650364      -0.05554759      -0.20457040      -0.01043454      -0.25271615      -0.01284202      -0.09458153
F       11.68388981      11.60861167       6.13960607       0.29576380       0.21495781       0.22311239       0.11951454       0.00974624      -0.49677503      -0.00940655      -0.23778689
F       10.61022138       9.89415206       7.01503487       0.44727702       0.44617665      -0.30152863      -0.31352785       0.26253697      -0.45839435      -0.01373940      -0.22896987
C        9.40018969      12.33299939       7.72371728      -0.91398899       0.86344924       0.06951169       0.66737831       0.49335888       0.00137783       0.02186401      -0.11323603
F        9.42608651      12.68289550       6.42581289       0.86594178       0.36405854      -0.61875768       0.14453639       0.25778928       0.06487573      -0.00929500      -0.22613624
F        8.96724116      13.42331864       8.39649865       0.73250507      -0.45873929       0.18841332       0.26251465      -0.96929747      -0.40678766      -0.01176074      -0.22179182
F        8.54508603      11.30623740       7.79898652      -0.17850353      -0.11511718       1.39883229       0.24263678       0.21557276       0.73329568      -0.01199149      -0.20439708
H       11.62790471      13.63562677       7.82916516       0.01256839      -0.01013680       0.28585290       0.04292532      -0.72093195       0.65355784       0.02626342      -0.04786187
H       10.55815763      11.36784899       9.18537275      -0.22546453      -0.01461586       0.04461485       0.24767023      -0.07193688       0.22800593       0.01002596      -0.05425975
O       14.14470256       8.74706671      10.34651673       0.35589527      -0.12083953       0.38809241      -0.46758378       0.92094499      -1.30311799      -0.02566826      -0.05707929
C       12.88282392       8.85393390      10.91768031      -0.06835377      -0.44013453       0.03686037      -0.22805408       0.48622492      -0.69449198       0.01077969      -0.22546829
C       11.87741492       8.11497107      10.01150079      -0.50930924      -0.21293033      -0.30094165      -0.06433479      -0.28529295       0.77287459       0.02088644      -0.09250144
F       12.36717523       6.87453928      10.04070127       0.83528685      -0.45883615      -0.21840424      -0.20453912      -0.36296150      -0.42006552      -0.01178412      -0.17612797
F       11.76842222       8.44535192       8.72798002       0.46005821      -0.26794621      -1.18489102       0.16242616       0.10694273       0.50085449      -0.00949063      -0.21891648
F       10.64256260       8.11289319      10.54266309       0.45854178       0.53284128      -1.09779563       0.44685885       0.09103713      -0.45830703      -0.01168722      -0.22990344
C       12.57905058      10.28484752      11.37081951      -0.44955055      -0.13091438       0.16378462      -0.56712532       0.09334673       0.30243543       0.02155774      -0.13506524
F       12.43136136      11.16817510      10.35273177      -0.00946637       0.66544536       1.05201644       0.48335534      -0.65022737       0.84160304      -0.01019177      -0.20256490
F       13.55608982      10.66370344      12.20625436       0.54778389      -0.39967337      -0.33999688      -0.46946156       0.16486044      -0.30546200      -0.00971761      -0.23053566
F       11.42366509      10.33344409      12.05780236       0.98485156      -0.37347662       1.34188403       0.32240102       0.01706760      -0.28422520      -0.01083409      -0.21333902
H       14.14688157       9.30392664       9.52628963      -0.07328904      -0.04554133       0.18077327       0.12794481      -0.75233829       0.91601521       0.02283315      -0.03363020
H       12.88399325       8.24445254      11.81341155       0.16947329      -0.17858670      -0.03895661      -0.09329697      -0.01341301       0.38264158       0.01380101      -0.02009071
O        2.19517258      12.07038501       7.13903732       0.04807040      -0.26690415       0.07528987      -0.52500683       0.16262479      -0.22112817      -0.02339783       0.03857383
C        2.25085806      11.40342719       8.35568065      -0.28330129       0.69460533       0.15328966       0.23850018       0.10487780      -0.42865491       0.01353198      -0.19828218
C        2.19492551       9.90026906       7.93485702       0.13746375      -0.12342662      -0.61362416      -0.99416053       0.40908188      -0.07614390       0.02427385      -0.04859488
F        3.12360125       9.54620173       7.06134087       0.82461537      -0.25618670       0.16197034       0.62263519       0.40482751       0.12711881      -0.00874581      -0.24511549
F        1.01782128       9.73596774       7.22190491      -0.89270597       0.09293487       1.21713704       0.37475991      -0.40144113       1.03990543      -0.01285646      -0.24942379
F        2.26109209       9.06349767       8.96054665      -0.46099852       0.05588138      -0.16313301      -0.38142610      -0.16756593      -0.63990581      -0.00760287      -0.16943872
C        1.07001971      11.94685685       9.20223262       0.03607820       0.23064478      -0.55892741       0.61599231       0.29801798       0.07643170       0.02152613      -0.10752003
F       -0.02924388      11.86245419       8.48742957      -0.93046505      -0.92625374      -0.70202458      -0.08223166      -0.03272281      -0.13719098      -0.00937397      -0.11625807
F        1.17018577      13.25353469       9.51852761      -1.00446244      -0.21028686       0.73843784       0.57825285      -0.83822280       0.01891384      -0.01313851      -0.24768722
F        0.93266008      11.25435335      10.33491193      -0.70029868      -0.02881463       0.13947336       0.15449642       0.39373767      -0.16487034      -0.00907918      -0.17471242
H        1.37728607      11.80808086       6.67114175       0.05025679       0.11943075      -0.01485617       0.43355766       0.19203052       0.28645638       0.02745380      -0.02674367
H        3.20529940      11.62010515       8.88152585      -0.03720255      -0.07532375       0.02618262      -0.48301235      -0.08328696      -0.36945856       0.01323031      -0.05674485
O        8.80889228      10.99820484       4.01493703      -0.04655713       0.58275739      -0.43267451      -0.20436610       0.32389975       0.28648362      -0.03031558      -0.06003620
C        8.69982590      12.28088247       3.48625348      -0.06369978       0.29341823      -0.21661322      -0.79850745       0.64598554       0.85297573       0.00893789      -0.25584513
C        7.51405462      12.29065553       2.53015544      -0.19455096      -0.33896325      -0.50978710      -0.45581555      -0.45226014       0.22577614       0.02181331      -0.16577239
F        6.41035818      12.04548755       3.24148396       0.44515133       0.26649141      -0.27868217       0.54440278       0.16569437      -0.39529085      -0.01052869      -0.15455472
F        7.61097577      11.29931370       1.63613696      -0.26461854       0.05435115      -0.59008518       0.24031301       0.05452429       0.32052901      -0.01195714      -0.18035439
F        7.32473134      13.44828057       1.87378662      -0.33840584      -0.24950611      -0.07400971       0.04756339       0.00930504      -0.00271968      -0.00916140      -0.28026155
C       10.00342437      12.71442488       2.86616143      -0.22770220       0.21449633      -0.29389691      -0.48172876       0.29216015      -0.01976631       0.02104244      -0.17363816
F       10.45063325      11.79047161       2.01871514       0.57592782      -0.11540651       0.17484367       0.27398029      -0.37035614      -0.43312871      -0.00921465      -0.27817467
F       10.88467190      12.88580125       3.83129223      -0.22015396       0.54664678      -0.63517999       0.77858484       0.14885458       0.40253484      -0.01031539      -0.24216178
F        9.89049051      13.86375764       2.20112570       0.41196048      -0.90537597      -0.94537725       0.00559980       0.26318079      -0.24590272      -0.01105811      -0.25284791
H        9.06736219      10.39695125       3.30966514       0.00644951       0.00956849      -0.03752258      -0.01852043      -0.13941067      -0.09132143       0.02528444      -0.03208536
H        8.46777139      12.99786472       4.32994904       0.18373464      -0.06518858      -0.09821503       0.23341221      -0.81079370      -0.99094379       0.01188619      -0.05493858
O        6.98902604       3.89931018       8.91212460      -0.07310086      -0.55561052      -0.28233346       0.30521625       0.48250708       0.61156762      -0.02922665      -0.12387630
C        6.44183316       4.30210470      10.15742940      -0.02270589       0.27534685      -0.22519406      -0.15222614      -1.43713915      -0.47888333       0.01164287      -0.24718034
C        5.96388127       5.75180267      10.12959678       0.27172587      -0.93779492       0.11922654       0.18773103      -0.46041220       0.59870708       0.02135208      -0.15676999
F        4.90969045       5.89720754       9.31983506       0.50807723      -0.39330498       0.42194326      -0.34742492      -0.24939813      -0.42714524      -0.01007586      -0.23789352
F        6.93453300       6.53517441       9.77109580      -0.93185236      -0.41156403       0.50300761       0.69861096       0.52794987      -0.52163869      -0.01096594      -0.12296122
F        5.52683722       6.15988848      11.32626989      -0.82352150       0.06037924       0.31812789      -0.14667758      -0.21385020       0.43445727      -0.01121452      -0.23322660
C        7.46763394       3.98901282      11.24520961       0.56450915      -0.73936067      -0.47331992       0.38822278      -0.28550753      -0.57215565       0.02401841      -0.11149072
F        8.61215858       4.63925126      10.99425366      -0.42569468      -1.20782077      -0.20852698      -0.64200032       0.19895840       0.30079797      -0.00927677      -0.11348066
F        7.80650901       2.66387448      11.28291241      -0.36169443      -0.53292065      -0.49097788      -0.66871178       0.88496619      -0.03551209      -0.01323437      -0.27089357
F        7.02745924       4.34349990      12.43670281      -0.28107448      -0.49625568       1.25531694      -0.05461669      -0.07913256       0.81861913      -0.00854591      -0.27490205
H        7.95472494       4.09620615       8.93357264      -0.02454327      -0.23553717      -0.13262718      -0.78162682      -0.11853082      -0.17334123       0.02321116      -0.05376580
H        5.54819719       3.69242906      10.37668045       0.05033692      -0.12278926      -0.21459850       0.31791088       0.09488367      -0.25999549       0.01136409      -0.05556574
O       10.46741815       3.53170738       9.98214528       0.89672809      -0.60016688       0.86008307      -0.50909567      -0.97679138       1.54451978      -0.03235968      -0.07747585
C       10.92680767       3.28566265      11.31088934       1.00726491       0.90004863       0.09778778      -0.40781772      -0.52255094      -0.90309298       0.00823941      -0.23984128
C       11.66325210       4.53293667      11.74188988       0.10255295      -0.83181077       0.43203116       0.97544569      -1.20606852       1.07713425       0.01920399      -0.13717994
F       10.88375315       5.58858189      11.72755254      -0.47120119       0.17837363      -0.15189060      -0.43718091       0.63811386       0.14216119      -0.01165134      -0.24085149
F       12.65156333       4.68478111      10.88612280      -0.18014321       0.10444026      -0.52758116       1.02735245       0.57118094      -0.91263372      -0.01080429      -0.14900368
F       12.26662943       4.45394117      12.93474969      -0.63054535       0.77035478      -0.14785678      -0.17597817      -0.06191593      -0.07311913      -0.01234740      -0.19115147
C       11.72711933       1.97248341      11.28940748      -0.05193383       0.17001451       0.20242600       0.18633267      -0.12046517       0.79632890       0.02074378      -0.14654422
F       12.73807453       1.92365666      10.45866155       1.05743114      -0.06909518      -0.66965583       0.97553289       0.49735966      -1.00893712      -0.01062170      -0.22480872
F       10.90231419       1.00447528      10.88229369       0.35206991      -0.13579825       1.19541988       0.05831372       0.27992445       0.49153972      -0.01245256      -0.19465388
F       12.27494276       1.69454604      12.50243084      -0.33476019       0.31579629      -1.64285157      -0.92433226      -0.21508420      -0.42668343      -0.01191790      -0.24595843
H       11.24862139       3.74793413       9.50301027       0.14737050       0.05578475      -0.08297016       0.90608728       0.24729152      -0.80352199       0.01945666      -0.02750974
H       10.08842901       3.08313616      11.96032207      -0.03670146      -0.14791423      -0.04102233      -0.29388207       0.08434653       0.09211902       0.01043855      -0.05580904
O        6.21884114       6.95431952       7.47975586      -0.45542936       0.33776010       0.15330612       0.30939746      -0.28574780      -0.77353168      -0.02659059      -0.03856321
C        6.96253346       7.50126424       6.43363864       0.22960790       0.04632174      -0.36314789       0.43994418       0.51571232       0.45414838       0.01211112      -0.23822580
C        6.04243741       8.53595562       5.78386495       0.26959204      -0.11059853       0.48186825       0.33608198       0.71501154       0.07905174       0.02049378      -0.12452799
F        5.79914996       9.36841908       6.80458448      -0.11150055      -0.02700758       0.53632262      -0.48653707       0.77299166       0.15234691      -0.01394181      -0.21564396
F        4.87252240       8.03377546       5.37809114       0.31285186      -0.14604077      -0.10820891       0.01226312      -0.26786438       0.22475959      -0.00907837      -0.25922662
F        6.54084523       9.25514228       4.77737935      -0.18307680      -0.52162991       0.33338849       0.20838928      -0.50306022       0.21903129      -0.01104927      -0.20747727
C        7.44056401       6.47097290       5.44894793       0.08485374       0.50217551       1.10329316       1.13106680       0.22423472      -0.47562093       0.02197282      -0.14493006
F        6.43063291       5.72855604       5.04330486      -0.62742729      -1.99009644       1.30787964      -0.59841549      -0.72680819      -0.32677412      -0.00515494      -0.27381349
F        8.40756757       5.65120029       5.91489566      -0.21296662       0.10684258      -0.38888274      -1.18434060       0.44987068      -0.17776646      -0.01165072      -0.21447988
F        7.94194849       7.12329265       4.37609231      -0.66754129      -0.63557982       0.86364627       0.04724012      -0.41577643       0.09211101      -0.01259212      -0.23458436
H        5.47725918       6.47897018       7.07562554      -0.01418349      -0.01826662       0.07938394       0.00830684      -0.03852927       0.20503476       0.02747752      -0.02640425
H        7.83727606       8.06999551       6.84951833      -0.05469212      -0.11753786       0.10649419      -0.73212194      -0.60986614      -0.36119461       0.01293857      -0.05297858
192
Lattice="14.05790476106759 0.0 0.0 0.0 14.05790476106759 0.0 0.0 0.0 14.05790476106759" Properties=species:S:1:pos:R:3:momenta:R:3:forces:R:3:charge:R:1:energies:R:1 Built=T with=T Packmol=T charge=0 spin=1 external_field="_JSON [0.0, 0.0, 0.0]" energy=-15.430459022521973 stress="-0.013172967359423637 -0.0024988853838294744 0.0008525550365447998 -0.0024988853838294744 -0.010384215973317623 0.001251090201549232 0.0008525550365447998 0.001251090201549232 -0.011593216098845005" dipole="0.7174371480941772 0.21983465552330017 0.11588297039270401" free_energy=-15.430459022521973 pbc="T T T"
O       13.24359307       5.78450605       6.83975148      -0.76285223       0.55931001       0.34718398       0.24858162      -0.48649928       0.16255543      -0.02677998      -0.05215835
C       12.42186162       4.64839100       6.67018476      -0.87829858      -0.25257702       0.05212238       0.50338876       1.55257571      -0.11456323       0.01452975      -0.26796079
C       11.03570313       5.06990717       7.06862375      -0.21655904       0.12578586       0.02577844      -0.91866553      -0.22329558       0.53075939       0.02388636      -0.11419653
F       10.59453618       6.16865105       6.46235990      -1.05610019      -1.32995782      -0.42959807       0.81784523      -0.43705893       0.11533490      -0.01009150      -0.18604927
F       11.09101122       5.36459573       8.39763548      -0.76941845      -1.76944465       0.79600925      -0.38477263       0.25310639      -0.36334011      -0.00800549      -0.18844591
F       10.13745750       4.07913234       6.91201333       0.17424990      -0.00941953       0.13337731       0.13815196       0.40346751      -0.00385558      -0.00993197      -0.24725929
C       12.94015791       3.46307693       7.43706944      -0.25237470       0.26063460      -0.15657055       0.57997197      -1.42798543       1.26637387       0.02480940      -0.13167194
F       13.21337966       3.75390345       8.73539634       0.38607502       0.08642529      -0.69032136       0.02396982       0.17418960      -1.10820472      -0.00822408      -0.21073200
F       14.08091181       3.02381563       6.88750216       0.58819050       0.33010944       0.24156139      -0.57736880       0.07220089       0.10388824      -0.00758031      -0.25446749
F       12.04672938       2.42351712       7.48885762      -0.62541291      -0.96585290       0.19650518       0.70049959       0.68571168      -0.42537931      -0.00994742      -0.25487629
H       13.13611074       6.16242066       7.73112433      -0.05149206      -0.02206542      -0.00193085       0.00555399      -0.32215226      -0.21328683       0.02308771      -0.06155898
H       12.47187895       4.36609451       5.63448113      -0.03829097      -0.15261423       0.01867051      -0.16870593       0.01029094      -0.62661237       0.01560851      -0.04482995
O        1.94662382       9.00479753       2.17836896       0.99805392       0.07276104      -0.10036417      -0.59467506      -0.33643764      -0.62191033      -0.02422084      -0.13518094
C        2.97899492       9.90994078       2.43614335       0.71427916       0.59658638      -0.03274846      -0.03212366      -0.98616362       0.40724012       0.01203148      -0.20967788
C        2.70939067      11.29432270       1.79803186      -0.93895581       0.57122787      -0.35314186       1.00879216      -0.35619590       1.14794290       0.02269183      -0.13319111
F        1.57930734      11.72352344       2.37536468       0.31162732      -0.44941403       0.30802103      -0.03845726       0.35260901      -0.38494477      -0.01005302      -0.25380245
F        2.58819473      11.35609819       0.49452805       0.29551540      -0.08347035      -1.09950879      -0.38487610      -0.23566169      -0.60233641      -0.00839481      -0.22889800
F        3.72837097      12.12272533       2.11239528      -1.63903826      -0.05339408       1.17566720      -0.37559471      -0.02871016      -0.00687478      -0.00953522      -0.23033234
C        4.28151870       9.13963381       2.15471446       0.19295037       0.03175332       0.32707923       0.49242043       0.74187338      -0.75080252       0.02188617      -0.15257908
F        4.29226731       8.74356719       0.85623597       0.21223353       0.00620420       0.96697715       0.01512904      -0.16141950       0.37633851      -0.01140703      -0.25315171
F        4.35019744       8.05167235       2.92084815       0.57984031       0.34439330       0.30609650      -0.13706623       0.14447349      -0.29785588      -0.00944701      -0.24834281
F        5.39972186       9.85116405       2.33219112       0.32156846       1.05580876      -0.46877817      -0.35408664      -0.17063870       0.01220433      -0.01163599      -0.23250929
H        2.04767276       8.52889471       1.32564591       0.04243637       0.04452351       0.09402296       0.03985620       0.52745044       0.51789117       0.02314279      -0.06976852
H        2.92636775      10.04964491       3.52157604       0.07813793      -0.02691753      -0.07701044       0.21791032       0.31061307      -0.35466176       0.01156385      -0.02842305
O        7.47826596      12.11125532      13.44351133       0.20575696       0.35657639       0.04241710      -0.23974369       0.38530648      -0.04958777      -0.02549093       0.02789492
C        7.94202562      12.33139166      12.16271495      -0.11480091      -0.04888149      -0.07919380      -0.44978830       0.26720673      -0.33902884       0.00930795      -0.27389783
C        9.31441998      12.98014486      12.23985889      -0.31899829       0.44303989      -0.04081787       1.76892352      -0.17900118      -0.17020991       0.02092817      -0.15863273
F       10.09292310      12.31382815      13.11120972      -0.33536656       1.61798104      -0.28998007      -0.44451463       0.24090156      -0.00794946      -0.01292035      -0.22499543
F        9.30793473      14.26542448      12.65220342       0.38449997      -0.17410439      -0.68989401      -0.51990455      -0.51519847      -0.10193899      -0.01152021      -0.25442234
F        9.97832841      12.91202688      11.05561033       0.48292007       0.02417302      -0.59741297      -0.84426266      -0.17016609       0.34576100      -0.01338148      -0.19230077
C        6.92214439      13.16537595      11.40911251      -0.09020708      -0.04140120       0.38159263       0.27135962       0.04923184      -0.20169196       0.02162869      -0.15176654
F        6.69076603      14.32172297      12.03966594       0.28846691       0.30458215      -0.26277180      -0.00767496       0.40187702       0.00164741      -0.00959374      -0.26112494
F        5.77118945      12.51846244      11.35288854      -0.52520711       0.66804501       0.74724956      -0.65911514      -0.37225547      -0.09084950      -0.01180793      -0.26628634
F        7.31626350      13.40333826      10.15742981      -0.06342585       1.17210382      -0.28796873      -0.06657571       0.35111585       0.13721821      -0.01234502      -0.24155420
H        7.02966567      12.90313715      13.78525756      -0.03203897      -0.01687322      -0.05522032       0.22289810      -0.18886164      -0.13441613       0.02653437      -0.02801181
H        7.98353928      11.39561197      11.56575703       0.05218646       0.08212372       0.00646823       0.38839856       0.45499071       0.68347001       0.01030146      -0.04138682
O       13.39528732       8.54747256       2.15302991      -0.94891840       0.25610291      -1.01639739       1.64649451       0.29428667       0.39841187      -0.03225832      -0.11624441
C       12.22491726       8.67939011       2.83515816       0.48833426       0.43055402      -1.51849596      -0.26174414      -1.64194417       0.13433665       0.01134734      -0.21189223
C       12.22933785       9.73007901       3.83397579       0.01636528       0.54589966      -0.58695358       0.22298047       2.97769737       0.73222721       0.02252673      -0.09685807
F       12.60981284      10.92603534       3.29467590       0.05673738       0.75576675      -0.76773572      -0.10052283      -0.87104094       0.40993002      -0.01178053      -0.25037837
F       13.09156217       9.47062544       4.82621390       0.71257574       0.06113653      -0.12231023       0.12009952       0.31104070       0.11366051      -0.01092905      -0.24466079
F       11.00448538       9.86678527       4.34541567       1.25491065       1.32288155      -0.62904031       0.40365368       0.29636011       0.08340205      -0.00975193      -0.15751824
C       11.81618311       7.43118775       3.60198449       0.82374484       1.36593264      -0.57012701       0.69387293      -2.09205675       0.45081672       0.02157922      -0.11439414
F       12.63141827       7.07588834       4.60982777      -0.90579250       1.05363359      -0.50382389       0.12559293       0.16170782      -0.45622534      -0.01201609      -0.22975732
F       11.82003782       6.36502062       2.75885635      -0.28793364      -1.22208231      -0.39108323       0.05648676       0.47367653      -0.21874042      -0.01117591      -0.24384493
F       10.60379931       7.50734545       4.12141816       0.77228762       0.45223778       0.17524117      -0.67110729       0.08264234      -0.19052610      -0.01170488      -0.19975948
H       14.19955374       8.85234008       2.69227744      -0.02380670       0.09756793      -0.44153580      -1.25578022      -0.57900524      -1.11197436       0.02330418      -0.03776532
H       11.36762312       8.79271578       2.20119323       0.04782573      -0.12240366       0.01891253      -0.30464157       0.58941555      -0.91219926       0.01359012      -0.02365782
O       10.54815398       4.84350246       0.66164961       0.45471200      -0.44872519       0.46819270      -0.43208072      -0.12946565      -1.16841769      -0.02797823       0.06380822
C       10.31590373       3.66685524       1.38212748       0.35193976      -0.28445560      -0.08002431      -1.06761241       1.31637883      -0.15943906       0.01114503      -0.22856286
C        9.28921655       3.96935654       2.45497606       0.26861719      -1.15054488      -0.42500467      -0.33576471       0.65096146      -0.32974982       0.02154592      -0.16523011
F        8.16193710       4.43320840       1.87544242       0.70262615      -0.48107705      -0.43135506       0.10177279      -0.28443572      -0.03575977      -0.01128893      -0.27620113
F        9.68853392       4.92288426       3.29095130      -0.43363879      -0.97802837      -0.58579562       0.42707396       0.49872524       0.35327780      -0.01027244      -0.25618720
F        8.99517056       2.92548969       3.18151788      -0.26337217      -0.13259150      -0.66452582      -0.51973510      -1.27163363       0.59310180      -0.00758043      -0.24909899
C       11.60757318       3.03301353       1.81170107       0.78237010      -0.63894071       0.36683324      -1.04332912      -0.08688459      -0.95515239       0.02231547      -0.13203862
F       12.35687242       3.93031045       2.38874191       0.35710612      -0.40555824       0.54015889       1.31928658       0.34566662       0.91860116      -0.00659757      -0.24587972
F       12.18200504       2.63542164       0.67090500       0.58708432      -1.11590246      -0.63995879       0.69838250      -0.48399425       0.50503397      -0.00993277      -0.21310356
F       11.41547949       1.98734900       2.60862886       0.71419059      -1.29990841       0.17383327       0.40189442      -0.17408587       0.19967279      -0.00757732      -0.26001358
H       10.79607896       5.66477360       1.10152857       0.25182003       0.00180182      -0.04983097       0.05204350      -0.60994631       0.85936785       0.02327721      -0.07196733
H        9.84526723       2.97087809       0.69042298       0.13178608       0.17405430      -0.24874520      -0.11409781      -0.09858431      -0.04875097       0.01338868      -0.03285616
O        8.54455287       7.10744606      11.65574289      -0.12437715       0.41528991       0.24317944      -0.39358878       0.74945521      -0.56686455      -0.02935718      -0.01094288
C        8.35747141       8.45454607      11.99535616       0.21719662       0.10772342      -0.14023717      -0.70400667      -0.42957053      -0.75209880       0.00972501      -0.26107052
C        9.04898817       8.70747470      13.30106992       0.38459441      -0.84038119       0.12024349      -0.30109236       1.83958840       0.35672751       0.02191124      -0.13403419
F       10.34613773       8.48657251      13.19420833       0.10815273       0.18193875      -0.38873505       0.69682407      -0.55282485       0.22840630      -0.01052127      -0.22637889
F        8.59384909       7.93654572      14.28246754       0.23882402      -0.34006109       0.06950343      -0.13422765      -0.38970894       0.35792571      -0.00871234      -0.28533855
F        8.87875606       9.99879855      13.67319005      -0.10602287       0.25753433      -0.86356709       0.28262940      -0.78558409       0.01075276      -0.01209736      -0.21553119
C        6.84389892       8.79382422      12.05818140       0.33212686       0.09402039      -0.44328567      -0.31645545       0.30997732       0.73760313       0.02128326      -0.09571572
F        6.29125902       7.97951038      12.96715016      -0.23457563       0.08104888      -1.25306696      -0.06554696      -0.42967996      -0.62184298      -0.01161741      -0.19315894
F        6.28057241       8.74149481      10.84168951       0.30498659      -0.83776576       1.07158263       0.28325096      -0.81016868       0.11669794      -0.01307214      -0.21411586
F        6.51660794      10.02403001      12.47477035       1.06025498       0.54548182      -0.07765713       0.58747905       0.08661776       0.20526026      -0.01116621      -0.15458460
H        8.76099369       6.57749687      12.41702254       0.15720096      -0.15276112       0.09975558       0.05100299      -0.31201926       0.61851782       0.02416340      -0.03759132
H        8.77391837       9.06564041      11.18506610       0.06257603       0.01410324       0.02680009       0.12722965       0.02720520       0.39230642       0.01179853      -0.05157772
O        4.01437688       1.36230269      12.05686011      -0.62032176      -0.45586168       0.25424300       0.32161558       0.07599719       0.24473433      -0.02573124      -0.02253939
C        2.79701278       1.70598860      11.45572011      -1.12847112      -0.56549752      -0.09736362       0.69413698       0.70358348      -0.52513957       0.01443479      -0.26316270
C        2.94777932       1.61215326       9.89007410      -0.09363726      -0.04507732      -0.29580133      -0.70074528      -0.36933076       0.40301579       0.02251804      -0.12244533
F        3.49285692       0.43320077       9.58133300      -0.03762098      -0.31467754      -0.02187016       0.31389746       0.05441329       0.04990251      -0.01126345      -0.25162056
F        3.71032659       2.56601980       9.29993194      -1.40096537       0.13205727      -0.60194836      -0.33208242      -0.50828218       0.44773379      -0.00958852      -0.26595747
F        1.72460616       1.64516188       9.33959276       0.70461817       0.78133230       0.06301422       0.33629984       0.47117898      -0.08888821      -0.01177289      -0.22855213
C        2.35441176       3.12025426      11.84947641       0.27157044       0.05579299      -0.19475703      -1.01327252      -0.18551371      -0.36056334       0.02269530      -0.13860159
F        3.09716024       4.06691786      11.24243183      -1.39531192      -0.12377724       0.27199777      -0.06047942      -0.21806686       0.18053620      -0.00932846      -0.24423960
F        2.44124399       3.30205206      13.15846794       1.26938393       0.89590248      -0.41796089       0.40044898      -0.30328062       0.36463526      -0.00738243      -0.23601635
F        1.06078851       3.29846440      11.50678549      -1.07087427       0.49837702      -0.34429152       0.53349942      -0.01639947      -0.16079989      -0.01348688      -0.24102874
H        4.59342078       2.11271281      12.31400270      -0.14546314      -0.22629944       0.14482938      -0.85050827      -0.42835546      -0.37348098       0.02499922      -0.05075990
H        1.98944632       1.01088218      11.77473015      -0.07463648      -0.01831861      -0.02544921       0.64353669       0.27945048      -0.30807969       0.01637516      -0.05617493
O        2.33338870       6.81770183      10.68896671      -0.21315481      -0.46796831       0.39325117      -0.13549308       0.50198263       0.17365867      -0.03006827      -0.05820993
C        2.06525584       7.50674889      11.88879546       0.28392046      -0.60249160       0.51181002       1.09245634      -1.77172983      -0.46712926       0.00951202      -0.25834203
C        2.80417775       8.76624853      12.12744535       0.46042304      -0.24575863       0.80092349      -0.60613960       1.39054143      -0.33555463       0.02122169      -0.11538980
F        2.60544016       9.74037850      11.20495849      -0.04510633       0.36870294       0.26086804      -0.00192386      -0.67109615       1.12585461      -0.01250100      -0.18099034
F        4.09725088       8.58925582      12.17115688       0.13920632      -0.05230416      -0.27534393       0.61079150      -0.05431969       0.54114336      -0.00786941      -0.20124897
F        2.30632270       9.20747664      13.31827405      -0.69146071       1.19668570       1.05693610       0.51382238       0.38983616      -0.58955717      -0.00982345      -0.19366837
C        2.27077346       6.50717212      13.04056576      -0.11234354       0.06715771      -0.00411302       0.05157983      -1.51798844       0.94108838       0.02361235      -0.05236664
F        3.53191811       6.00888034      12.99410573      -0.39115548       0.14877278       0.47605340      -0.98466772       0.16730726       0.07002651      -0.01061225      -0.23571026
F        1.36119507       5.50584257      12.83318848      -0.36384332       0.03481718       0.52076034       0.83682406       1.11412680       0.28039116      -0.01298389      -0.19273785
F        2.09326619       6.86423504      14.36291485       0.35467958      -0.14003383       0.56359010      -0.11538340       0.17711669      -1.47913396      -0.00656781      -0.23051442
H        3.26630799       6.59025515      10.54392207      -0.09018356      -0.17098334       0.03961939      -0.12969950       0.23768610       0.47131991       0.02101700      -0.08265574
H        1.05288418       7.75742802      11.86956014      -0.20649676       0.07700017       0.02449822      -1.49213433       0.24637623      -0.01158440       0.01010779      -0.00588860
O        4.05092515      13.67007247       6.86141231      -0.43780579       0.78623945       0.28251040      -0.07749515       0.17314404       0.03775749      -0.02536904      -0.01380920
C        4.64249772      12.48367718       6.40638368      -0.49422479       0.90362004      -0.30719743       0.35204467       2.01620173      -1.11279666       0.00928557      -0.25699767
C        6.17056458      12.64551506       6.48024907      -0.39255545       1.13850648       0.89253010      -0.31753260      -1.41024184      -0.81722027       0.02135877      -0.07404925
F        6.47658765      12.60975381       7.75497740      -0.57646247      -0.29068686      -0.10660233      -0.02578741      -0.14511126       1.71388996      -0.01127645      -0.18701015
F        6.73006539      13.74647129       6.02973080      -0.16545245       0.59474760       0.52449596      -0.25864050       1.36034274      -0.83161253      -0.00775247      -0.26027012
F        6.77516122      11.63552106       5.85411445      -0.40361554       1.11230686       0.35487535       0.16565621      -0.14730553       0.06258014      -0.01138666      -0.20147347
C        4.17127110      12.19365107       4.96957119       0.24241572       0.42134363      -0.11992888       0.30059820       0.51174366      -0.98522747       0.02237903      -0.07535531
F        4.68377411      13.20176656       4.19562504       1.02888793       0.38075043      -0.14422021      -0.68214852      -0.91476369       0.74849856      -0.01080086      -0.15319182
F        2.85009959      12.15957805       4.67386705       1.00428828       1.68661104      -0.05750505       0.74566108       0.26190305       0.88554752      -0.00961208      -0.19944921
F        4.63367216      10.96448582       4.59156511      -0.62386455       0.25178281       0.52940205      -0.25837100       1.18481922       0.33286929      -0.01179840      -0.16748108
H        4.68852008      14.29824615       7.22863323      -0.04059669      -0.04012645       0.32114003       0.06368016      -0.29860383      -0.17648257       0.02507385      -0.04278284
H        4.44085358      11.64531667       7.00992212      -0.24678783      -0.05302991       0.00417375      -0.30605650      -1.01900351       0.75421214       0.01006326      -0.03814428
O       11.67361147      12.92972479       8.58412665      -0.63874572      -0.87078181       1.70713482      -0.47343090      -0.27491251       0.33310431      -0.02651860      -0.02812442
C       10.80290538      11.88771885       8.27430556      -0.34315994       0.04539144       0.08929556      -1.73889911       0.89402664       0.23206753       0.00910289      -0.24407366
C       11.41684525      10.94412681       7.28424078       0.11065971       0.06379044       0.64260875       0.54784960      -0.53360891      -1.12373233       0.01821914      -0.17495626
F       12.57512576      10.41195447       7.66068765       0.08456427       0.14475254      -0.12446329      -0.29877976      -0.11177895      -0.00494051      -0.01250119      -0.06635913
F       11.69198532      11.61417372       6.14375074       0.31803798       0.21108954       0.15207594      -0.02632274      -0.03606664       0.15302843      -0.01202755      -0.23703495
F       10.61950190       9.90746480       7.00478807       0.25647818       0.57985922      -0.47044430      -0.47599620       0.20766775      -0.20866936      -0.01419432      -0.22853403
C        9.37658725      12.36621884       7.72453659      -0.09272575       0.57638770      -0.07910497       2.39284849      -1.67936921      -0.56439608       0.02177346      -0.06339903
F        9.44815107      12.69389148       6.41119199       0.79018169       0.48022066      -0.47114516      -0.45581326       0.17336106       0.55636233      -0.00961749      -0.23855522
F        8.98624675      13.40808032       8.39984548       0.67046724      -0.59835678       0.11529607      -0.53004414       0.47438139       0.11908809      -0.00840420      -0.21297663
F        8.54176441      11.30582767       7.83919306      -0.08025991       0.12991342       1.67156378       0.21715644       0.76028705       0.24406223      -0.01314511      -0.21686076
H       11.62912217      13.64136510       7.94544964      -0.01918344       0.14934320       0.07120261      -0.07162936       0.21699123      -0.40206543       0.02568912      -0.05051609
H       10.50119331      11.36879251       9.19475274       0.01726778       0.03115717      -0.05002452       0.51510513       0.04182516      -0.22503531       0.00989977      -0.05102972
O       14.15087526       8.74460090      10.35733916       0.01886455      -0.14714055       0.47515410      -0.77889377       0.08251230      -0.05392038      -0.02722819      -0.08331434
C       12.87862167       8.83857343      10.91518937      -0.11905226      -0.34293686      -0.09780107      -0.02110866       0.18283838      -0.06844323       0.01060631      -0.19819780
C       11.86215471       8.10338804      10.00481013      -0.08835353      -0.34721630      -0.08662115       1.67701221      -0.20386076       0.05045983       0.02116368      -0.06674606
F       12.38652806       6.86106757      10.03201501       0.62080788      -0.55486410      -0.46208453      -0.68523735      -0.01902630      -0.51377547      -0.01283352      -0.17402342
F       11.78134472       8.43847852       8.70143418       0.53674438      -0.28383243      -0.82348244       0.13086995      -0.13413924       1.02236736      -0.01040420      -0.22326587
F       10.65509689       8.12683043      10.51184697       0.41980867       0.52367976      -1.25185167      -0.62878954      -0.16721852      -0.05388334      -0.00877004      -0.21977825
C       12.55949372      10.27949081      11.38082544      -0.39085568      -0.15553022       0.31764854       0.80852485      -0.19977048       0.20559269       0.02131180      -0.13462774
F       12.43349436      11.18108464      10.38515795       0.14574189       0.32883708       1.43373564       0.13207828      -0.69043505       0.55827707      -0.00990624      -0.20691985
F       13.56719829      10.65405353      12.19560607       0.30904089      -0.35652595      -0.47141621      -0.48365802       0.04451408      -0.15163900      -0.01173842      -0.22564864
F       11.44971701      10.32398602      12.09154174       0.95727402      -0.35094855       1.29400403      -0.54550785       0.10187782       0.03088728      -0.00935409      -0.21013241
H       14.14342939       9.29146621       9.57394230       0.07803954       0.11366173      -0.16144820       0.33869830       0.21743561      -0.53793371       0.02212147      -0.03209092
H       12.93527447       8.18988861      11.81038772       0.00673241       0.00922961      -0.02421968      -0.48799548       0.56354308      -0.13431734       0.01315254      -0.01641101
O        2.19735223      12.06622363       7.14063413       0.18402811       0.06714104       0.02378318       0.29553485       0.94890112      -0.42279169      -0.02168050       0.06225621
C        2.23981724      11.42740374       8.35480559      -0.31692915       0.35385612      -0.25991249      -0.32325676      -1.32891667      -1.08391261       0.01404898      -0.17083259
C        2.18925107       9.90024594       7.91335210      -0.41613836       0.13268422      -0.34182692      -0.96735084       0.52787703       1.06343389       0.02411867      -0.04781348
F        3.14797913       9.54237358       7.06608246       1.00599268      -0.02444531       0.20219837      -0.05472574       0.58115071       0.09824421      -0.00856345      -0.26385137
F        0.99780412       9.73567450       7.25899783      -0.63415664      -0.12207376       1.59617984       0.61428165      -0.47302133       0.35199076      -0.01159016      -0.26503313
F        2.24702840       9.06412253       8.95181151      -0.61259083       0.00098950      -0.52091999      -0.20390084      -0.06547377      -0.72109812      -0.00941545      -0.17711551
C        1.07233167      11.95710151       9.18371768      -0.04540850       0.21176489      -0.27078397      -0.82206696      -0.40149719       0.96943974       0.02229877      -0.11813106
F       -0.05166554      11.83897297       8.46919570      -0.71680035      -0.85421940      -0.67193287       0.94153738       0.39300287       0.29624555      -0.01023639      -0.11752163
F        1.14760696      13.24332025       9.53718142      -0.74232484      -0.54674116       0.67811706       0.55928123      -0.42852736      -0.29550728      -0.01187436      -0.24511273
F        0.91602627      11.25667858      10.33555787      -0.56212133       0.22350732      -0.15217397       0.43559822       0.55967337      -0.90197909      -0.01117075      -0.16692735
H        1.38620610      11.86514039       6.66765531      -0.09784061       0.08503972      -0.03376287      -0.32413846      -0.10743875       0.02044380       0.02804472      -0.03096642
H        3.16872452      11.59376629       8.87017262      -0.01532367       0.00544703      -0.02093644       0.51750433       0.33528760       0.16528194       0.01309881      -0.05535573
O        8.80658944      11.01639510       4.00300019      -0.09069942       0.54899175      -0.34342604      -0.06580085      -0.26142448       0.33972916      -0.03056437      -0.05317777
C        8.69231748      12.29209717       3.47615701      -0.22781548       0.07631860      -0.50947670       0.00160892      -1.05832088      -1.39744592       0.00883348      -0.25121802
C        7.50361955      12.27475975       2.51340123      -0.25685189      -0.36848404      -0.27465883       0.24230483       0.38440627       0.62217510       0.02166709      -0.15451670
F        6.42407807      12.05274801       3.23224957       0.55302352       0.26405486      -0.40733942      -0.21213384      -0.20737928      -0.05181106      -0.00977439      -0.14297214
F        7.60565976      11.30038392       1.62240129      -0.14479952       0.00024910      -0.48727509       0.25447366      -0.28163087       0.13685837      -0.01103708      -0.17756173
F        7.31613364      13.44229811       1.87114111      -0.32832181      -0.19813658      -0.15448962       0.02942808       0.18552949      -0.28395775      -0.00991484      -0.28429234
C        9.99157730      12.72311700       2.85357188      -0.28394388       0.13946610      -0.32678716       0.32361218      -0.53166234      -0.07228356       0.02081182      -0.17193840
F       10.46690369      11.78510546       2.02065871       0.66006792      -0.29455313      -0.01426373       0.00821529      -0.31093308      -0.30989078      -0.01061437      -0.27703074
F       10.88358874      12.90114323       3.81758118       0.11459053       0.64257688      -0.42302945       0.50826186       0.17403881       0.42215306      -0.01123319      -0.24403055
F        9.90083036      13.84351184       2.17404311       0.37119993      -0.60171507      -1.17778449      -0.19173539       0.94702286      -0.57398140      -0.01008271      -0.24496596
H        9.06099686      10.40506704       3.29977569      -0.03810771       0.04199259       0.01200992      -0.06572530       0.02912233       0.04247207       0.02530210      -0.03206871
H        8.53883741      12.95952898       4.26885368       0.02066452       0.09439190       0.06530924      -0.69008553       0.99072641       1.09339130       0.01208171      -0.04211276
O        6.98381002       3.88495659       8.90645949      -0.39010104      -0.40029994      -0.14817033      -0.73912692       0.26626113      -0.15130141      -0.02823977      -0.08664826
C        6.44313894       4.29436370      10.14361060       0.18494617      -0.71250908      -0.43186170       0.91353935      -2.12579322      -0.22110939       0.01207831      -0.24480839
C        5.97341805       5.71460556      10.14189405       0.12009772      -0.74076050       0.49292873      -0.69044441       1.18033957       0.71619791       0.02193945      -0.14813173
F        4.92028980       5.88470813       9.32776183       0.30094595      -0.59795039       0.18521859      -0.47381669      -0.53385550      -0.49222690      -0.01044566      -0.22588280
F        6.91575104       6.52772544       9.78095550      -0.49276796      -0.17864213       0.26911503       1.02346218       0.35726628      -0.40101025      -0.01069978      -0.11736377
F        5.50529741       6.15870983      11.33624670      -0.80958112      -0.20210657       0.41590246       0.24636830      -0.80837637      -0.01860829      -0.01237953      -0.22663569
C        7.48813917       3.95849484      11.22593680       0.27834941      -0.69038221      -0.33816051      -1.50849724       0.45923859       0.99066859       0.02394645      -0.09841556
F        8.59874009       4.60985756      10.99044551      -0.53908404      -1.02915349      -0.09826402       0.23525548       0.62598681       0.15424150      -0.00739941      -0.11224484
F        7.79321304       2.65445889      11.26985052      -0.64594173      -0.25024270      -0.51775299      -0.40763441       0.21579556      -0.01230356      -0.01096373      -0.26778054
F        7.02124279       4.32882738      12.47065384      -0.15085027      -0.67862832       1.23091565       0.52986449      -0.55335665      -0.86307037      -0.01268178      -0.28567401
H        7.93521274       3.99101731       8.86016517       0.08060945      -0.15685026      -0.14488816       0.42615080       0.30315778       0.13068044       0.02306283      -0.06324381
H        5.58827782       3.64566691      10.26692820       0.04567134      -0.08560091      -0.17735859      -0.41546062      -0.04674653       0.41821402       0.01168469      -0.04398546
O       10.50017108       3.50981199      10.01198542       1.34468774      -0.73887808       0.89305131       0.53834170      -0.01388169      -0.56751430      -0.03334082      -0.09659949
C       10.95693262       3.30782566      11.30847929       0.36439766      -0.00305697      -0.16296255      -1.51109111      -2.64750600      -0.27446929       0.00766280      -0.22727765
C       11.67712704       4.49761806      11.76661454       0.55576059      -0.64018369       0.65001920       0.69957823       1.78639579      -0.46139374       0.01995643      -0.12070602
F       10.87006407       5.59479748      11.72460612      -0.53241598       0.20726547      -0.07004942       0.22046940      -0.49135119       0.20772509      -0.01494351      -0.25072262
F       12.65251498       4.69051195      10.86820860       0.21477659       0.31194616      -0.78529848       0.54851443       0.24335007      -0.03526382      -0.01191054      -0.14200091
F       12.25022689       4.47297975      12.93191584      -0.58422976       0.67684576      -0.00133771       0.47121257      -0.35795841       0.76120186      -0.00837437      -0.17238036
C       11.73047639       1.97899995      11.29981760       0.27935265       0.16262076       0.15088388       0.93073452       0.03525047      -1.05578661       0.02028556      -0.15238738
F       12.76927514       1.92492617      10.43626992       1.25832496       0.16391042      -1.00234741      -0.20078719       0.44762239      -0.28052711      -0.01394643      -0.24630763
F       10.91163451       1.00317573      10.91584272       0.36092566       0.04692457       1.36492334      -0.03693819       0.41250485       0.06396264      -0.01271549      -0.20221123
F       12.26194471       1.70089300      12.46044210      -0.59557570       0.15260394      -1.45183435      -0.00992201      -0.47557178       1.40092361      -0.00877993      -0.23051322
H       11.27709903       3.75805116       9.47313934      -0.17351409      -0.06331790       0.07690265      -0.56689650      -0.24404985       0.38930005       0.01966235      -0.02891284
H       10.08627341       3.04866265      11.93012618       0.08193514       0.04190035      -0.09187562       0.27904058       0.47049803       0.02192959       0.01052427      -0.03861704
O        6.20828739       6.96311036       7.47917333      -0.21750251       0.23501261      -0.16850021       0.45631659      -0.29169643      -0.49853140      -0.02766400      -0.00849952
C        6.96846182       7.50497992       6.42691692      -0.14223759       0.03416811       0.07537192      -1.65967834      -0.52037197       1.07539618       0.01339528      -0.24466324
C        6.05463983       8.53916728       5.80265323       0.26924235       0.26529773       0.40332297      -0.34959435       0.67159790      -0.31107917       0.02095185      -0.13874394
F        5.79351135       9.37223181       6.81925430      -0.31054521       0.30884331       0.58503905      -0.31113344       0.60271096      -0.01123283      -0.01383627      -0.22213450
F        4.88136744       8.02829564       5.37739615       0.39383578      -0.27333272       0.08019493       0.27004853      -0.21026810       0.52364063      -0.01016964      -0.25570244
F        6.53788285       9.23898872       4.78737214      -0.02482090      -0.69477591       0.42823089       0.45848310      -0.09768575       0.07795992      -0.01039826      -0.20725858
C        7.45063448       6.48570533       5.48261130       0.27600699       0.05290213       0.40606544      -0.45846200      -1.71068335      -2.05890346       0.02243887      -0.12070175
F        6.41316062       5.67526176       5.07693306      -0.63370671      -2.01865794       1.34098631       0.48244664       0.62729096       0.24135464      -0.01003623      -0.28041115
F        8.39537708       5.65665791       5.90498730      -0.67958022       0.29414727      -0.32280559      -0.55776721       0.18046588       0.47733325      -0.01019181      -0.18871683
F        7.92489981       7.10477050       4.39866380      -0.64311565      -0.76679753       0.84689323       0.13987222      -0.04781061      -0.33855078      -0.01094432      -0.22375299
H        5.46372504       6.46059097       7.12204546      -0.03746298      -0.05417455       0.08263921       0.06940480       0.00913500      -0.12404815       0.02704709      -0.03744198
H        7.79241704       7.99274372       6.88054530       0.03575755      -0.07626778       0.08675232       0.93900305       0.67188799       0.26368916       0.01365880      -0.04352571
192
Lattice="14.05790476106759 0.0 0.0 0.0 14.05790476106759 0.0 0.0 0.0 14.05790476106759" Properties=species:S:1:pos:R:3:momenta:R:3:forces:R:3:charge:R:1:energies:R:1 Built=T with=T Packmol=T charge=0 spin=1 external_field="_JSON [0.0, 0.0, 0.0]" energy=-15.281209945678711 stress="-0.015488206408917904 -0.0027302196249365807 -0.0003620383213274181 -0.0027302196249365807 -0.011925454251468182 0.0035477362107485533 -0.0003620383213274181 0.0035477362107485533 -0.012789164669811726" dipole="0.8049997687339783 0.24319612979888916 0.19763454794883728" free_energy=-15.281209945678711 pbc="T T T"
O       13.22117363       5.79566370       6.84838548      -0.71640384       0.12276464       0.16104596       0.01771230      -0.96222383      -0.35625356      -0.02685420      -0.06573310
C       12.39401104       4.65256981       6.66794618      -0.42550914       0.38976059      -0.23402105       1.17172706       0.78495377      -0.80366313       0.01442212      -0.23727746
C       11.01784259       5.07028415       7.07581311      -0.61961745      -0.16290319       0.32796558      -0.45006216      -0.87272042       0.53857327       0.02392369      -0.11259059
F       10.57206345       6.13289650       6.45203011      -0.69507611      -1.36437298      -0.36585655       0.66442752       0.43454084       0.16722065      -0.00854920      -0.18220884
F       11.06854273       5.32094981       8.41565700      -0.96893392      -1.57017067       0.59325574      -0.36822158       0.70734382      -0.42649183      -0.00757150      -0.19103934
F       10.14177201       4.08022588       6.91524379       0.11010572       0.03823483       0.10861272      -0.45676580      -0.27401677      -0.10038164      -0.00966812      -0.24378639
C       12.93582087       3.45815235       7.44294955       0.02527997      -0.48605470       0.37496330       0.39431277      -1.22885907       0.41710117       0.02450891      -0.12742385
F       13.22329486       3.75736014       8.71125144       0.37636760       0.18541815      -1.11397588      -0.03628795       0.22476739      -0.31344900      -0.00712423      -0.20266944
F       14.09139204       3.03307898       6.89425449       0.19406896       0.38238013       0.27170915      -0.91110003       0.01699316      -0.01129855      -0.00832400      -0.25298035
F       12.03590041       2.40374475       7.49121438      -0.18093413      -0.53813736      -0.01060536       1.06946588       0.98907405      -0.37543327      -0.01095523      -0.25640520
H       13.10769751       6.13288649       7.74697978      -0.06463801      -0.07486567       0.10576599       0.02685662      -0.07765896       0.11628855       0.02284192      -0.06121507
H       12.43082070       4.31938709       5.61068433      -0.12935378       0.01345777      -0.01617144      -0.14241515       0.58332700       0.40702587       0.01533297      -0.04861122
O        1.97208403       9.00802477       2.17694855       0.64978333       0.19517790       0.11234492      -0.68454224       0.15729755       0.28214139      -0.02426064      -0.16214398
C        3.00581716       9.92344067       2.43403721       0.54620942       0.06453384      -0.14159317      -0.64649147      -0.93222994      -0.28507286       0.01189987      -0.17376673
C        2.68563069      11.30986812       1.79382630      -0.13853314       0.09337960       0.09065385       1.97551870      -1.47053432       0.47480279       0.02267314      -0.10063060
F        1.58452546      11.71479990       2.38104052       0.00237253      -0.20547985       0.13469399      -1.08736324       0.57430667      -0.35036004      -0.00818651      -0.24425152
F        2.59313791      11.35313120       0.46385644       0.08097484      -0.12085527      -1.18596874      -0.44863909       0.06939163       0.45279452      -0.00963272      -0.23892947
F        3.68424823      12.12259002       2.14243410      -1.72599991       0.09871638       1.12904330       0.22900876       0.63341361      -0.24974555      -0.00890910      -0.22202522
C        4.29515054       9.14969543       2.16013019       0.47618572       0.46896829      -0.05538130       0.50819153       0.82603347      -0.64724940       0.02196234      -0.15193136
F        4.29797632       8.74231417       0.88261671       0.23476666      -0.11816012       1.01587290       0.07629585      -0.33787858      -0.33792874      -0.01040963      -0.24886858
F        4.36458822       8.06173838       2.92736768       0.54057766       0.44668511       0.21062700      -0.05576594       0.28775871      -0.14841148      -0.00930673      -0.24884807
F        5.40589119       9.87725465       2.32038429       0.16568687       0.95681505      -0.43275109      -0.23312417      -0.24748161       0.15738340      -0.01166702      -0.24001190
H        2.08803516       8.55860799       1.33460480       0.13583903       0.01856841      -0.15509140       0.13177976       0.00310662      -0.30367690       0.02266387      -0.06274348
H        2.98109587      10.08355979       3.49712642       0.12546589       0.16610723       0.04676434      -0.02971277       0.28240740       0.32997745       0.01144254      -0.02898426
O        7.48382355      12.12314375      13.44366046       0.17286615       0.38234254      -0.04636502      -0.11532895       0.07877189      -0.15889074      -0.02546470       0.02275502
C        7.93463927      12.33720024      12.15903278      -0.17861718       0.43833754      -0.02642953       0.37211415       1.26296163       0.39787251       0.00934296      -0.28326008
C        9.31875898      12.99554975      12.23407550       0.47707611       0.29350845      -0.29246081       1.10365367      -0.37755910      -0.76325399       0.02069853      -0.15214124
F       10.08219998      12.35619857      13.10452965      -0.44801763       1.59904362      -0.18333289       0.11762558      -0.50580323       0.51143652      -0.01228138      -0.22012798
F        9.31419577      14.25971560      12.63384494       0.08930994      -0.18016672      -0.71932325      -0.63935876       0.53614163       0.03594100      -0.01076793      -0.24134313
F        9.98500510      12.91153919      11.04270473       0.02686325      -0.06402190      -0.39496434      -0.91355580      -0.19064133       0.41943392      -0.01439791      -0.19816430
C        6.92036236      13.16586373      11.41941636      -0.02561862       0.10049476       0.04804927      -0.06342154       0.45943785      -1.07834077       0.02214438      -0.14878751
F        6.69832623      14.33214079      12.03334313       0.29959294       0.49368433      -0.20852957       0.02362633       0.30373171       0.21795887      -0.00973813      -0.25355956
F        5.75391241      12.53361949      11.37156763      -0.78088143       0.51328937       0.68856702      -0.27698144      -0.26653948      -0.20808798      -0.01175149      -0.27003103
F        7.31361572      13.43517593      10.15233915      -0.16140542       1.25549416      -0.05544986      -0.30386919      -0.09038848       0.73397726      -0.01349764      -0.24448775
H        7.02101559      12.90486121      13.76026914      -0.02972385       0.06541793      -0.01951734      -0.01573372       0.18022324       0.14540121       0.02634518      -0.02323908
H        8.04899014      11.42659626      11.61279244       0.19520046      -0.07328322       0.10476787       0.10744874      -0.70749509      -0.15441427       0.01069004      -0.04636386
O       13.37259565       8.55288823       2.11415120      -0.69029793      -0.05040176      -1.78208790       0.71431804      -1.02242720      -2.27030945      -0.03045132      -0.06711893
C       12.23819059       8.68486899       2.78072938      -0.01052382      -0.02032686      -1.07043337      -2.03860235       0.01526801       1.14933872       0.01201651      -0.21277560
C       12.23540418       9.77769268       3.81556172       0.34402877       1.59555932      -0.37315897       0.95693064       0.69005829       0.04997761       0.02190408      -0.11556090
F       12.61139990      10.94104467       3.27709167       0.10252253       0.46638808      -0.60711173       0.34185278      -0.12651716       0.23136887      -0.00982843      -0.25191128
F       13.10989392       9.47482954       4.82199996       0.67559444       0.29374340      -0.25748780      -0.24655855       0.65567714      -0.53481406      -0.01315586      -0.25174412
F       11.03807234       9.90311659       4.33000201       1.27080523       1.49479310      -0.53772410      -0.47621188       0.35690674       0.39072204      -0.00833149      -0.15653747
C       11.85128944       7.45999053       3.58310199       0.73535399      -0.04080690      -0.37907191      -1.18577969      -3.04532146       0.13309030       0.02213412      -0.06429681
F       12.61057191       7.10438878       4.59425609      -0.62168697       1.13880664      -0.66870297       1.14843953      -0.00539816      -0.05444396      -0.00977854      -0.19408232
F       11.81345455       6.33872493       2.74842288      -0.19916469      -0.74370980      -0.38048974       0.31981584       1.30283380       0.22359316      -0.01316489      -0.23390926
F       10.62068112       7.52067125       4.12338352       0.56851969       0.60668926      -0.07112959      -0.26888818       0.40351412      -0.75197554      -0.01366581      -0.19622616
H       14.18533021       8.89831633       2.46428924       0.22656530       0.21795816      -0.29685824       0.86937994       0.50273192       0.78175014       0.02164038      -0.06640589
H       11.35604009       8.80693205       2.10574623       0.00355694       0.15558730      -0.30164385       0.63058829       0.31242993       0.22723594       0.01337668      -0.03658187
O       10.55990596       4.83199569       0.66855652       0.33174560      -0.23482551       0.02675532      -0.16214140       0.71037716      -0.58229828      -0.02881660      -0.01857378
C       10.32275235       3.66524831       1.37504490       0.04692373       0.09275402      -0.33668445      -0.27974910      -0.00436904      -0.92287362       0.01102822      -0.22045712
C        9.29570655       3.93290827       2.43454796       0.02171881      -0.55557458      -0.54264168      -0.63856816       1.54082036       0.05775709       0.02182064      -0.15227768
F        8.18041455       4.41855761       1.86328507       0.70034597      -0.65811721      -0.53538756      -0.22814234      -0.34005299      -0.34440947      -0.01132269      -0.26574895
F        9.68051210       4.90017830       3.27782292      -0.16897347      -0.79313472      -0.43405394       0.63502878       0.32650676       0.30397120      -0.01140757      -0.25018314
F        8.98485437       2.91205187       3.16866555      -0.53140424      -0.94913081      -0.32233453      -0.46368292      -1.73286903       0.66798198      -0.00681541      -0.24232596
C       11.62756062       3.00623974       1.81561909       0.18432307      -0.65126606      -0.18437873      -1.15599275       0.14502302      -1.04895401       0.02281752      -0.12300367
F       12.37428222       3.92081119       2.40799406       0.95686409      -0.38736925       0.90796882       0.89774418      -0.34324527       0.40289745      -0.00656609      -0.25125244
F       12.20156125       2.60381402       0.65892869       0.91259453      -1.30545587      -0.23266557       0.51964605      -0.17721134       1.14164913      -0.01042857      -0.21960428
F       11.43698872       1.95300746       2.61401136       0.95671855      -1.32254450       0.21852421       0.46586651       0.25152501      -0.09300194      -0.00741311      -0.25832760
H       10.91990407       5.57591494       1.16660430       0.25731637      -0.34103227       0.29311025       0.04583269      -0.35131949       0.52460480       0.02259940      -0.07996099
H        9.89226335       3.02807319       0.59004838       0.05875072       0.04194454      -0.10013687      -0.16687289      -0.35681495       0.64577454       0.01307375      -0.01364052
O        8.54023264       7.11844246      11.66529427      -0.13314794       0.19948956       0.40094568      -0.16984358      -0.36127415      -0.40560845      -0.02942300       0.00092017
C        8.36042386       8.45429443      11.98611074      -0.03546047      -0.11273714      -0.20031152      -0.22859165      -0.30614954       0.51934206       0.00915072      -0.26900536
C        9.05907009       8.69448237      13.30761577       0.05873911       0.22554863       0.15236003      -0.86777622       2.05012608      -0.19933014       0.02199025      -0.11898490
F       10.35403355       8.48733362      13.18584048       0.50657073      -0.13286722      -0.24595885       0.71500868      -0.65835333       0.37781337      -0.01002488      -0.22482884
F        8.59950023       7.92521492      14.28674399       0.21143404      -0.52343181       0.25972406       0.02110110      -0.21778670       0.32491821      -0.00829048      -0.29210377
F        8.87813454       9.99957524      13.65111073       0.06858855      -0.21032225      -0.82387658       0.40234125      -0.92613506       0.26461321      -0.01276942      -0.21571346
C        6.85529061       8.80088693      12.04997350       0.25016714       0.24564981       0.08121480      -0.02235474       0.23228610       1.17888534       0.02110819      -0.13033152
F        6.28498925       7.97887406      12.93149864      -0.24331170      -0.13283844      -1.45727064       0.02347547      -0.45205247      -0.02087997      -0.01199352      -0.19789712
F        6.28948714       8.71506297      10.86790502       0.35213142      -1.18061070       0.86643114      -0.10468034      -0.46424651      -0.95801240      -0.01143901      -0.21082367
F        6.54789178      10.03842303      12.47370867       1.35292909       0.55517172      -0.01448804       0.47720882      -0.07927011       0.08343346      -0.01165993      -0.16979750
H        8.80473302       6.56498720      12.41626249      -0.00088142       0.16442690      -0.16689680      -0.15615574       0.33673379      -0.04059731       0.02470171      -0.03970081
H        8.82154981       9.08263541      11.22873548       0.13092946       0.06684320       0.11070574       0.07244583       0.12051044      -0.05978370       0.01154758      -0.05362447
O        3.99017989       1.34053036      12.06278698      -1.04640020      -1.03713228       0.07540495      -0.49631429      -0.44601274      -0.23576754      -0.02664828      -0.02745760
C        2.76409287       1.69315962      11.44615127      -0.34174363       0.00807821      -0.38156766       2.18342996       1.38781869      -0.57986289       0.01452982      -0.26288587
C        2.93772689       1.60648690       9.88382296      -0.35566606      -0.22358953       0.02193272      -0.18813406      -0.25757229       0.76748484       0.02258119      -0.11001934
F        3.49380931       0.42554155       9.58092285       0.10404808      -0.27030806      -0.01284259       0.22014579       0.14813010       0.01452121      -0.01104122      -0.26366478
F        3.67288396       2.56660986       9.28717417      -1.44823921      -0.07169212      -0.38136227       0.25991672      -0.32248735       0.48773512      -0.00921080      -0.26341954
F        1.74279511       1.66777702       9.33966260       0.60398991       0.93583635      -0.09536640      -0.84691197       0.06441675      -0.53286850      -0.01051036      -0.21993685
C        2.35113314       3.11999162      11.83903683      -0.50315821      -0.08258955      -0.27840103      -1.83430707      -0.34040284       0.08070590       0.02296506      -0.12083854
F        3.06181790       4.06328802      11.24911139      -1.28768304      -0.11779194       0.18457822       0.55954957       0.24951874      -0.53875428      -0.00744625      -0.22751993
F        2.47632024       3.32287916      13.14968642       1.41698718       0.69000121      -0.27373048       0.05056943      -0.60732865       0.21794811      -0.00768517      -0.23355946
F        1.03773429       3.31089057      11.49768320      -0.67335854       0.44682366      -0.32841961       1.00419772      -0.21364906       0.22535615      -0.01498415      -0.24370202
H        4.51356344       2.08096090      12.38781136      -0.11618112       0.18100652       0.19736164      -0.28931090       0.23110710      -0.09188873       0.02467887      -0.05352861
H        1.99201187       1.00713916      11.74022900      -0.00992318      -0.06327280      -0.07970683      -0.34349626      -0.37594253       0.06924596       0.01634797      -0.05950148
O        2.32372998       6.80761432      10.70295833      -0.41709960      -0.18886088       0.52125599      -0.06129799       0.46245697       0.19083078      -0.02935622      -0.09613997
C        2.07127223       7.47305192      11.90499472      -0.24502429      -0.84250713       0.30193626      -1.76225054       0.60955805      -0.19963257       0.00802350      -0.25627509
C        2.81316514       8.77044402      12.15524863      -0.08826254       0.41248755       0.52228466      -1.36260557       0.91840839      -0.77597362       0.02147218      -0.10240512
F        2.60442843       9.74469545      11.21971399      -0.03141142      -0.05429039       0.89351990       0.01752171      -0.89534682       1.25284386      -0.01369577      -0.18666883
F        4.10515729       8.58777853      12.16812197       0.46421028      -0.04938630       0.06434356       0.47803825       0.09613587       0.81692261      -0.00712417      -0.19436564
F        2.29266056       9.23991838      13.34083633      -0.33059006       1.27106329       0.64997773       0.92066795      -0.13167955      -1.04430759      -0.01039561      -0.19716252
C        2.26599903       6.49455734      13.05160819      -0.13623134      -0.64605950       0.55225463      -0.11331280      -1.02808380       1.00104928       0.02294106      -0.06507588
F        3.51651073       6.01312476      13.00676964      -0.74375600       0.14138396       0.49893598      -0.28407404      -0.28874707       0.00627262      -0.00954582      -0.23711056
F        1.35673533       5.51323736      12.84857786      -0.00701028       0.49017675       0.67184134       0.50926471       0.52705193       0.29389578      -0.01247530      -0.19618747
F        2.10153244       6.86195185      14.36807317       0.27329193      -0.02645482      -0.14877401      -0.25547850       0.29635692      -1.25273788      -0.00723948      -0.24025235
H        3.24422024       6.52484478      10.61137486       0.02209224      -0.10892083       0.21856423       0.05890505       0.13462047       0.24639390       0.02140099      -0.07812125
H        0.97932388       7.77063256      11.88760748       0.16818288      -0.09607165       0.05948220       1.44585931      -0.55870211       0.08992834       0.00930333      -0.00256576
O        4.03711401      13.69715087       6.87017559      -0.48346089       0.98098073       0.25171621      -0.27222800       0.26999015      -0.36789849      -0.02525980      -0.03544167
C        4.62351941      12.52946192       6.39200310      -0.47879367       1.09287095      -0.22223460      -0.08784276      -0.71145862       0.81847030       0.00811641      -0.23647943
C        6.15096039      12.67477437       6.50451323      -0.54929245       0.26086311       0.22976376      -0.09915213      -1.75816071      -1.56085622       0.02180491      -0.07746226
F        6.46168224      12.60185928       7.76493833      -0.57643903      -0.29830277       0.90413678      -0.02173025       0.12082565       1.98280084      -0.01021254      -0.18944129
F        6.72411962      13.77119361       6.03872103      -0.30493455       1.30859422       0.20366827      -0.37841240       1.20849359      -0.43032080      -0.00834961      -0.26880363
F        6.76509459      11.66405185       5.86399196      -0.39336491       1.10299153       0.41200456      -0.04730604      -0.06271466       0.08775371      -0.01235654      -0.20672619
C        4.18468743      12.21720106       4.95611560       0.41703311       0.74909828      -0.47364079       0.32736188       0.72332883      -0.19837931       0.02185745      -0.10534751
F        4.70679298      13.20636377       4.19573113       0.78030272       0.00813630       0.10251027      -0.33787128      -0.50117791       0.14045249      -0.01003238      -0.15646972
F        2.87940381      12.20516613       4.67757020       1.19113065       1.83896464       0.32260215      -0.13567024       0.22473221       0.61093718      -0.00946193      -0.20297830
F        4.61631548      10.97836427       4.60734465      -0.69161307       0.80464013       0.68080976       0.08121255       0.94830513       0.19628255      -0.01109623      -0.17674437
H        4.66403255      14.23532640       7.35939657      -0.04452438      -0.18533477       0.23578791       0.18641831       0.03010150       0.03718913       0.02461729      -0.03867292
H        4.33806859      11.62136149       7.01180851      -0.08104053       0.14705712      -0.13410932       0.72392476       1.06663930      -0.73457080       0.00935616      -0.02707813
O       11.65080400      12.90819353       8.63417935      -0.83138857      -0.44964902       1.51010395      -0.27457836       0.61837399      -0.15680268      -0.02705185      -0.03280931
C       10.77474658      11.89804219       8.27734968      -0.90720564       0.39699213       0.01313139      -0.21700108       0.06628166      -0.18239541       0.00892314      -0.27758399
C       11.42580529      10.94301991       7.29655247       0.28382270      -0.06401324      -0.07800540       0.02475019       0.10459930      -1.55379868       0.01818866      -0.15915622
F       12.57563172      10.41462125       7.65796771      -0.03508189       0.04528619      -0.06590197      -0.17420150      -0.30257776       0.23357695      -0.01162234      -0.04521335
F       11.70014718      11.61953085       6.14927893       0.31918691       0.21030555       0.28382567       0.03980404       0.04710578       0.24527775      -0.01335003      -0.23547751
F       10.62294491       9.92342773       6.99146378       0.00219599       0.63280768      -0.55403622      -0.55976164      -0.06528787      -0.12305646      -0.01383371      -0.23179998
C        9.39633556      12.36981372       7.71584602       0.98396835      -0.41370554      -0.31095470       1.44092512      -1.79029775      -0.14115034       0.02227357      -0.08880304
F        9.46538282      12.70711125       6.40321628       0.53443256       0.52087634      -0.12049058      -0.55886513      -0.09545244       0.85022134      -0.00903053      -0.23518610
F        8.99970913      13.39738465       8.40409347       0.36786333      -0.19407205       0.21008088      -0.56068593       0.88407421       0.07380910      -0.00853369      -0.20670189
F        8.54148957      11.31469940       7.88323380       0.08162361       0.57074358       1.69082830       0.47958916       0.91039294      -0.31473273      -0.01376435      -0.21669942
H       11.61792694      13.64692384       8.01379332      -0.01861409      -0.15470592       0.23899638       0.02785505      -0.03406504      -0.09559766       0.02555857      -0.04743821
H       10.54255249      11.36272869       9.18411058       0.09324237      -0.08911970       0.05657723      -0.15914829      -0.27711317       0.24751431       0.00988977      -0.04608896
O       14.14645030       8.74571530      10.36372065      -0.27394942       0.22322221      -0.08439232      -0.40977073       0.06383374      -0.24678789      -0.02663681      -0.06870446
C       12.87318769       8.82971843      10.90791306      -0.15634235      -0.00927176      -0.31216222      -0.11661899       1.04263997      -0.57984918       0.01065135      -0.21295545
C       11.87691730       8.08779677       9.99935432       0.79050995      -0.39142354      -0.22825346       1.39627934       0.09222395      -0.51600057       0.02133468      -0.07234243
F       12.39791782       6.84682281      10.01680062       0.25270226      -0.53874010      -0.70748953      -0.76677752       0.08856266      -0.40963039      -0.01223010      -0.17718083
F       11.79641262       8.42993537       8.68706796       0.64289365      -0.38459837      -0.27389878       0.28906813      -0.21753447       1.17006290      -0.01139259      -0.22428191
F       10.66100245       8.13897239      10.47948141       0.03096050       0.39943208      -1.23653033      -0.68638593      -0.36436552       0.14449742      -0.00839541      -0.21989274
C       12.55403350      10.27038997      11.39468260       0.15172701      -0.29447331       0.32868668       1.11367595      -0.24606726      -0.16368727       0.02091871      -0.13677955
F       12.43742966      11.18571711      10.42511178       0.13409167       0.05115875       1.61545140      -0.16575305      -0.42005938       0.03149420      -0.01003873      -0.21140420
F       13.57275426      10.64480465      12.18307835       0.15143969      -0.36847420      -0.46496256      -0.10834172      -0.06690284       0.24821542      -0.01236620      -0.22044143
F       11.46976231      10.31555030      12.12620417       0.55599841      -0.30265082       1.40567929      -0.97834843       0.08992971       0.22248703      -0.00892106      -0.20760867
H       14.20465491       9.28455074       9.56504793       0.13838916      -0.16978062       0.18084257      -0.03487402      -0.05868214       0.03697875       0.02215977      -0.04242225
H       12.88599599       8.23267133      11.81076256      -0.18237648       0.10069636       0.07763267      -0.16858941      -0.14159915       0.36201087       0.01311152      -0.01766648
O        2.20066256      12.07505344       7.13485429      -0.03479468       0.49838674      -0.43677000      -0.41763097       0.81208283      -0.80829352      -0.02085987       0.05797081
C        2.22725214      11.42879756       8.33643682      -0.19049604      -0.24114530      -0.53495094       0.79741788      -0.80242020       0.07970969       0.01395746      -0.17350297
C        2.16631137       9.91010894       7.91079572      -0.59624004       0.32037216       0.21032512       0.33818594       0.16755626       0.96635717       0.02441343      -0.05946149
F        3.17174059       9.54601009       7.07257386       0.74989445       0.32889591       0.32621937      -1.03466487       0.84336013       0.39820257      -0.01007596      -0.26728719
F        0.98450965       9.72936165       7.30121161      -0.42820205      -0.36823821       1.60581151       0.21369979      -0.48064581      -0.43119413      -0.00897614      -0.25923163
F        2.23002157       9.06377714       8.93430092      -0.69278973      -0.02992754      -0.79393934      -0.06550343      -0.09344196      -0.21974804      -0.00926378      -0.17562383
C        1.06086996      11.95980441       9.18220478      -0.51115908      -0.12012761       0.16355044      -0.75868601      -0.86785680       0.55092847       0.02237172      -0.10820354
F       -0.06344629      11.81994236       8.45413726      -0.17759564      -0.59165384      -0.47583435       1.13336372       0.70754838       0.50196838      -0.01062537      -0.11530652
F        1.13172081      13.22766136       9.55260200      -0.49039441      -0.61230656       0.50293758       0.50950778       0.20617138      -0.44072527      -0.01118590      -0.24245948
F        0.90434335      11.26562556      10.32572733      -0.34048597       0.43782462      -0.59096629       0.44508454       0.17186059      -0.66747189      -0.01084146      -0.16026221
H        1.35992080      11.90931237       6.68647002       0.02121047       0.10851245       0.11605761      -0.02051956       0.03314964       0.04971810       0.02820836      -0.02735686
H        3.18606408      11.62562655       8.86273220      -0.01235615       0.09039684      -0.05570811      -0.50281888      -0.05479063      -0.29846564       0.01285834      -0.05145475
O        8.80302897      11.03181961       3.99619677      -0.13795333       0.44091189      -0.09735333      -0.02660021      -0.44852409       0.36726817      -0.02976773      -0.06085872
C        8.68179995      12.29355858       3.45197696      -0.30652039       0.17742370      -0.44518756      -0.17448764       0.90973395       1.07689273       0.00916184      -0.23660018
C        7.49726927      12.26564275       2.50705176      -0.02049511      -0.04010959      -0.08640670       0.63165450       0.81190330       0.01912039       0.02151177      -0.14855808
F        6.43540834      12.05758333       3.22227291       0.26338114       0.08539041      -0.32861208      -0.92008388      -0.49649400       0.37346298      -0.00875509      -0.12570114
F        7.60342594      11.29807877       1.61031194      -0.03121400      -0.19013237      -0.45054929       0.21392819      -0.40655762       0.11393521      -0.01082457      -0.17743266
F        7.30784570      13.43835272       1.86509377      -0.30862597      -0.10713099      -0.31766571       0.08018991       0.18811670      -0.33141744      -0.01085402      -0.28418630
C        9.98555948      12.72325587       2.83955602       0.03783663      -0.11563936      -0.35518527       0.88926309      -0.33244625      -0.03599110       0.02083242      -0.17986275
F       10.48370940      11.77566618       2.01869814       0.62356195      -0.42667049      -0.12194826      -0.19933131      -0.18961319      -0.11527211      -0.01098937      -0.27281678
F       10.88878248      12.91884631       3.80863242       0.24684038       0.71859729      -0.29614311       0.01769594       0.06637356       0.10140340      -0.01220258      -0.25011581
F        9.90905687      13.83404028       2.13958332       0.25946248      -0.14186580      -1.48150217      -0.25912258       0.80716830      -0.47135404      -0.01020756      -0.24307063
H        9.04111341      10.41121361       3.29379654      -0.04358442      -0.01940859      -0.03285892      -0.06333740       0.00530350       0.08643232       0.02565931      -0.03014989
H        8.49130086      13.02266281       4.30590484      -0.15888451      -0.01083107      -0.12803938      -0.05436428      -0.89727116      -1.21065676       0.01197129      -0.04733455
O        6.97261942       3.87447284       8.89819776      -0.24754588      -0.29920707      -0.44682849       0.19847140       0.07115439      -0.77918154      -0.02669194      -0.08171753
C        6.45729303       4.24623855      10.12646658       0.38060064      -1.54514505      -0.32831755      -0.52062672      -0.88478482       0.70056677       0.01173655      -0.26145253
C        5.97120915       5.69695317      10.16726155      -0.20832858      -0.14388184       0.67643205      -0.44842461       0.92510003      -0.15336090       0.02207984      -0.14267844
F        4.92522264       5.86536330       9.32984507       0.08587619      -0.90664742      -0.00555623      -0.40591943      -0.61077225      -0.26461050      -0.01138533      -0.22798268
F        6.90907488       6.52451043       9.78609093      -0.04610998      -0.10253885       0.15657759       0.74071753      -0.03561725      -0.05668947      -0.01103894      -0.12719333
F        5.48620855       6.14766531      11.34666640      -0.65570690      -0.66607968       0.38840005       0.38622022      -0.95241308      -0.04454380      -0.01164650      -0.22599646
C        7.48149899       3.93559731      11.22403571      -0.62065711      -0.41694277       0.26833630      -1.67066157       0.60876495       1.24991632       0.02379009      -0.08988213
F        8.58738259       4.58763119      10.98872300      -0.31865198      -0.67545259      -0.03463615       0.47281870       0.79501563       0.15712020      -0.00708289      -0.12340473
F        7.77448861       2.64755125      11.25658456      -0.77818503      -0.34715466      -0.49220377      -0.10395902      -0.53017431       0.18805116      -0.01007860      -0.25765547
F        7.02111318       4.30723744      12.49535037       0.14581297      -0.99911896       0.62379340       0.57892334      -0.62607545      -1.52864277      -0.01413789      -0.28255862
H        7.93696452       3.94625290       8.81835730      -0.13767022      -0.02763459      -0.01181758      -0.18441650       0.29050660       0.28171214       0.02390542      -0.06256900
H        5.56999887       3.60600490      10.24015429      -0.06525037      -0.04612913       0.06961947       0.16698973       0.25989681       0.44181576       0.01118754      -0.04148722
O       10.53509284       3.48486543      10.03781676       0.80413929      -0.87946245       0.69664867      -0.80158854       0.15554626      -1.83386409      -0.03319358      -0.07325321
C       10.96389233       3.28435634      11.30018021       0.14449265      -1.00428710      -0.17989378       0.32178906      -0.99063861       0.56448478       0.00715987      -0.25619221
C       11.70359185       4.49178804      11.78207292       0.63662843       0.34739274      -0.03131246      -0.50730073       1.69950867      -2.02674294       0.02014099      -0.08488131
F       10.85863779       5.59567544      11.72417817      -0.31504618      -0.17775456       0.03623691       0.66059631      -0.94731128       0.19153439      -0.01679583      -0.24978077
F       12.66081007       4.69970333      10.84925068       0.40853963       0.38909006      -0.62435667       0.31596774       0.11729039       0.64825755      -0.01240871      -0.15042210
F       12.23958377       4.48814783      12.93859386      -0.18386661       0.49647049       0.56923086       1.10813916      -0.36045620       1.31320941      -0.00614387      -0.15614027
C       11.75052183       1.98551832      11.29123402       0.66247452       0.13198695      -0.62124157       0.47394550      -0.26044974      -1.59575188       0.01959221      -0.12091859
F       12.79918614       1.93193126      10.40953099       1.00618380       0.37205599      -1.02818643      -0.80413264       0.36207551       0.19140561      -0.01490811      -0.26182619
F       10.92076906       1.00672025      10.95059638       0.34638709       0.20708546       1.26912321      -0.03201003       0.16186404      -0.60542595      -0.01286627      -0.19350278
F       12.24870251       1.70144435      12.43493907      -0.34330011      -0.11915059      -0.41896004       1.00304401      -0.56854486       2.56790090      -0.00780642      -0.20196533
H       11.26658878       3.74406549       9.46222468       0.18671538       0.02116948      -0.13928957      -0.06578002      -0.13654868       0.34971198       0.01979246      -0.02666307
H       10.10861702       3.10115539      11.92598987      -0.05567900       0.12193185       0.12039319      -0.33525681      -0.11072126       0.44711101       0.01040925      -0.04045183
O        6.20402408       6.96744689       7.47162557      -0.07716154       0.03486642      -0.25698046       0.22936423      -0.45003533       0.30443496      -0.02747826      -0.01383147
C        6.95297632       7.50356326       6.44306049      -0.40542276      -0.03859447       0.72426714       0.60346800       0.13879672       1.02851307       0.01257376      -0.24162464
C        6.06077288       8.55481334       5.81695844       0.00772827       0.43700870       0.32913547      -0.61465782      -0.09377000       0.07036745       0.02082938      -0.13894626
F        5.78366509       9.38402238       6.83400089      -0.44470423       0.60363216       0.53820601      -0.22266865       0.58894616      -0.22636898      -0.01353277      -0.22872466
F        4.89341432       8.02010515       5.38312880       0.53168827      -0.34890281       0.37042894       0.18482749      -0.06752253       0.59773552      -0.01113469      -0.25531480
F        6.54073836       9.22147009       4.79828883       0.26683894      -0.61211678       0.38573428       0.69589466       0.48470509      -0.28499493      -0.00955431      -0.21053535
C        7.45165763       6.47107352       5.48016019      -0.35612768      -0.70933230      -0.43692134      -1.97612095      -1.00538182      -0.98444474       0.02212179      -0.10183874
F        6.40047723       5.62776844       5.11341956      -0.33402882      -1.62872698       1.46697729       0.64466166       0.96519619       0.05255100      -0.01214000      -0.28076363
F        8.37626399       5.66386893       5.90079512      -0.71450647       0.19485146       0.03850493       0.45288938      -0.63118064       0.94319940      -0.00904041      -0.16618808
F        7.90939215       7.08522838       4.41672830      -0.54370970      -0.71858196       0.47136298       0.28940874       0.27151832      -1.27244675      -0.00944695      -0.21690840
H        5.46438127       6.44303546       7.14316190       0.03659484      -0.01875982      -0.00994757       0.03729269       0.00545226      -0.28188625       0.02721471      -0.03714757
H        7.84928902       7.99844368       6.91481577       0.02819068       0.00824521      -0.03118436      -0.83372539      -0.28221619      -0.60566342       0.01301371      -0.04354570
192
Lattice="14.05790476106759 0.0 0.0 0.0 14.05790476106759 0.0 0.0 0.0 14.05790476106759" Properties=species:S:1:pos:R:3:momenta:R:3:forces:R:3:charge:R:1:energies:R:1 Built=T with=T Packmol=T charge=0 spin=1 external_field="_JSON [0.0, 0.0, 0.0]" energy=-15.397497177124023 stress="-0.01925218477845192 -0.00290494947694242 -0.0025273829232901335 -0.00290494947694242 -0.013810677453875542 0.0036417092196643353 -0.0025273829232901335 0.0036417092196643353 -0.013451928272843361" dipole="0.7557522058486938 0.16672128438949585 0.11895954608917236" free_energy=-15.397497177124023 pbc="T T T"
O       13.19905890       5.79380435       6.85343706      -0.70675210      -0.20563697       0.19287483       0.23139510      -0.48977789      -0.08626262      -0.02693095      -0.10334075
C       12.38658060       4.67296256       6.65541592      -0.00175175       0.52330889      -0.22228471       0.40718243      -0.28287464       0.89062601       0.01258514      -0.23012075
C       10.99195094       5.05449252       7.09326859      -0.53943909      -0.59363816       0.48675391       0.80601990      -0.66344023       0.05643721       0.02313849      -0.10765153
F       10.55752645       6.10155048       6.44368830      -0.44928247      -1.01349334      -0.27001266       0.42469719       0.98421752       0.28367189      -0.00892578      -0.17939450
F       11.04080432       5.28519779       8.42892793      -1.17963605      -1.17141550       0.45278765      -0.38344854       0.99050039      -0.19335155      -0.00732296      -0.19847642
F       10.14023921       4.07759452       6.91726987      -0.28449961      -0.31578422       0.04111030      -1.09904075      -1.13795817      -0.18133911      -0.00878368      -0.23394749
C       12.93853408       3.43058790       7.45536644       0.05159837      -0.72621275       0.06226281      -0.26187471       0.40169671      -1.58012784       0.02371933      -0.09388225
F       13.23314755       3.76381383       8.68325250       0.39382942       0.32018342      -0.93493108       0.04963211       0.29148519       1.06802511      -0.00595683      -0.19378647
F       14.09128746       3.04226079       6.90084422      -0.16476768       0.28517756       0.21558723      -0.45085329      -0.48861590      -0.28245208      -0.00838493      -0.25371748
F       12.03806890       2.39546516       7.48898243       0.34301519      -0.13386367      -0.14491688       0.97791111       0.60028005      -0.16639271      -0.00997525      -0.27475846
H       13.08832302       6.07898967       7.77162940      -0.00405440      -0.13479175      -0.01682723       0.15286615       0.06591063       0.00563267       0.02277905      -0.05358694
H       12.36121349       4.38368866       5.62020585      -0.13196268       0.20636025      -0.04187870       0.14185359       0.09655316      -0.58619881       0.01429352      -0.05577001
O        1.98841613       9.01243463       2.17706771       0.44357082       0.08081235      -0.13669987      -0.34594101       0.03158790      -0.03804403      -0.02239070      -0.19574890
C        3.02122785       9.92033266       2.43060857       0.20648984      -0.13404316       0.06245180      -0.64800209       0.01869517       0.64903551       0.01187782      -0.18388304
C        2.69728164      11.29863091       1.79903906       0.60257111      -0.61437709       0.09281818       0.69253784      -1.08975732      -0.38271409       0.02212172      -0.10683748
F        1.57751080      11.71240819       2.38192742      -0.52147383      -0.02019837      -0.09063719      -0.79367423       0.08290447      -0.63005078      -0.00954478      -0.24667153
F        2.59279003      11.35072012       0.43829672      -0.08675542      -0.05953809      -0.69810468      -0.18748212       0.14131255       1.55653763      -0.01154040      -0.22970337
F        3.64227533      12.13019564       2.17007158      -1.45584628       0.51848961       0.99852087       1.00155878       0.95563382      -0.38004541      -0.00727638      -0.20160273
C        4.31829710       9.17512095       2.15371635       0.60313547       0.70563633      -0.19742842      -0.13320959      -0.00601634       0.07586037       0.02197587      -0.14514554
F        4.30485648       8.73680973       0.90510867       0.30802580      -0.31361626       0.65461163       0.19812484      -0.39593339      -1.15271807      -0.00896432      -0.23671207
F        4.37863826       8.07593153       2.93195782       0.55823935       0.67849916       0.14543012       0.08540394       0.59578454      -0.12861288      -0.01070297      -0.24766158
F        5.40951635       9.90112759       2.31022169       0.15064092       0.91233676      -0.34919658       0.19865541       0.01514482       0.20702572      -0.01011647      -0.24068639
H        2.14768305       8.60605652       1.31184426       0.08135477       0.17271058       0.09449476      -0.17010690      -0.04971543       0.02660065       0.02311032      -0.04817383
H        3.03130066      10.16927115       3.50285930       0.06431614       0.12766091      -0.09594666      -0.21945928      -0.37444586      -0.41766500       0.01119119      -0.02767434
O        7.48692020      12.13833182      13.44195183       0.01549521       0.65039369      -0.05652698      -0.23836923       0.52984017      -0.07308324      -0.02611257       0.00254539
C        7.93521438      12.36066836      12.15922084       0.28641172       0.54113938      -0.02425218       1.24205160      -0.56103116      -0.23434545       0.00864705      -0.25818965
C        9.34379989      13.00443533      12.21406103       0.60262062       0.16257169      -0.66744490      -0.62534702      -0.11315117      -0.49662274       0.02009385      -0.15382800
F       10.07294857      12.39308740      13.10420636      -0.20512826       1.19681032       0.19715656       0.84907103      -1.18097866       0.94697863      -0.01176360      -0.21168511
F        9.31268738      14.26040506      12.61535901      -0.19411985       0.29640520      -0.71257701      -0.48570570       1.26273978       0.01463968      -0.01150311      -0.23092800
F        9.98070071      12.90861274      11.03436254      -0.32008137      -0.16362483      -0.28639331      -0.41997781      -0.20180602      -0.01870325      -0.01285403      -0.21017294
C        6.91746484      13.17484989      11.41001349      -0.13663900       0.33628996      -0.48829132      -0.29696906       0.41736606      -0.80234605       0.02235130      -0.14888448
F        6.70623068      14.34665294      12.02950220       0.30627535       0.61588030      -0.08356162      -0.04513704       0.13481660       0.27391928      -0.01063208      -0.24709329
F        5.73282148      12.54584510      11.38795977      -0.80794667       0.45307033       0.56691303       0.24365769      -0.01935301      -0.35921147      -0.01244543      -0.27730331
F        7.30716060      13.46681836      10.15572665      -0.34663844       1.17421937       0.30516032      -0.39851236      -0.31157491       0.56173366      -0.01260037      -0.23958912
H        7.02357764      12.92542308      13.75835668       0.05212439      -0.00166717       0.00772060       0.09586030      -0.01481907       0.11338469       0.02602576      -0.02284578
H        8.12988731      11.38038468      11.66804393       0.08304760       0.02377291       0.15547670      -0.49225605       0.76799732       0.15253684       0.01025339      -0.04119079
O       13.36824843       8.54840017       2.04666802       0.52600681      -0.15804201      -2.49703661       1.94328582      -0.12835240      -0.84284228      -0.03413964      -0.04170161
C       12.21956472       8.68868607       2.74802812      -0.71337558       0.26624384      -0.50726490       0.15271039       0.70298201       1.39128482       0.01063318      -0.26711270
C       12.25881585       9.83858537       3.79887194       0.76474095       1.10486137      -0.45894012       0.51074839      -2.57506776      -0.13935453       0.02143983      -0.07764260
F       12.61768702      10.95567177       3.26165587       0.44008843       0.79049425      -0.63191494       0.99034196       1.32146740      -0.29165015      -0.00700122      -0.23136210
F       13.12593191       9.48753896       4.81133915       0.56831255       0.71930804      -0.58306417      -0.21044640       0.98810828      -0.71425688      -0.01461261      -0.25658819
F       11.06681271       9.94498607       4.31916688       0.91627384       1.76063686      -0.28173918      -0.89191449       0.52338058       0.59649318      -0.00882172      -0.16008408
C       11.86489039       7.43321588       3.56536283      -0.15008726      -1.08701929      -0.56511886      -2.08699489      -0.83966827      -0.74145168       0.02269071      -0.08182044
F       12.60376842       7.13302326       4.57787878       0.16295060       1.03246290      -0.55134111       1.90650034      -0.52215946       0.48014027      -0.00796746      -0.17173482
F       11.81066564       6.32728958       2.74027536      -0.00577651      -0.16926483      -0.24208737       0.43905053       0.94464993       0.30794477      -0.00963248      -0.22928813
F       10.63375160       7.53878892       4.11630359       0.42677944       0.77326354      -0.48522277      -0.44959691       0.13868511      -0.84040463      -0.01484559      -0.20103683
H       14.21614596       8.98230611       2.34497773      -0.27692046       0.03537708      -0.24461707      -1.08301401      -0.46377143       0.16965675       0.02101975      -0.08087243
H       11.42973251       8.89681718       2.02427329       0.20624039       0.17993063      -0.02715928      -0.42745212      -0.07872244       0.30037814       0.01288313      -0.04856443
O       10.57052758       4.83156407       0.66884327       0.42657869       0.24953253       0.14014775       0.54045707       1.06473994       1.06643116      -0.02974534      -0.09261438
C       10.32295989       3.66422400       1.35194365      -0.02857471      -0.24083630      -0.75124899      -0.18734913      -1.18270922      -0.43970695       0.01112532      -0.22722626
C        9.29060970       3.92349779       2.41565523      -0.24214825       0.01413677      -0.31113313      -0.27919310       0.55821908       0.87470359       0.02220704      -0.15911950
F        8.19606319       4.39954020       1.84652975       0.45966900      -0.79419053      -0.77989951      -0.82390356      -0.10520811      -0.55704677      -0.00970397      -0.25461981
F        9.68016652       4.88126216       3.26836925       0.13836274      -0.67759529      -0.29676773       0.57437813       0.23409624       0.30591187      -0.01066107      -0.25240248
F        8.96871692       2.87773272       3.16316687      -0.68641301      -1.62503629      -0.16404345      -0.09053785      -0.73976016      -0.05861086      -0.00866248      -0.26566371
C       11.62667422       2.98164584       1.80014448      -0.13545175      -0.53932918      -0.49397474      -0.04585939       0.28220218      -0.10069655       0.02314549      -0.12614574
F       12.40302205       3.90665740       2.43252381       1.18607207      -0.77131349       0.92081623      -0.08032056      -1.08287680      -0.42710948      -0.00830516      -0.25583601
F       12.22808296       2.56919321       0.66085907       1.11390288      -1.34925049       0.40135348       0.20416896       0.11660923       1.34468889      -0.01018738      -0.21857038
F       11.46462328       1.92129560       2.61813226       1.16208868      -1.08147189       0.06098850       0.22246191       0.83506650      -0.55485052      -0.00827756      -0.25086153
H       11.04337202       5.38776203       1.32717457       0.21429847      -0.39877882       0.24184301      -0.29767537       0.15655747      -0.84269178       0.02227134      -0.06082828
H        9.89366368       2.99791134       0.61033660      -0.06935124      -0.17825844       0.13795547      -0.32682317      -0.45407316       0.14292701       0.01314715      -0.02417177
O        8.53228112       7.12635535      11.66749741      -0.36493130       0.26442258      -0.21172806       0.04684754      -0.84756589       0.02803542      -0.02921341      -0.02344002
C        8.35943126       8.44974956      11.98477784       0.04470484      -0.02563533       0.15952854       0.42718989       0.64039963       0.82900834       0.00875700      -0.25973570
C        9.05414717       8.71880465      13.31107077      -0.24147598       0.79105965       0.00167062      -0.16676460      -0.04447449      -0.37385464       0.02197300      -0.12133440
F       10.37021910       8.48005079      13.18211041       0.67140206      -0.41117924      -0.03125214      -0.17319992      -0.41501749       0.50374210      -0.01179907      -0.22703162
F        8.60554415       7.91133697      14.29489152       0.26945559      -0.49886898       0.33959166       0.17621231       0.39580575      -0.05034658      -0.00986774      -0.29702321
F        8.88244337       9.98966946      13.63217169       0.25935820      -0.47584928      -0.60032280       0.32902682       0.05343785       0.75052309      -0.00959793      -0.20444930
C        6.86611195       8.81221948      12.06292567       0.28855205       0.27250815       0.47246075       0.08501705      -0.20600420       0.21652548       0.02095690      -0.14909181
F        6.27872527       7.97238467      12.89510527      -0.24482045      -0.37345539      -1.28413347      -0.01297885      -0.48597780       0.86466885      -0.01184462      -0.18580619
F        6.29771558       8.68230161      10.88343721       0.28369360      -1.30872067       0.31661535      -0.11226754       0.09317529      -1.16513646      -0.01190353      -0.20773250
F        6.58580198      10.05219168      12.47388804       1.55721904       0.50305809       0.03176365       0.19021155      -0.16452338       0.11720373      -0.01070382      -0.17840382
H        8.82870156       6.60105579      12.43860458       0.08823591       0.00041260       0.21120303      -0.25850874       0.41752699      -0.48487747       0.02498593      -0.03288076
H        8.87539472       9.11411879      11.27501040       0.05149608       0.03071414       0.07996622      -0.35335389      -0.21891508      -0.08935600       0.01127480      -0.04754749
O        3.95819798       1.31284308      12.06602386      -1.03845700      -0.70992943       0.12881077      -0.41926381       0.22044690      -0.33029869      -0.02634915      -0.09133621
C        2.76654111       1.70166785      11.42673453       0.28574293       0.23909074      -0.50782510       0.18558919      -0.49351543       0.09339034       0.01370257      -0.25286853
C        2.92405782       1.59612756       9.89118606      -0.24833952      -0.24218621       0.28406787       0.56772166       0.23443881       0.10506991       0.02248804      -0.12159292
F        3.49742678       0.41961752       9.58086797       0.15437164      -0.18003387       0.01842204      -0.03897412       0.23992045       0.12798138      -0.01079657      -0.27077678
F        3.63789923       2.56303093       9.28039397      -1.21163238      -0.19273553      -0.13946014       0.81910402      -0.16388173       0.51992893      -0.00992469      -0.24761531
F        1.75096282       1.69166943       9.33338044      -0.04079965       0.87381547      -0.39294421      -1.63587177      -0.40504149      -0.54334849      -0.01011376      -0.20320806
C        2.31414113       3.11384498      11.82955035      -1.20393914      -0.18601341      -0.16543409      -0.56472772       0.03968440       0.31815106       0.02379333      -0.10486432
F        3.03221065       4.06236178      11.24947389      -0.99788950       0.05633326      -0.18608393       0.61359674       0.36571258      -0.87996930      -0.00781436      -0.21221870
F        2.51262353       3.33638070      13.14345809       1.34686318       0.32805583      -0.22565241      -0.49056160      -0.91106176       0.00545553      -0.00813667      -0.22430682
F        1.02611859       3.32094433      11.49109394      -0.25877646       0.32145532      -0.16269355       0.57784873      -0.32300809       0.44415364      -0.01247211      -0.24616134
H        4.37544925       2.09204293      12.43739588      -0.39635653      -0.14419998       0.03100074       0.29355228       0.13665037       0.23160806       0.02464199      -0.04021349
H        1.97282912       0.96916960      11.69822510       0.00241178      -0.00233620      -0.11912535       0.36550236       0.56474227      -0.18944705       0.01556160      -0.05007099
O        2.31369067       6.80390773      10.72014284      -0.19478839      -0.07184555       0.59576522       0.43651167       0.23910107       0.14977130      -0.02971549      -0.14642383
C        2.05730746       7.44577519      11.91868563      -0.11374326      -0.47822897       0.44181845       1.22200441       0.99866474       0.65987235       0.00676133      -0.19896334
C        2.79795462       8.79144105      12.16913832      -0.58100889       0.47753245       0.18139629      -0.47500244      -0.71926087      -0.45915180       0.02091885      -0.10115238
F        2.60334323       9.73858724      11.24992382      -0.07148052      -0.36298961       1.38054197      -0.20685761      -0.21827224       0.46172455      -0.01162631      -0.19743986
F        4.11819024       8.58753761      12.17527107       0.45090691       0.04644982       0.49479324      -0.62263781       0.27810395       0.86882234      -0.00940994      -0.21008712
F        2.28998150       9.27175850      13.35109873       0.12110660       1.17413286       0.14819776       0.87979752      -0.35767010      -0.97680366      -0.00980390      -0.20210470
C        2.25953256       6.46340840      13.08080310      -0.16585228      -0.71345839       0.77127172       0.04931650       0.92245895      -0.25064477       0.02172608      -0.06368546
F        3.49746251       6.01353420      13.01987947      -0.64153315      -0.16805846       0.51677874       0.77385968      -0.97509938       0.02171538      -0.00865856      -0.23658361
F        1.35802874       5.52667210      12.86806008       0.02970128       0.43244964       0.83495988      -0.41217270      -0.86447477       0.27800435      -0.01060326      -0.19144492
F        2.10664938       6.86347692      14.35825367       0.10659567       0.15922606      -0.52112689      -0.43993542       0.46800676      -0.16005681      -0.00650089      -0.25506434
H        3.22860838       6.49189971      10.73369043      -0.08506859      -0.04034856       0.24411648       0.07378573      -0.04181004      -0.21214816       0.02148020      -0.06303014
H        1.05435090       7.70513961      11.92121281      -0.21862024      -0.07231480       0.06874749      -1.91456163       0.40103242      -0.01369029       0.00903540      -0.00995754
O        4.02105903      13.73045817       6.87526871      -0.48653192       1.23504540       0.11874515       0.52450287       0.68838811      -0.01098760      -0.02594490      -0.05224570
C        4.60613286      12.57219036       6.38522313      -0.27321696       1.16140177      -0.27965019       0.91399288       0.77711678      -0.85563564       0.00764993      -0.21892697
C        6.12999290      12.67289786       6.50127577      -0.40901408      -0.19959928      -0.28310853       0.68222058       0.07716683      -0.29518291       0.02201876      -0.10046276
F        6.44566159      12.59519431       7.79845129      -0.69888616      -0.20533535       1.55826025      -0.43583611       0.26516595       0.40536571      -0.01173410      -0.21652806
F        6.71284039      13.81079795       6.04254971      -0.60216928       1.65696952       0.13923332      -0.76489359       0.02102208       0.13185050      -0.01079200      -0.28452820
F        6.75460340      11.69187069       5.87488243      -0.40646378       1.01601633       0.40805905       0.09541498      -0.45773050      -0.18168762      -0.00996457      -0.20333247
C        4.20425022      12.25526661       4.93938669       0.50226858       1.09247398      -0.22647921      -0.13716224       0.44469756       1.19376612       0.02126638      -0.09759600
F        4.72628469      13.20520658       4.19723193       0.77958699      -0.01834637      -0.07039603       0.28263846       0.45292836      -0.85833901      -0.00783063      -0.14689162
F        2.90763182      12.25474763       4.68909486       0.91920894       2.00144934       0.53912261      -1.00592160       0.26574668       0.24320151      -0.00979445      -0.19399869
F        4.59972544      11.00444347       4.62591131      -0.55561917       1.17452783       0.73766146       0.50865269       0.47384006      -0.02155397      -0.01064603      -0.18044221
H        4.65372722      14.15472298       7.48148331      -0.05738466      -0.15906143       0.23340373      -0.40467981      -0.03272299      -0.24943040       0.02454758      -0.03045038
H        4.35009190      11.72101360       6.93202461       0.03371110       0.01065868      -0.01368688      -0.25950709      -1.43993473       1.06728315       0.00967232      -0.01940218
O       11.62293935      12.89476859       8.68311440      -0.98495365      -0.34425828       1.60998788      -0.25128648       1.36102831      -0.79718328      -0.02731766      -0.03616567
C       10.74285156      11.90735698       8.28012547      -0.45747544      -0.10160694       0.18719851       2.07901335      -1.74691343       0.48583618       0.00909628      -0.24565946
C       11.43528771      10.94364986       7.28004695       0.12616946       0.13476356      -0.64866981      -0.59736413       0.56324792      -0.56528860       0.01818053      -0.14228342
F       12.57383468      10.41357124       7.65793008      -0.09945566      -0.13526199       0.06419226      -0.12323051      -0.39743182       0.24042933      -0.01145956      -0.04210731
F       11.70915875      11.62580419       6.15741150       0.39560979       0.29691460       0.30278201       0.24409311       0.30626562      -0.26342356      -0.01192938      -0.23521833
F       10.61936984       9.93894540       6.97605478      -0.27974891       0.54662536      -0.64705180      -0.55790770      -0.31389508      -0.22213380      -0.01318337      -0.23707616
C        9.44215167      12.34142995       7.70479448       1.01196624      -0.78619895      -0.15858398      -1.45310962       0.45603088       0.69261873       0.02272284      -0.10823898
F        9.47617904      12.71922019       6.40565948       0.31926405       0.37964160       0.31222644      -0.33362818      -0.52548563       0.86481577      -0.00838539      -0.23164156
F        9.00709170      13.39644154       8.40874303       0.26057269       0.05686783       0.09942783       0.11795977       0.12738402      -0.50751495      -0.01186275      -0.21110693
F        8.54729498      11.33484096       7.92427543       0.38459461       0.95433058       1.44190295       0.66020256       0.48889849      -0.81838107      -0.01321825      -0.20555384
H       11.61299370      13.64961602       8.05862574       0.00252373       0.11033856      -0.00005023       0.05692410      -0.49440166       0.38818425       0.02572804      -0.04378743
H       10.55901347      11.31647950       9.19216502      -0.04374633      -0.05504649      -0.09070702      -0.37485000       0.20458540      -0.45311156       0.01007884      -0.04151868
O       14.13568466       8.74720257      10.36776635      -0.35667697      -0.10763336       0.30584122       0.42978182       0.08850241      -0.46448505      -0.02623964      -0.04062802
C       12.86548596       8.83809885      10.89306460      -0.22362746       0.35927693      -0.31524749      -0.14488040       0.36144954       0.49644592       0.01042198      -0.17845227
C       11.91706711       8.07392620       9.98461598       0.99656369      -0.25355901      -0.47975996      -0.70965636       0.48401693      -0.35426337       0.02143504      -0.10525337
F       12.40013277       6.83320478       9.99610380      -0.05796689      -0.51973347      -0.87598317      -0.47511378       0.03612290      -0.18384045      -0.01055850      -0.18595949
F       11.81564376       8.41864218       8.68667725       0.86766792      -0.47828017       0.20248765       0.54716665      -0.07949439       0.64818054      -0.01096538      -0.21783856
F       10.65943974       8.14677268      10.44791479      -0.06895781       0.19242676      -1.21334511       0.29173365      -0.49518877       0.06317937      -0.01090042      -0.23282880
C       12.56826604      10.25687518      11.40640055       0.44260366      -0.33315733       0.25060481      -0.10261995       0.16225868      -0.09133063       0.02062155      -0.15261059
F       12.43949675      11.18521542      10.46629878       0.01264596      -0.05607238       1.52188456      -0.32336149      -0.00880744      -0.56073087      -0.01020995      -0.20848098
F       13.57732625      10.63451863      12.17353270       0.25478511      -0.43505956      -0.23349264       0.51316720      -0.15821493       0.71928400      -0.01154740      -0.20949215
F       11.47882815      10.30795263      12.16382867       0.18917666      -0.29547092       1.47500459      -0.44831714      -0.03310506      -0.14037326      -0.01023529      -0.21477093
H       14.26709852       9.27094612       9.54877297       0.07886888       0.06340353      -0.16194213      -0.49400696      -0.44535109       0.75547588       0.02255317      -0.04490500
H       12.79900117       8.27206103      11.84980757      -0.13037212       0.07745650      -0.00472819       0.35072157      -0.00856216      -0.56583685       0.01332901      -0.01071748
O        2.19823827      12.09563618       7.11765186      -0.18205396       0.78182912      -0.65789420      -1.04690886       0.09507711      -0.42728055      -0.02184250       0.03757022
C        2.22473021      11.41478997       8.31637819      -0.05118781      -0.34687342      -0.44909506      -0.48327184       0.38568687       0.11238831       0.01341140      -0.20596449
C        2.14883343       9.92348006       7.92610026      -0.18420289       0.29695547       0.44867719       1.19933522      -0.27513701      -0.11213906       0.02441745      -0.06497477
F        3.18337243       9.56041106       7.08410665       0.10901145       0.79705776       0.57810529      -1.50075746       0.95776868       0.52843833      -0.01228662      -0.26443475
F        0.97369838       9.71693734       7.33915338      -0.44142858      -0.57996409       1.28612270      -0.17639348      -0.31212935      -0.94704771      -0.00775686      -0.24357790
F        2.21191717       9.06196626       8.91412760      -0.68783591      -0.13139273      -0.68355243       0.17951742      -0.33980012       0.77529311      -0.00763826      -0.16161858
C        1.03600293      11.94661473       9.19018716      -0.59155059      -0.48684834       0.11532329       0.59639156      -0.39005294      -0.76596779       0.02184957      -0.08119640
F       -0.06181131      11.80929627       8.44485726       0.25407739      -0.22513621      -0.24975061       0.51449150       0.77590424       0.39983496      -0.00977992      -0.11546505
F        1.12198506      13.21392342       9.56277279      -0.26894158      -0.42405090       0.27606989       0.42777812       0.51644260      -0.52929884      -0.01205177      -0.24530074
F        0.89779945      11.27639073      10.30814994      -0.18769919       0.31863593      -0.67270055       0.17973258      -0.73924232       0.48326117      -0.00857528      -0.14746052
H        1.32206657      11.96231586       6.71536797      -0.14549074       0.11910683       0.00071148       0.28654328       0.12780277      -0.01965777       0.02753426      -0.02650803
H        3.14538871      11.65581109       8.81644614      -0.05562385       0.03140074      -0.07519264       0.54463208      -0.10173528       0.33538651       0.01311418      -0.04701261
O        8.79861864      11.04164154       3.99540634      -0.16190985       0.22929651       0.06693501      -0.15608214      -0.11274086       0.56176615      -0.02944209      -0.05420839
C        8.67022998      12.30402387       3.43799324      -0.16595834       0.13264825      -0.45531968       0.82845366      -1.14172995      -1.09036410       0.01003070      -0.25213671
C        7.50215982      12.27091405       2.50060609       0.22350316       0.24898563      -0.29722509       0.18338811       0.22492082      -0.77142215       0.02149267      -0.14913489
F        6.43617709      12.05651600       3.21633152      -0.19111571      -0.16625985      -0.13392358      -0.74510366      -0.46630335       0.32729602      -0.00869675      -0.12278500
F        7.60392318      11.29099941       1.59976013       0.06835156      -0.33400970      -0.34470866       0.19091071      -0.12584049       0.35181037      -0.01138381      -0.18101498
F        7.30038344      13.43675819       1.85474948      -0.26480220      -0.01580382      -0.47916306       0.12672685       0.18743950      -0.28303772      -0.01050483      -0.27907300
C        9.99597318      12.71746855       2.82423124       0.44950126      -0.10620425      -0.39916849       0.60605836       0.39791256      -0.08268215       0.02125251      -0.17487447
F       10.49841278      11.76363352       2.01522865       0.50437979      -0.49186116      -0.13059919      -0.30602077      -0.03797001       0.07235234      -0.01019863      -0.27064002
F       10.89459541      12.93781883       3.80084230       0.18118219       0.74101913      -0.33149236      -0.24189667      -0.03579124      -0.19872114      -0.01209103      -0.25408527
F        9.91433720      13.83414062       2.09863039       0.15787254       0.09310294      -1.65368428      -0.14977568       0.12145412      -0.06227075      -0.01109235      -0.24819843
H        9.00903071      10.41244122       3.29882863      -0.08098418       0.00824079       0.03448450       0.00623305      -0.15448949      -0.09834693       0.02568928      -0.03251403
H        8.40567336      12.98146286       4.18804737      -0.21189462       0.04190770      -0.10830264      -0.17164651       1.13639951       1.32566977       0.01297138      -0.04115944
O        6.96170903       3.86478417       8.87967570      -0.45244915      -0.34780098      -0.71173378       0.32618293      -0.09969117      -0.17047203      -0.02552570      -0.12668534
C        6.46319825       4.18202453      10.12212189      -0.15560312      -1.37101072       0.14873212      -1.29727507       1.75172663       1.06388545       0.01199320      -0.22946920
C        5.96062338       5.69594191      10.18977214      -0.25082619      -0.01564474       0.33724537       0.24441846      -0.39072612      -1.17376900       0.02154106      -0.11225194
F        4.92509560       5.83802320       9.32859377      -0.08686340      -1.19495043      -0.07058569      -0.29125345      -0.43116149      -0.01394538      -0.01235573      -0.23564576
F        6.91151932       6.52085655       9.79057067       0.19269032      -0.20762125       0.21605726       0.21791205      -0.36462086       0.25307715      -0.01161984      -0.13652068
F        5.47138471       6.12462010      11.35707052      -0.49839753      -1.09523271       0.43728948       0.30012247      -0.67718756       0.18855397      -0.01044340      -0.23169702
C        7.44448596       3.92362284      11.24539914      -1.03289420      -0.20168402       0.69728056       0.21234326       0.20086743       0.27029207       0.02343104      -0.10947785
F        8.58069326       4.57456883      10.98919740      -0.26060012      -0.35945578       0.08844048      -0.25230157       0.49573731       0.35438868      -0.00911308      -0.15191725
F        7.75376212       2.63436903      11.24552102      -0.81744789      -0.68711558      -0.34007063      -0.00145339      -0.68963516       0.46497494      -0.01096079      -0.24828726
F        7.02792477       4.27743057      12.50199370       0.34805062      -1.28962792      -0.08641520       0.16904387      -0.39891598      -1.20607114      -0.01145887      -0.29359818
H        7.92771126       3.96958540       8.83491819       0.09308632       0.11275753       0.06674055      -0.26392889       0.14620888       0.11188329       0.02419976      -0.05852541
H        5.56400556       3.60251906      10.30984239       0.01492694      -0.01649795       0.17808976      -0.09548064      -0.27268818      -0.01987089       0.01074760      -0.05253756
O       10.55662563       3.46029576      10.04050063       0.48342632      -0.75921645      -0.45755510      -2.05284977      -0.25148171      -1.13407886      -0.03273064      -0.05371572
C       10.97225012       3.24120292      11.30383020       0.25209353      -0.90179471       0.42038841       0.29387474       1.44275832       1.18813837       0.00693041      -0.20545955
C       11.72191449       4.51769513      11.76242262       0.22073285       0.77314744      -0.81714692      -0.96229917      -0.07689691      -0.67751628       0.01952539      -0.11826403
F       10.85511149       5.58507418      11.72594700       0.05368588      -0.62849010       0.08133197       0.77742136      -0.75344950      -0.04129974      -0.01507332      -0.25319773
F       12.67372097       4.71091729      10.83744881       0.59893213       0.49104122      -0.28381730       0.40239957       0.25742474       0.70196444      -0.01112118      -0.16067782
F       12.24186476       4.49923220      12.95993456       0.34277480       0.37720503       0.96883522       0.88757855      -0.16389012      -0.03430093      -0.00860964      -0.18531586
C       11.78108259       1.98621331      11.25512431       0.80277393      -0.14866708      -0.96491875       0.09065318      -0.82326764       0.54389185       0.01937599      -0.10144988
F       12.82004627       1.94362990      10.38424441       0.60305580       0.51790046      -0.91913166      -0.84582388       0.16876028       0.30206296      -0.01240030      -0.27642104
F       10.92978484       1.01220939      10.97829842       0.35879937       0.17980214       0.81296297       0.06000061      -0.29111809      -1.32010651      -0.01228204      -0.16775501
F       12.24709077       1.69522802      12.43918459       0.24099779      -0.33556711       0.66325321       1.26268983      -0.25560626       1.53977776      -0.01040198      -0.21555968
H       11.28221490       3.71305054       9.49442385      -0.03807967      -0.11480466       0.19437455       0.83545828       0.22324252      -0.46355030       0.02001528      -0.01640443
H       10.10346850       3.13647554      11.98700854       0.12308255      -0.00317987       0.04706441       0.59861612      -0.42137852      -0.44869229       0.01018380      -0.05433057
O        6.20222659       6.96439826       7.46848167      -0.09998342      -0.27444370       0.11610486      -0.43480718      -0.88718098       1.04672647      -0.02695087      -0.02548939
C        6.94137950       7.50150298       6.47412789      -0.26195162      -0.13153823       0.54341684      -0.38706383      -0.57925522      -1.82709634       0.01107834      -0.23523372
C        6.05570944       8.56896114       5.83285539      -0.22440639       0.19565837       0.47536384      -0.23296073      -0.77477324       0.37578014       0.02025887      -0.12895331
F        5.77067821       9.40367452       6.84620141      -0.55719367       0.91781307       0.38859136      -0.17765021       0.57404989      -0.43033093      -0.01299884      -0.24007338
F        4.90780439       8.01082756       5.39646558       0.55062920      -0.35970745       0.65290076      -0.19200741       0.04355132       0.48101577      -0.01088502      -0.25826389
F        6.55225009       9.20942553       4.80619578       0.61947570      -0.29676978       0.22527637       0.62321800       0.74240547      -0.27876779      -0.00971052      -0.22098888
C        7.41626588       6.43667097       5.45885156      -1.33090650      -0.85395392      -0.45034288      -1.37520695       0.44016001       0.86094439       0.02162709      -0.09948538
F        6.39505633       5.59093290       5.15101084      -0.13031051      -1.24727228       1.39402401       0.08809359       0.63394696      -0.51648170      -0.00881824      -0.29029495
F        8.36150590       5.66382577       5.90799253      -0.41608317      -0.21956901       0.51236996       0.56957263      -0.86407858       0.84934312      -0.00986336      -0.16601191
F        7.89681988       7.06823253       4.41947560      -0.44844267      -0.60733541      -0.29443795       0.04551607       0.13024575      -1.65315127      -0.00969625      -0.22013021
H        5.48055496       6.43108038       7.10673165       0.03803953      -0.02156072      -0.11773382       0.09208739       0.08000071      -0.02870825       0.02773501      -0.02750266
H        7.80567549       7.98571723       6.86009150      -0.04809303       0.00848047      -0.09250125       0.85078174       0.42210144       0.48257574       0.01271468      -0.04752994
192
Lattice="14.05790476106759 0.0 0.0 0.0 14.05790476106759 0.0 0.0 0.0 14.05790476106759" Properties=species:S:1:pos:R:3:momenta:R:3:forces:R:3:charge:R:1:energies:R:1 Built=T with=T Packmol=T charge=0 spin=1 external_field="_JSON [0.0, 0.0, 0.0]" energy=-14.764947891235352 stress="-0.016990775242447853 -0.0032916099298745394 -0.00335822906345129 -0.0032916099298745394 -0.011771517805755138 0.0035843863151967525 -0.00335822906345129 0.0035843863151967525 -0.012674692086875439" dipole="0.5435832738876343 -0.0022269636392593384 -0.10325366258621216" free_energy=-14.764947891235352 pbc="T T T"
O       13.18020710       5.78496279       6.85787522      -0.48350386      -0.30216841       0.15600184       0.68496889       0.29765388       0.54794979      -0.02650873      -0.11667662
C       12.38701193       4.68741412       6.65306138      -0.05598235       0.08881991       0.00000784      -0.51479793      -1.34656107      -0.20286542       0.01170529      -0.21047495
C       10.97929456       5.02576667       7.11198826      -0.08166469      -0.75006534       0.37904506       0.76193857       0.07236958      -0.51877457       0.02234641      -0.12095694
F       10.54851086       6.08111890       6.43905882      -0.23908339      -0.58941944      -0.05989514       0.51958728       0.70757324       0.60695434      -0.01088961      -0.18179867
F       11.00756977       5.26109767       8.43982714      -1.38611648      -0.68604365       0.39320036      -0.30153015       1.04644001      -0.16540204      -0.00712170      -0.19194223
F       10.12541000       4.06106836       6.91711409      -0.85699014      -0.98100001      -0.05317403      -0.99837255      -1.31941271      -0.17693539      -0.00860523      -0.23161824
C       12.93724844       3.40957851       7.43942992      -0.11576235      -0.19933302      -0.85338987      -0.27054065       1.60575807      -1.65575504       0.02364948      -0.06375925
F       13.24358191       3.77403567       8.66677870       0.39921343       0.46674129      -0.33015401      -0.12769231       0.23473002       1.14803469      -0.00599700      -0.19558075
F       14.08556893       3.04553164       6.90382228      -0.22311273      -0.06707265      -0.02048034       0.20589985      -0.88945544      -0.69892704      -0.00754918      -0.24351734
F       12.05254628       2.39460924       7.48437629       0.74615166       0.02580515      -0.20695622       0.58331555       0.09011486      -0.11033877      -0.00810621      -0.27926508
H       13.10534300       6.03541649       7.79491043       0.08116401      -0.04507205       0.08647722       0.21782091       0.07462926      -0.23590337       0.02305959      -0.04783563
H       12.32063640       4.48709192       5.56395616      -0.02335306       0.20299013      -0.07447455       0.26495823      -0.12849969       0.59889984       0.01341716      -0.05031355
O        1.99939011       9.01718430       2.17691927       0.28519446       0.19656262       0.07571873      -0.19707166      -0.27435628      -0.51836669      -0.02436319      -0.19036333
C        3.02466533       9.91517622       2.43504420       0.00170519      -0.12225722       0.05614917      -0.16318145       0.03313862      -0.32461905       0.01212987      -0.22518410
C        2.72269938      11.26757152       1.79800233       0.49751939      -0.75043412      -0.14853680      -1.00956047       0.75957602      -0.42312020       0.02210281      -0.09451454
F        1.56071885      11.71078068       2.37471455      -0.70560047      -0.16773419      -0.49593800       0.07188397      -0.65021187      -0.94876933      -0.01326948      -0.24221855
F        2.59014208      11.34978405       0.43136120      -0.08687414      -0.02790387       0.20118512       0.18677673      -0.03766410       1.98850727      -0.01167239      -0.21082824
F        3.61148471      12.14943563       2.19338757      -0.90705021       0.93671428       0.78606941       1.21114361       0.53307372      -0.60600585      -0.00681240      -0.19043247
C        4.33930999       9.20121508       2.14783337       0.37236035       0.50509871      -0.06462852      -0.73658556      -0.78162360       0.37699986       0.02213034      -0.12810495
F        4.31440194       8.72639266       0.91411341       0.43774498      -0.47519910       0.02716307       0.27754208      -0.18053211      -1.30132341      -0.00859236      -0.23303370
F        4.39413723       8.09784853       2.93513869       0.65340298       1.02498307       0.11066223       0.22898653       0.66834617      -0.00581853      -0.01186525      -0.24226741
F        5.41564137       9.92570997       2.30236068       0.34774270       1.00703999      -0.26331064       0.47088516       0.21154468       0.15093514      -0.00867120      -0.23582961
H        2.17272174       8.64536354       1.28879704       0.00026067       0.00029224      -0.14357848      -0.39129063       0.01344187       0.43530080       0.02292468      -0.04179238
H        3.03496834      10.18960953       3.46965527      -0.04643934      -0.03058044       0.07061951      -0.18330006      -0.25953293       0.69066489       0.01152032      -0.02207690
O        7.48696104      12.16121678      13.43893919      -0.00041720       0.85092589      -0.13661421      -0.07346383       0.62665349      -0.04234440      -0.02710494       0.00263490
C        7.95637252      12.38139259      12.15757430       0.63035623       0.60516644      -0.00911876      -0.12554705       0.73374254       0.21260557       0.00812981      -0.25600970
C        9.35895964      13.01151553      12.18574932       0.09037689       0.21622973      -0.59537830      -1.18071449       0.26064181       0.93695819       0.02010350      -0.14717719
F       10.07351781      12.41664709      13.11500744       0.25095260       0.63560364       0.60290229       0.85023803      -1.04233539       0.50236869      -0.01241676      -0.22109541
F        9.30492166      14.27619603      12.59634247      -0.39174462       0.90672204      -0.77968493      -0.29355827       1.01795638      -0.22756825      -0.01253358      -0.23091927
F        9.97097171      12.90302506      11.02540336      -0.38600156      -0.26855537      -0.45418147       0.13608538      -0.19074735      -0.56130129      -0.01065194      -0.20881282
C        6.90947547      13.19208893      11.38658458      -0.23017135       0.48274073      -0.52111821      -0.01512363       0.12408610       0.81828529       0.02226743      -0.12929255
F        6.71365757      14.36325282      12.02893741       0.25465687       0.65636014       0.03422971      -0.21006563      -0.00892338       0.20420252      -0.01179699      -0.24392863
F        5.71420814      12.55805409      11.40009629      -0.59689934       0.50841128       0.35631074       0.66344231       0.18161592      -0.53735733      -0.01304899      -0.28476539
F        7.29560788      13.49554447      10.16546380      -0.54234453       1.05264098       0.36474577      -0.33084750      -0.25990674      -0.43388858      -0.01043980      -0.22957340
H        7.04700487      12.95150637      13.78228201       0.05199980       0.10883379       0.07499494       0.17403544      -0.00409276      -0.06753946       0.02562775      -0.03045530
H        8.11967576      11.42576268      11.72372370      -0.09276306       0.01218232      -0.01107873      -0.15042974      -0.74663126      -0.72152424       0.00990872      -0.03131302
O       13.38286751       8.53718457       1.96269295       0.15117457      -0.60039313      -2.87580303      -0.82820970      -0.04593905       0.61046654      -0.03444502      -0.11911393
C       12.20145783       8.70385754       2.73996338      -0.07155775       0.40402476      -0.01599519       1.36195016      -0.14801489      -0.13571337       0.01125607      -0.23762518
C       12.29254907       9.85539238       3.77991546       0.81213391      -0.25867231      -0.43855929      -0.37184903      -2.22820377       0.20415443       0.02206948      -0.10466376
F       12.63615251      10.98536314       3.24272801       0.99655205       1.47154377      -0.83373553       1.06032240       0.86565185      -0.29650584      -0.00718552      -0.23152462
F       13.13985560       9.51280064       4.79150870       0.52934567       1.23157755      -0.94511440       0.03912086       0.91500872      -0.61825341      -0.01361768      -0.25385818
F       11.08599836       9.99405322       4.31502608       0.61905864       2.01198650      -0.07032763      -0.27722341       0.22127976       0.21038261      -0.01054850      -0.17448616
C       11.84082504       7.38929667       3.53509815      -0.90113725      -0.83257505      -0.85868488      -0.55010188       1.90229201      -0.05809192       0.02301865      -0.10222670
F       12.61964009       7.15605715       4.56585897       1.01386107       0.73088010      -0.42953442       1.25801909      -0.74045652      -0.12131504      -0.00961574      -0.20044145
F       11.81310860       6.32711453       2.73534183       0.18096695       0.07745229      -0.17236756       0.26698312      -0.00713550      -0.08514407      -0.00557610      -0.22730356
F       10.64098059       7.55895044       4.09859765       0.08561465       0.74832829      -0.86615562      -0.99202156      -0.32059103      -0.59958822      -0.01363984      -0.21028702
H       14.13666945       9.04048607       2.30684201       0.09444270       0.26397776       0.10864268       0.11088056      -0.14732704       0.14777900       0.01992073      -0.07296033
H       11.42851660       8.97675250       2.01322039      -0.20329171       0.12971510      -0.00353804      -0.34885657      -0.30409825       0.44629937       0.01278051      -0.05151884
O       10.58665125       4.84340097       0.68092150       0.54346710       0.36702781       0.57633627      -0.31112713      -0.66781038       0.36881259      -0.02926628      -0.08443890
C       10.31803893       3.64057957       1.31963384      -0.25153404      -0.92846974      -0.74687204      -0.58066255      -1.23674321       0.59764344       0.01241405      -0.20488085
C        9.28043628       3.92454476       2.41236482      -0.19305864      -0.08306358       0.14372832       0.44862944      -0.87168425       0.77320117       0.02232160      -0.15246165
F        8.20184144       4.37872790       1.82259615      -0.03880374      -0.79478229      -1.06089468      -1.10313678       0.14682615      -0.40303084      -0.00840113      -0.24971466
F        9.68696732       4.86493404       3.26268548       0.36619368      -0.59072742      -0.13774366       0.30262050       0.16460745       0.35791865      -0.00923958      -0.26146090
F        8.95087534       2.83317977       3.15706096      -0.67167380      -1.72441819      -0.35355906       0.18014713       0.44308686      -0.59204656      -0.01097601      -0.27772903
C       11.62439054       2.96136816       1.78196059       0.09993043      -0.47541404      -0.32407257       0.84805292       0.01785292       0.75070697       0.02338264      -0.10857092
F       12.43177094       3.87903538       2.45254431       0.97804684      -1.37336013       0.58369184      -0.79907519      -1.14587665      -0.94985563      -0.01033635      -0.25295609
F       12.25808769       2.53510296       0.67951748       1.19692751      -1.27295356       1.01510451       0.07162455       0.30041677       0.98170370      -0.00949468      -0.21695855
F       11.49562432       1.89912508       2.61558663       1.20321101      -0.61439502      -0.27105000      -0.18180573       1.04124355      -0.69015265      -0.00931015      -0.24326524
H       11.13371491       5.25907431       1.35071301       0.22104338      -0.04220628      -0.08321218       0.34040043       1.05407095      -0.25767621       0.02212800      -0.02801960
H        9.83461636       2.88595023       0.67761162      -0.12940601      -0.20047592       0.11352213       0.16215222       0.45484769      -0.19895200       0.01370367      -0.04154810
O        8.52281893       7.12676949      11.66518449      -0.29070649      -0.11611345      -0.02220830      -0.35253242       0.45197523      -0.80172813      -0.02920419      -0.05226614
C        8.36472658       8.45525540      11.99919065       0.17334117       0.26642098       0.50681578      -0.03561745       0.32293543       0.31513429       0.00923456      -0.26822591
C        9.04640547       8.74284160      13.30795139      -0.04162859       0.21089828      -0.12430908       0.96252233      -2.05629706      -0.00601659       0.02265958      -0.07935376
F       10.38483160       8.46725246      13.18460354       0.39785394      -0.55856084       0.22431336      -0.89697677      -0.16291045       0.49330088      -0.01399543      -0.21783940
F        8.61381172       7.90203576      14.30260116       0.36999996      -0.17951198       0.22522438       0.16890480       0.87309879      -0.42341772      -0.01145609      -0.29144537
F        8.89101217       9.98053565      13.62232665       0.39306777      -0.12848682      -0.12603888       0.20074272       1.22981620       1.14602494      -0.00665032      -0.17465949
C        6.87818642       8.81945633      12.08052579       0.27754122       0.03581339       0.29976140      -0.20508213      -0.73767817      -0.82864642       0.02120437      -0.14549194
F        6.27225962       7.95974085      12.86855461      -0.25120987      -0.59052096      -0.72045795       0.03845066      -0.30028090       1.43574798      -0.01140047      -0.16567823
F        6.30512634       8.64996523      10.88512454       0.32074374      -1.14358678      -0.14749148       0.25278741       0.68416059      -0.68651444      -0.01347027      -0.20572171
F        6.62707706      10.06412477      12.47549894       1.60983221       0.40759190       0.09135001      -0.13909349      -0.31974554       0.09507217      -0.00928421      -0.18479198
H        8.82418658       6.66804116      12.43384321      -0.05195260       0.15771753      -0.10929335       0.33415592      -0.83044744       0.79977900       0.02417629      -0.02020528
H        8.86357798       9.11156470      11.29007790      -0.07785168      -0.01539038      -0.04474998      -0.11159037       0.05514240      -0.35951164       0.01138866      -0.04628057
O        3.92181551       1.28985996      12.06590757      -1.21479967      -0.62251919      -0.03961902       0.69307178       1.68447542       0.60107905      -0.02617709      -0.09965447
C        2.77625042       1.70615351      11.40692276       0.12894767       0.03148618      -0.46374705      -0.64320254      -0.00884273       0.11902386       0.01281940      -0.22928649
C        2.91979320       1.59018595       9.90000982       0.02334527      -0.01165459       0.05190348       0.35878459       0.65530962      -1.01341188       0.02250281      -0.12817118
F        3.50070446       0.41657119       9.58238547       0.08177024      -0.05153372       0.10434543      -0.24585131       0.28416976       0.18666933      -0.01030103      -0.27074772
F        3.61244970       2.55728748       9.27998064      -0.71865623      -0.23589366       0.09960389       1.26623034       0.03323687       0.40873936      -0.00992901      -0.22795515
F        1.73965886       1.71103054       9.32055345      -0.80440865       0.59081359      -0.55759456      -1.25081444      -0.79310220      -0.03701822      -0.01148532      -0.20364705
C        2.26690816       3.10820206      11.82543038      -0.90075148      -0.06047575      -0.05667973       1.86460745       0.39106178       0.07317577       0.02494912      -0.04756129
F        3.00934178       4.06573316      11.23902098      -0.79842889       0.18654572      -0.61637196       0.28832129       0.14982310      -0.78783572      -0.00975216      -0.20723866
F        2.54356956       3.33869207      13.13726184       1.00526850      -0.16263361      -0.26356354      -0.98214006      -1.04903555      -0.11271341      -0.00814814      -0.21300071
F        1.02087082       3.32726452      11.48986266      -0.23754562       0.16990792       0.07315604      -0.48832688      -0.29147804       0.50589216      -0.00899367      -0.23154251
H        4.26667013       2.09520974      12.52493017      -0.09478590       0.00689767       0.26933941       0.02690901      -1.15465343      -0.26928139       0.02550565      -0.02186980
H        1.98811820       1.00964923      11.63021662      -0.03380737       0.07765848      -0.12093893      -0.62389404      -0.39769462       0.23280898       0.01528869      -0.02896945
O        2.31031249       6.80399322      10.74040733       0.01319270       0.07409279       0.74917166       0.78415424       0.21700667       0.42474166      -0.03024482      -0.16226038
C        2.04716789       7.44061490      11.94430992      -0.69137084       0.27401421       0.80098350      -2.13906217       1.48520613       0.51236719       0.00609566      -0.18409683
C        2.77267948       8.79980516      12.17519402      -0.56945043      -0.13975002       0.19089890       0.56497031      -1.52974164       0.43325371       0.02073595      -0.10317466
F        2.59951435       9.72972794      11.28625286      -0.24881140      -0.25043200       1.32415813      -0.48303601       0.62809998      -0.80165386      -0.00969054      -0.18311901
F        4.12399673       8.59058878      12.19355433      -0.07050719       0.18464735       0.91019298      -1.43177438       0.20875578       0.73179221      -0.01233966      -0.21585496
F        2.29832819       9.29984713      13.34942607       0.50366981       0.98679493      -0.24196861       0.60453343      -0.49939811      -0.52066642      -0.00916463      -0.20353018
C        2.25381162       6.44817874      13.10605266      -0.09960885       0.04235435       0.37542173       0.22672130       1.75502384      -1.27835596       0.02135969      -0.06643521
F        3.48715877       6.00191431      13.03358595      -0.12206844      -0.75233229       0.54411224       1.13881898      -1.19263446       0.02204187      -0.00854288      -0.23483287
F        1.35460416       5.53012010      12.89153959      -0.33493211      -0.22714297       0.97698842      -0.87008399      -1.55764127       0.21348335      -0.01013283      -0.18355739
F        2.10634058       6.87114606      14.34613598      -0.13935558       0.45546414      -0.32235050      -0.53333020       0.70604521       0.95405966      -0.00559299      -0.25013012
H        3.21688604       6.45422941      10.81502538       0.00361815      -0.10656946       0.07251749      -0.22879639       0.02697617      -0.40762290       0.02169296      -0.05588578
H        0.92857733       7.67389447      11.95584704       0.03120207      -0.11315505       0.07639033       1.69238949      -0.21759641       0.01320774       0.00856008      -0.01056745
O        4.01038630      13.77249771       6.87775625      -0.21700702       1.43366134      -0.02295211       0.53032446      -0.07349356      -0.65751779      -0.02542869      -0.06981918
C        4.60167044      12.61731881       6.37306772      -0.00303641       0.80139665      -0.09987428       0.31281871      -1.79168510       1.46664429       0.00800575      -0.19192173
C        6.12083087      12.67199063       6.49219233      -0.03603474       0.29361860      -0.03976917       0.71858776       1.70795298       1.12901735       0.02205432      -0.08813950
F        6.42394783      12.59173312       7.83828638      -0.99761511      -0.05381137       1.40390267      -0.61747277       0.36278644      -1.03325307      -0.01452281      -0.22252381
F        6.69195882      13.85211836       6.04787750      -1.01490986       1.46753017       0.30148288      -0.76532668      -0.85315788       0.47302786      -0.01219000      -0.28298751
F        6.74530507      11.71447667       5.88370521      -0.28392544       0.69901730       0.25230366       0.43184417      -0.83658671      -0.43207121      -0.00745936      -0.19048674
C        4.22089718      12.30222203       4.94419310       0.24962143       1.14092999       0.47183315      -0.84875292      -0.28816551       1.26445687       0.02121536      -0.10737890
F        4.74958702      13.20954201       4.18836688       1.05229875       0.41043505      -0.65153433       0.60197937       1.09481502      -1.24179161      -0.00664227      -0.12482841
F        2.92438168      12.30901651       4.70430279       0.35561948       2.20616181       0.62612026      -1.23926961       0.35667121       0.09815329      -0.01051097      -0.18456303
F        4.58891108      11.03764226       4.64487452      -0.26898343       1.38017957       0.72706540       0.64271218       0.28713757      -0.05136777      -0.01148918      -0.18791582
H        4.58553236      14.08692242       7.58027036      -0.18029219      -0.08357956       0.22354191      -0.01773186       0.31246707       0.23289487       0.02399075      -0.03173631
H        4.36082667      11.67318810       6.97212034       0.06208594       0.04662096       0.00560965       0.24413107       1.22756493      -0.75178832       0.00948386      -0.01151273
O       11.59088085      12.89514924       8.72617639      -1.09198442       0.19923324       1.31435731      -0.10377535      -0.44865945       0.44044715      -0.02733653      -0.03282735
C       10.74838589      11.88725308       8.28845477       0.73550318      -0.80458656       0.12380307       2.06243348      -0.89374667      -0.51443857       0.00966893      -0.25026321
C       11.43471533      10.95388133       7.25211186      -0.12715038       0.32098287      -0.61023892      -0.27374944       0.02646559       0.71326083       0.01843093      -0.14494437
F       12.57001755      10.40762105       7.66065235      -0.21821543      -0.31742216       0.12285886      -0.37639692      -0.29957855      -0.04402819      -0.01231309      -0.05480234
F       11.72139805      11.63620234       6.16235855       0.56064005       0.53227763       0.03511741       0.34705225       0.58548015      -0.78334832      -0.00962876      -0.22803825
F       10.60863881       9.95118157       6.95742073      -0.54285093       0.40621866      -0.80396932      -0.44837713      -0.23306477      -0.32381386      -0.01283710      -0.24399658
C        9.46398730      12.32000530       7.70627026       0.00480844      -0.13686633       0.24848443      -2.01128983       1.91615582       0.90139467       0.02242588      -0.07826394
F        9.48280867      12.72507551       6.41901686       0.20270518       0.05138085       0.70174187      -0.22145420      -0.77082962       0.60208684      -0.00818800      -0.23294914
F        9.01573897      13.39782786       8.40770725       0.43820300       0.03293440      -0.18034955       0.46591818      -0.08058538      -0.50498199      -0.01403397      -0.20910612
F        8.56094925      11.36132918       7.95617040       0.63028639       1.02693574       1.00883530       0.14095768      -0.33763275      -1.00520921      -0.01186203      -0.19730194
H       11.61649322      13.62129970       8.12217547       0.00497147      -0.09547718       0.14773450      -0.01299528       0.84098864      -0.77928358       0.02527280      -0.04467618
H       10.49370290      11.28640140       9.14169511      -0.20218618      -0.11701600      -0.03012086      -0.06832435      -0.26720688       0.42180386       0.01050200      -0.03784639
O       14.12912484       8.74567738      10.37211070      -0.08887372      -0.09180234       0.15427402       0.28840947      -0.90080273       1.33690178      -0.02499386      -0.02702563
C       12.85539608       8.85467768      10.88389961      -0.24360603       0.40115880      -0.18407855       0.15517235      -0.30392599      -0.00359737       0.01119506      -0.14370696
C       11.94560862       8.06890467       9.96309303       0.29821021       0.01145170      -0.51814339      -1.88712275       0.50800520       0.31559584       0.02171897      -0.09849689
F       12.39626434       6.81990305       9.97259694      -0.21912932      -0.50091522      -0.91978721      -0.20301475       0.14122938       0.09655173      -0.00965379      -0.19541198
F       11.84217523       8.40630524       8.69397207       1.19341564      -0.44517129       0.26907546       0.62724358       0.29512891      -0.47699994      -0.00939293      -0.19852749
F       10.66081695       8.14852048      10.41658399       0.20740370      -0.06038165      -1.20567043       0.65952533      -0.52173126       0.12446193      -0.01324530      -0.23783092
C       12.58128561      10.24667347      11.41713712       0.11013851      -0.11994400       0.31135236      -1.08527422       0.68148851       0.34705445       0.02086890      -0.14539248
F       12.43750211      11.18442813      10.50153269      -0.17645323       0.01996664       1.17110015      -0.42777964       0.29106534      -0.94468194      -0.01008264      -0.20577230
F       13.58820177      10.62193235      12.17270659       0.61087065      -0.54697513       0.18917579       0.78116125      -0.24909821       0.93248641      -0.01052861      -0.20029451
F       11.48242455      10.29977017      12.20053071       0.14220903      -0.34550053       1.32883040       0.18772608      -0.12125201      -0.56297708      -0.01177799      -0.21546733
H       14.24176527       9.23378803       9.58140386      -0.13759079      -0.09552393       0.09661844      -0.01793924       0.78222549      -1.30979872       0.02209140      -0.03753117
H       12.78171815       8.28892992      11.80542448       0.05585652      -0.05495501      -0.09612944       0.30543569      -0.49591589       0.30258611       0.01368850       0.00455233
O        2.18316357      12.11883487       7.09533254      -0.72118097       0.69001120      -0.69892182      -0.22312306      -0.40559927       0.65694851      -0.02209979       0.03605210
C        2.21804966      11.40846189       8.29997680      -0.20324257       0.12858443      -0.30718077       0.21623194       1.39737248       0.56785721       0.01360521      -0.21268789
C        2.15222569       9.93182561       7.94012451       0.28590023       0.08707465       0.17429698       0.42178303      -0.54562765      -0.83932590       0.02409930      -0.07376905
F        3.17685619       9.58707144       7.10224732      -0.58966175       1.24775550       0.80149830      -1.17977619       0.71826673       0.22230150      -0.01099977      -0.26286265
F        0.96102530       9.70031201       7.36626440      -0.52602476      -0.68430816       0.79725844      -0.02447703      -0.04261887      -1.10093296      -0.00951791      -0.23654650
F        2.19579081       9.05588897       8.90310276      -0.53020856      -0.34985739      -0.10741015       0.52975070      -0.45554787       1.48594999      -0.00725918      -0.14861459
C        1.02190144      11.92618857       9.18467834      -0.01378964      -0.42529952      -0.41062837       1.57039380       0.63673496      -1.03030503       0.02136181      -0.06003152
F       -0.05372246      11.80815934       8.44022381       0.30431750       0.12814998      -0.13665157      -0.29278123       0.64984107       0.06159697      -0.00866925      -0.10941774
F        1.11759178      13.20590760       9.56631853      -0.07109075      -0.21158062      -0.01471762       0.41775844       0.32781419      -0.66989797      -0.01392525      -0.24835962
F        0.89355528      11.27821961      10.29580615      -0.15221924      -0.23200740      -0.22499577       0.04394729      -1.35759890       1.12920666      -0.00744820      -0.13622469
H        1.30615314      12.03660250       6.72162176       0.00510248       0.17005594      -0.00653841      -0.46067804      -0.03517648      -0.31603014       0.02675077      -0.03290037
H        3.16802351      11.65406165       8.81236529       0.05650219      -0.05499200       0.00885616      -0.39178398      -0.24807489      -0.17024846       0.01316584      -0.05041955
O        8.79220446      11.04895208       4.00144071      -0.25097229       0.24467575       0.27536623      -0.12040222      -0.05344416       0.04489905      -0.02922218      -0.05817825
C        8.67010302      12.30492339       3.41628765       0.10228578       0.11120591      -0.38270455       0.27183715       0.92121810       1.22100115       0.01008209      -0.22506227
C        7.51019734      12.28087978       2.48063669       0.10129155       0.18146221      -0.64607052      -0.61291975      -0.46179280      -0.36443752       0.02179997      -0.15971307
F        6.42816293      12.04964161       3.21383531      -0.35693692      -0.34661756      -0.10735167       0.12046724      -0.22833164      -0.24417260      -0.01004846      -0.12882183
F        7.60684984      11.28197111       1.59311222       0.15479542      -0.34856530      -0.17144661       0.14783488       0.07166064       0.32613644      -0.01136185      -0.17850213
F        7.29432559      13.43751727       1.84042902      -0.20359215       0.07429946      -0.63117294       0.12594369       0.17972860      -0.30211234      -0.00933060      -0.27429807
C       10.01803994      12.71878687       2.80706490       0.56125942       0.19312919      -0.43713235      -0.22183736       0.64280915      -0.04518430       0.02139718      -0.17244102
F       10.50983029      11.75077147       2.01237653       0.38791156      -0.49195370      -0.08829413      -0.20158677       0.10605127       0.09892545      -0.00968287      -0.26794764
F       10.89781001      12.95691015       3.79045662       0.07328071       0.73670531      -0.48590645      -0.16911897      -0.02774093      -0.35662729      -0.01142273      -0.25558847
F        9.91789451      13.83602961       2.05576811       0.13249156       0.01031002      -1.63535574       0.03339175      -0.38794264       0.26776320      -0.01183751      -0.25257885
H        8.97035443      10.39621019       3.30346685      -0.08705835      -0.04134744       0.02224902      -0.07325690       0.16315866       0.25282222       0.02590150      -0.03386892
H        8.33025392      13.05585259       4.20721753       0.00915935       0.06306282      -0.02518319       0.94877642      -0.93449003      -0.85481435       0.01288989      -0.03716221
O        6.95244836       3.85370777       8.85951216      -0.24006960      -0.37056879      -0.48089162      -0.60300058      -0.06690035       1.23205888      -0.02629607      -0.14989495
C        6.44355133       4.14741454      10.13740498      -0.81923569      -0.28033923       0.54539154      -1.37322640       2.23739743       0.40378079       0.01257074      -0.18772845
C        5.95346572       5.68809653      10.19103181      -0.09703128      -0.42956323      -0.26939744       0.26687774      -1.10414076      -1.06516325       0.02152158      -0.10048837
F        4.92120597       5.80458008       9.32692848      -0.20606220      -1.36987688      -0.05213812      -0.18930227      -0.14727405       0.05836307      -0.01227086      -0.23824535
F        6.91693781       6.51247646       9.79816654       0.18989646      -0.46597134       0.38021153      -0.22583382      -0.65886658       0.34869081      -0.01175492      -0.13518687
F        5.46022178       6.09218002      11.36960274      -0.36123931      -1.40018137       0.51391850       0.34329674      -0.48533961      -0.04003216      -0.01047635      -0.23942618
C        7.41019709       3.91483893      11.27160224      -0.51261680      -0.28929733       0.44733124       1.75022173      -0.51921815      -1.34802353       0.02341386      -0.09543858
F        8.57095669       4.56757675      10.99414254      -0.53300232      -0.20727535       0.30442977      -0.71947664       0.17721997       0.46202075      -0.01125668      -0.17423458
F        7.73240006       2.61256183      11.23994942      -0.83513124      -0.97237262      -0.08256682       0.00807656      -0.34722930       0.55153793      -0.01269737      -0.24855743
F        7.03686178       4.24200724      12.49442571       0.29373438      -1.41528487      -0.39122550      -0.41978800       0.03667432       0.09395696      -0.00805800      -0.28681028
H        7.89651678       4.03051335       8.87294649      -0.15171690       0.13437891       0.06558480       0.43408823       0.11411194      -0.15082777       0.02352709      -0.05636654
H        5.55208379       3.55557791      10.37663804      -0.04299856      -0.15261428       0.05818848       0.10655133      -0.01621597      -0.45512608       0.01069383      -0.05636830
O       10.55636745       3.43394495      10.02156800      -0.21973508      -0.89753830      -0.81793558       0.55388218       0.20377633      -1.01231456      -0.03460424      -0.06105671
C       10.99062225       3.22280966      11.32478936       0.74768386       0.04918262       0.39111315       1.23097360       1.93247783      -1.15103722       0.00638532      -0.19651055
C       11.72300678       4.54330072      11.72955109      -0.11164268       0.35725361      -0.61490500      -0.26698080      -1.50998580       1.40617478       0.01948602      -0.12539992
F       10.86091842       5.56515204      11.72720661       0.36416328      -0.85225198      -0.00576385       0.38364345      -0.01749577      -0.29816821      -0.01214314      -0.24822623
F       12.69196651       4.72561103      10.83419365       0.80856893       0.65041303       0.02266328       0.32966176       0.29724443       0.58430701      -0.00978899      -0.15912500
F       12.25540154       4.50840051      12.98136828       0.66558185       0.34197276       0.56317877       0.39934459      -0.04972185      -1.53403556      -0.01291675      -0.19712381
C       11.81397639       1.97251418      11.22837014       0.77061409      -0.47311195      -0.18737022      -0.32356268      -0.24653181       2.37097764       0.01958356      -0.07338703
F       12.83092753       1.95761054      10.36208705       0.26222399       0.53500848      -0.79487076      -0.55638421      -0.17981707       0.31223258      -0.00973520      -0.27711689
F       10.93990133       1.01427805      10.99022556       0.44061019      -0.04408032       0.08488707       0.25917837      -0.56777519      -1.58365476      -0.01136001      -0.15103480
F       12.26138358       1.68528375      12.46306960       0.86162719      -0.42426206       1.06748583       1.18895411      -0.12912288       0.10410855      -0.01308971      -0.22913370
H       11.37226526       3.68928828       9.51348769       0.16003825      -0.06039915       0.02690615      -1.33844519      -0.42194811       0.63456720       0.02058286      -0.01145389
H       10.17482683       3.07669457      11.99642767       0.05213276      -0.24116899       0.07420205      -0.57016724      -0.36348590       0.34195587       0.01055104      -0.06318067
O        6.19549534       6.94904792       7.47974156      -0.31604693      -0.70353727       0.58554561      -0.20489088      -0.63566834       0.62612641      -0.02654695      -0.04974327
C        6.92999463       7.49303218       6.47759289      -0.14934647      -0.17805995      -0.29542391       1.03653443       0.49055868      -0.99038851       0.01110369      -0.21502683
C        6.04627769       8.57007744       5.85541898      -0.18204576      -0.09568430       0.59317931       0.41402557      -0.23273724      -0.04758710       0.02038307      -0.14322236
F        5.75522243       9.43070028       6.85313019      -0.62591543       1.13930708       0.12735565      -0.01930617       0.15597638      -0.65925926      -0.01260831      -0.25084755
F        4.92000038       8.00176598       5.41621833       0.35595333      -0.33990891       0.85957469      -0.62251514       0.06503660       0.28050381      -0.00945165      -0.25571823
F        6.57161203       9.20591709       4.81147973       0.84114859      -0.00258104       0.23822330       0.16439764       0.40168494       0.36678305      -0.01099201      -0.23371646
C        7.35650962       6.40927408       5.45173472      -1.34338804      -0.41789143       0.13361225       1.55612361       1.22557342       1.21322489       0.02257103      -0.07809826
F        6.39007501       5.56094502       5.18297110      -0.33986691      -1.12642170       1.03678601      -0.89706391       0.00827488      -0.99907923      -0.00406178      -0.26554427
F        8.35242210       5.65373211       5.92583471      -0.36923590      -0.50527023       0.82834700      -0.40214908      -0.18699904       0.36176464      -0.01243128      -0.17752931
F        7.88396623       7.05187516       4.40244723      -0.60634545      -0.71461988      -0.95748630      -0.66017759      -0.53118455      -0.84574240      -0.01151935      -0.22889744
H        5.50267215       6.42582415       7.06016849       0.01976550      -0.02202716      -0.05132717      -0.24411932      -0.14035857       0.25093001       0.02788516      -0.01306210
H        7.84972259       8.01009089       6.85957003       0.07441585      -0.01296175       0.02185923      -0.69174129      -0.64821082      -0.20278610       0.01250986      -0.05519610
192
Lattice="14.05790476106759 0.0 0.0 0.0 14.05790476106759 0.0 0.0 0.0 14.05790476106759" Properties=species:S:1:pos:R:3:momenta:R:3:forces:R:3:charge:R:1:energies:R:1 Built=T with=T Packmol=T charge=0 spin=1 external_field="_JSON [0.0, 0.0, 0.0]" energy=-15.230098724365234 stress="-0.014011706225574017 -0.0018136160215362906 -0.0009222529479302466 -0.0018136160215362906 -0.006609333213418722 0.00010595246567390859 -0.0009222529479302466 0.00010595246567390859 -0.008931229822337627" dipole="0.423772931098938 -0.1129629909992218 -0.18419067561626434" free_energy=-15.230098724365234 pbc="T T T"
O       13.17097093       5.77892451       6.86793641      -0.10936783      -0.09503296       0.44167399       0.75580883       0.28280047      -0.02605529      -0.02645760      -0.09786940
C       12.37940534       4.67840708       6.65175107      -0.28998052      -0.47025368       0.01373282      -0.21123244      -0.63384837       0.59825021       0.01281040      -0.25684643
C       10.97943653       4.99691320       7.12195667      -0.02796627      -0.63519392       0.11145347      -0.62351483       0.38256049      -0.48613158       0.02236885      -0.14287192
F       10.54602142       6.06895487       6.44190209       0.06270790      -0.39966943       0.29476338       0.69375944       0.12346200       0.76715171      -0.01237319      -0.18404154
F       10.96974261       5.24941223       8.44832866      -1.52300480      -0.23877743       0.22740847      -0.08847423       0.78123206      -0.59595168      -0.00793030      -0.19303617
F       10.09819646       4.02817739       6.91478985      -1.17769070      -1.50362721      -0.11803666      -0.13944028      -0.57906103      -0.07105147      -0.00942001      -0.24514481
C       12.93165926       3.41810603       7.39362401      -0.09970722       0.59129623      -1.20615104       0.41710684       1.23935068       0.48985192       0.02436467      -0.08374994
F       13.25233065       3.78744960       8.66302366       0.24194728       0.56123804      -0.06806491      -0.53626782       0.11863679      -0.12905343      -0.00972676      -0.20734736
F       14.08184951       3.03804400       6.89792418      -0.04584644      -0.50226223      -0.46785495       0.42106137      -0.74387193      -1.05452001      -0.00674051      -0.23408893
F       12.07488309       2.39533143       7.47795695       0.94929167       0.02180138      -0.30516737       0.18592016      -0.00269314      -0.28853449      -0.00717035      -0.27267379
H       13.16774582       6.01402013       7.79920991       0.16122404      -0.04127641      -0.00663277       0.06467655       0.05522066       0.37627104       0.02308002      -0.05615443
H       12.33443532       4.55348093       5.58287613       0.05983028       0.03168077       0.05549307       0.02966629      -0.54647416      -0.43146977       0.01404193      -0.04216049
O        2.00623566       9.01971333       2.17333304       0.11376881      -0.01107898      -0.20813858      -0.70221716      -0.10313638       0.51518923      -0.02477586      -0.17491861
C        3.02429261       9.91134818       2.43900672      -0.00365758      -0.05385584       0.23456334       0.03577137       0.13789669       0.65143788       0.01274964      -0.25584674
C        2.73084909      11.25020777       1.79015220      -0.12667348       0.01726289      -0.15429162      -1.31911504       2.09112716       0.54856384       0.02263982      -0.08130482
F        1.54372562      11.70130672       2.35552628      -0.58317790      -0.58825667      -0.98648618       0.37878007      -0.90464073      -0.89651483      -0.01535243      -0.23681781
F        2.58961180      11.34836887       0.44876066       0.06262692      -0.09541285       1.10331632       0.38179415      -0.19782630       1.43406534      -0.00946461      -0.20535733
F        3.59481082      12.17566339       2.20947173      -0.41267767       1.03004664       0.43549594       0.83471739      -0.20792823      -0.85624939      -0.00801938      -0.19732571
C        4.34768388       9.21357032       2.14814530       0.06488000       0.10236475       0.04452214      -0.39932576      -0.71970087      -0.04670533       0.02203446      -0.14004992
F        4.32764338       8.71356495       0.90746682       0.58499062      -0.48527075      -0.49239791       0.25094342       0.20190141      -0.69179136      -0.00960989      -0.24247023
F        4.41288970       8.12847921       2.93847226       0.80345798       1.31732448       0.16886153       0.29694396       0.32101184       0.25254285      -0.01119703      -0.23688759
F        5.42708508       9.95309788       2.29613213       0.49756680       1.08875995      -0.23124866      -0.01107915      -0.06648143      -0.00443289      -0.00883172      -0.23857585
H        2.12493511       8.66066523       1.29815771      -0.16255247       0.02445963       0.07215216      -0.02716534      -0.35266927      -0.68854398       0.02247129      -0.04947040
H        2.99830383      10.13950387       3.52142715      -0.08437421      -0.17067998       0.01881659       0.05110246      -0.16672070      -0.60775471       0.01189038      -0.03239790
O        7.48659653      12.19294289      13.43450686       0.01206499       1.17203951      -0.17635528       0.29291135       0.15753500      -0.28343847      -0.02706534      -0.00163472
C        7.97625264      12.40793882      12.15602689       0.22746182       0.52432687      -0.15416397      -1.48454952      -1.01262677      -0.71040934       0.00835727      -0.25080061
C        9.35350327      13.02315259      12.17398202      -0.26661763       0.34766042       0.06814199      -0.10169355       0.20334511       1.47849655       0.02056711      -0.15750369
F       10.08432840      12.42806292      13.13207133       0.53277732       0.30769323       0.64208928       0.20979208      -0.30730698      -0.39660349      -0.01336400      -0.23753333
F        9.29314936      14.30506176      12.57405400      -0.50545126       1.27007216      -0.95609555      -0.12277106       0.31932291      -0.35619670      -0.01247012      -0.23427528
F        9.96199738      12.89499182      11.01011857      -0.31308274      -0.34209273      -0.69598338       0.08162345      -0.05853957      -0.16478658      -0.01028659      -0.20519847
C        6.90085099      13.21265493      11.37772727      -0.16911595       0.51444409       0.16188330       0.25329345       0.02363849       1.65237033       0.02200760      -0.10814774
F        6.71851381      14.38044115      12.03110043       0.10287501       0.67922507       0.13543346      -0.41826379       0.05596048       0.22775239      -0.01191006      -0.23958489
F        5.70347652      12.57280865      11.40581627      -0.21026554       0.64192781       0.08315853       0.91970807       0.28160843      -0.55850112      -0.01327334      -0.28899825
F        7.27952442      13.52169063      10.17030933      -0.69511580       0.97580686      -0.04406740      -0.24432936      -0.19117948      -1.04953718      -0.00963213      -0.22292551
H        7.10135014      12.99336780      13.79942272       0.15431387       0.09654283       0.00170068       0.01915441       0.32137895      -0.02187967       0.02546838      -0.03250877
H        8.06273761      11.40859970      11.66721276      -0.12429674       0.07715816      -0.12861504       0.07159632       0.88716376       0.26695272       0.00964922      -0.03420516
O       13.38588214       8.52546810       1.88551893      -0.04292285      -0.10936314      -2.04745014      -1.87011540       0.53173006       1.76761198      -0.03389499      -0.12273991
C       12.20767030       8.71595069       2.73074141       0.30896975       0.09933897      -0.51574689       0.58985400      -1.16691995      -1.06932163       0.01279215      -0.19349977
C       12.32053719       9.83257875       3.76398261       0.52552791      -0.58171898      -0.33928609      -0.73064345       1.04144073       0.21173185       0.02275588      -0.13335092
F       12.66814107      11.02527325       3.21999691       1.44032880       1.45158038      -0.88811862       0.58839893      -1.07890475       0.13505305      -0.01106260      -0.23959287
F       13.15479057       9.54999063       4.76355550       0.65815820       1.60405391      -1.18433185       0.41802400       0.40005308      -0.20699900      -0.01113878      -0.24324813
F       11.10226944      10.04681524       4.31327906       0.70621596       2.01251208      -0.11432782       0.51225489      -0.46311679      -0.38007319      -0.01215331      -0.18128015
C       11.80619366       7.37978563       3.50374273      -0.59729493       0.44625346      -0.57491147       1.76454246       2.74757648       1.09637773       0.02357310      -0.07039648
F       12.65143804       7.17052422       4.55171492       1.33873892       0.39752980      -0.73971879      -0.04253023      -0.61012667      -0.99762827      -0.01318460      -0.22806594
F       11.81897899       6.32729998       2.72926504       0.25162006      -0.10550986      -0.32347706       0.00242601      -0.48113316      -0.36999100      -0.00342340      -0.21126971
F       10.63597072       7.57580281       4.07273970      -0.49702092       0.53716437      -1.11218366      -1.23919654      -0.52726614      -0.32204169      -0.01116672      -0.21754822
H       14.08827790       9.05743952       2.29376466      -0.27047261      -0.20881699      -0.20312789       0.38756305      -0.25885984      -0.26548621       0.02034099      -0.05971335
H       11.34905042       8.99316955       2.09217953      -0.06126106      -0.05601123       0.30393636       0.34724542      -0.21603931       0.14539865       0.01327688      -0.05224127
O       10.60099135       4.84863301       0.70144953       0.39309115      -0.03968560       0.75475383      -0.43445861      -0.93553662       0.14058283      -0.03004634      -0.03365838
C       10.30489830       3.59586026       1.29982435      -0.27764936      -1.07407599      -0.10037546       0.72870177       0.90827161       1.96065223       0.01315044      -0.20021062
C        9.27736869       3.90978858       2.42310809       0.02894691      -0.67375804       0.29866041       0.27619508      -1.26217687      -0.21993685       0.02225520      -0.14141123
F        8.19465472       4.35883261       1.79344806      -0.46544190      -0.75348511      -1.13859332      -0.46602380       0.03721027       0.26409468      -0.00920829      -0.25533348
F        9.69778866       4.85002114       3.26128860       0.44360958      -0.58951659       0.02212534      -0.03368162      -0.16053087       0.25520676      -0.00849434      -0.26572692
F        8.93466112       2.79247721       3.14382613      -0.57628656      -1.37380273      -0.66891772       0.25524303       1.03881323      -0.56435609      -0.01099243      -0.27558815
C       11.63713446       2.94139983       1.77734365       0.50229290      -0.50518714       0.11318750       0.58526254      -0.03180123       0.90656471       0.02267623      -0.10508190
F       12.45162044       3.83656447       2.46141144       0.54317767      -1.87132857       0.09801888      -0.94940382      -0.62275404      -0.97478586      -0.01130751      -0.26319426
F       12.29015346       2.50379895       0.71074288       1.29894182      -1.14684336       1.33016555       0.24466856       0.31939420       0.11778001      -0.00896233      -0.21785277
F       11.52516290       1.88889814       2.60484464       1.05098845      -0.22285326      -0.51675924      -0.55151665       0.46417153      -0.15569684      -0.00941087      -0.23983425
H       11.25136099       5.31099407       1.26571424       0.18095652       0.12527938      -0.29129617      -0.44695652      -0.36321598      -0.39076358       0.02240034      -0.07259694
H        9.79777595       2.85130058       0.68905954      -0.02426390       0.04540727      -0.11144967       0.16066572       0.33956945      -0.67958558       0.01444802      -0.04840831
O        8.51158695       7.12756596      11.65977325      -0.33109615       0.04459732      -0.06873426       0.64365876      -0.54143423       1.52784646      -0.02975458      -0.03046038
C        8.37013962       8.46724390      12.01833159       0.06909407       0.26232874       0.30648775      -0.31644240      -0.39192146      -1.09186411       0.00923521      -0.28028873
C        9.05638438       8.73161897      13.30513543       0.54888349      -0.67277832       0.04144650       1.14826918      -1.01146710       0.63281190       0.02282461      -0.09382939
F       10.38916732       8.45172748      13.19337193      -0.05802528      -0.64282908       0.44303129      -0.81416857      -0.16015072       0.34776357      -0.01356517      -0.21444708
F        8.62433633       7.90305839      14.30547643       0.43343951       0.25243774      -0.00543519       0.03534088       0.77998066      -0.44374621      -0.01092940      -0.28613251
F        8.90270295       9.98474826      13.62630338       0.52303995       0.40267750       0.42147529       0.33286861       0.60595131       0.97414213      -0.00754083      -0.18421374
C        6.88646796       8.81273869      12.08393223       0.10443681      -0.37064725      -0.12358286      -0.46935314      -0.78856701      -0.70246547       0.02142985      -0.14772964
F        6.26621914       7.94315199      12.85905752      -0.20388509      -0.65939522      -0.01733179       0.18211104       0.10326344       1.36541843      -0.01131607      -0.16172428
F        6.31579303       8.62528586      10.87793520       0.52342621      -0.73653452      -0.37306770       0.46812651       1.01420963      -0.24524269      -0.01418342      -0.20668602
F        6.66757927      10.07191365      12.47822231       1.49315015       0.15664137       0.10537566      -0.49497429      -0.76702446      -0.07610070      -0.00887999      -0.17952184
H        8.83759504       6.64197238      12.46960676       0.00749810      -0.11928207       0.01112518      -0.53326821       0.43937245      -1.32534695       0.02502272      -0.02026344
H        8.81715274       9.10816920      11.24378446      -0.10565995      -0.01241267      -0.09108477       0.00003332      -0.07713267       0.24020644       0.01179663      -0.05250220
O        3.89028291       1.28190685      12.06954602      -0.90380010      -0.12836158       0.14344632       0.08891688      -0.73367357      -0.80221975      -0.02527264      -0.09027520
C        2.77030386       1.70705136      11.39073961      -0.54572661      -0.02862772      -0.27162901      -1.95564282      -0.35656011       0.73593605       0.01249423      -0.20686850
C        2.92133260       1.59611472       9.89062174      -0.03100429       0.28019378      -0.50911199      -0.62231731       0.38949004      -0.95735657       0.02298360      -0.12896949
F        3.50107775       0.41706012       9.58612801      -0.05867004       0.09059217       0.17414056      -0.31236428       0.29283008       0.04949718      -0.00932003      -0.26599729
F        3.60242470       2.55201060       9.28448901      -0.03249788      -0.14221413       0.21673135       1.52195823       0.38954917       0.01348914      -0.00815579      -0.22013175
F        1.71261531       1.72101727       9.30675882      -1.20618840       0.17105370      -0.47695998      -0.25420707      -0.90202218       0.34720689      -0.01322254      -0.21411255
C        2.25295478       3.10974779      11.82266786       0.26957062       0.13506617      -0.10511900       2.40091419       0.36793408      -0.25192979       0.02454774      -0.03731202
F        2.98983490       4.07129434      11.21824035      -0.72054015       0.23680013      -0.97704492       0.16734244       0.06361669      -0.59686869      -0.01066347      -0.20997113
F        2.56310065       3.32780856      13.12950167       0.49320275      -0.67371440      -0.34228333      -1.10430431      -0.95055437      -0.17259958      -0.00808251      -0.21604271
F        1.01029024       3.32995027      11.49516127      -0.59526543       0.03773678       0.34675955      -0.63364184      -0.28584799       0.61478662      -0.00859985      -0.22385406
H        4.21531682       1.97013930      12.62022171      -0.05927565      -0.31261439       0.23540171       0.53450334       0.94613129       0.88959712       0.02544252      -0.03585814
H        1.92133769       1.01270672      11.59570057      -0.13912409       0.00318613      -0.04096220       0.42449269       0.28310999       0.03460220       0.01522693      -0.02653618
O        2.31542839       6.80847032      10.76701250       0.20700987       0.26435724       0.97463540      -0.42935094       0.71450114       0.31594077      -0.03124228      -0.11319599
C        2.01198863       7.46033858      11.97946494      -0.57328980       0.51087493       0.83116426       2.47506714      -0.52321792      -0.52298689       0.00865837      -0.23440991
C        2.75731377       8.78109490      12.18864073      -0.13951549      -0.66770728       0.47421832       1.04644156      -0.21820591       0.51125276       0.02098338      -0.11346202
F        2.58967925       9.72752043      11.31413774      -0.51483009       0.06662506       0.78886865      -0.50358212       0.45947737      -1.31110549      -0.01037200      -0.16643344
F        4.11229190       8.59602577      12.22164835      -0.84548030       0.20220076       1.24676690      -1.50352371      -0.19465384       0.51556343      -0.01280495      -0.21936855
F        2.31453187       9.32227060      13.34140874       0.71746159       0.73724870      -0.31166116       0.20269816      -0.61425549       0.28389928      -0.00888589      -0.19638169
C        2.25240674       6.46381542      13.10893927       0.03228177       0.59022606      -0.18520763       0.21661283       0.16359374      -0.66388017       0.02191398      -0.11308124
F        3.48967355       5.97573816      13.04780081       0.23770561      -1.21458702       0.54659349       0.19219640      -0.48171946      -0.08309167      -0.00917482      -0.24465817
F        1.34117663       5.51552880      12.91837767      -0.64995400      -0.82436278       1.09405531      -0.21368508      -0.61526692       0.14400730      -0.01158025      -0.20233229
F        2.09939893       6.88786757      14.34478085      -0.38845618       0.84299715       0.22599797      -0.40762618       0.74163604       1.02723682      -0.00535317      -0.24573167
H        3.18907639       6.41286120      10.81537263      -0.05660822      -0.07264951      -0.03166818       0.36427599      -0.03862800       0.04727779       0.02112968      -0.07082747
H        0.99657940       7.63200525      11.99042322      -0.14108492       0.03006413       0.05606086      -2.11525464       0.68139380      -0.09198816       0.01027349      -0.01692554
O        4.00915213      13.81620888       6.87336202       0.17646029       1.40998420      -0.21301538       0.90361863      -0.17881593      -0.20072164      -0.02639258      -0.04967379
C        4.60642849      12.63990780       6.38236811       0.29581011       0.59756489       0.43866702       0.91711879       1.41917813       0.25721225       0.00859270      -0.22151029
C        6.12554802      12.70230541       6.50279387       0.23815214       1.16137719       0.54789429       0.34462723       1.31354201       1.00096226       0.02200131      -0.09189219
F        6.39422095      12.59286117       7.86707274      -1.28047577       0.15197023       0.78864213      -0.33930048       0.48811615      -1.42356503      -0.01496290      -0.22271365
F        6.66103653      13.88427174       6.05926406      -1.34946144       1.00381193       0.59504103      -0.40449825      -1.01270962       0.64405906      -0.01058446      -0.28726527
F        6.74090013      11.72800962       5.88789232      -0.05715709       0.39363032       0.09902003       0.41649622      -0.27186406      -0.09746551      -0.00778977      -0.19955224
C        4.22272553      12.34647634       4.97143628      -0.13643052       1.03821545       0.71519811      -0.55728173      -0.13534251      -0.45519558       0.02145413      -0.14024520
F        4.78013995      13.22663893       4.16503421       1.26227727       0.86924044      -1.06584649       0.01414677       0.57755744      -0.18970276      -0.00797033      -0.13462046
F        2.92620531      12.36923861       4.72139482      -0.19077706       2.45818256       0.70134708      -0.92633158       0.40883556       0.15255947      -0.01040257      -0.18218772
F        4.58571189      11.07560249       4.66389318       0.00481209       1.55892831       0.75749063       0.42657423       0.30709636       0.10033139      -0.01247160      -0.19045538
H        4.47796548      14.06707547       7.69001110      -0.29173164      -0.03197694       0.16314970      -0.28431484      -0.04452924      -0.37465617       0.02336379      -0.04250755
H        4.39052957      11.77731242       6.92987172      -0.02494495       0.13561684      -0.01203878      -0.66332191      -1.37834060       1.01891696       0.00990166      -0.01136800
O       11.55711494      12.89799297       8.76955165      -1.05905332       0.14657594       1.35114707       0.43089467       0.82938182      -0.97733939      -0.02725476      -0.01472132
C       10.78988155      11.84784238       8.29119911       1.03689608      -1.02504793       0.07643068      -0.93304425       0.36430535       0.18486723       0.00904062      -0.23622003
C       11.42909643      10.96464756       7.23574565      -0.08911567       0.14532521      -0.18348325       0.42638758      -0.67403477       0.76745778       0.01859585      -0.16806990
F       12.56146638      10.39761974       7.66285990      -0.45319581      -0.45051830       0.02134562      -0.48253891      -0.22335358      -0.35720807      -0.01268165      -0.06482227
F       11.73820361      11.65396551       6.15812946       0.73177476       0.83460396      -0.35000274       0.24411954       0.47893006      -0.61131632      -0.00909316      -0.22755434
F       10.59204491       9.96107674       6.93428068      -0.71937676       0.39123161      -0.98456249      -0.18071866       0.14853391      -0.29415181      -0.01336419      -0.24762020
C        9.45103168      12.33283749       7.72568336      -0.43238871       0.69551781       0.68976971       0.42854828       1.04810166       0.72140568       0.02108818      -0.09173806
F        9.48647456      12.72166375       6.44006778       0.06965855      -0.30206872       0.87870255      -0.34246907      -0.59880584       0.02340255      -0.00858621      -0.24568301
F        9.02989989      13.39921846       8.40082749       0.63445611       0.13474162      -0.29856199       0.18357746       0.64063334       0.14712809      -0.01232186      -0.21502320
F        8.57611299      11.38424876       7.97635302       0.45281206       0.68244293       0.56503992      -0.91277611      -1.07759392      -0.83182591      -0.01126781      -0.19547577
H       11.61393132      13.64690223       8.11932561      -0.03078196      -0.01123593       0.00802936      -0.15616420      -1.05965281       0.71558923       0.02616809      -0.04353947
H       10.42969429      11.22698691       9.13635449       0.01940668      -0.07617984      -0.06322573       0.81759208       0.25622985      -0.31456271       0.01050530      -0.02643061
O       14.12866834       8.73919494      10.38265080       0.07513563      -0.11345806       0.19334049       0.33391118       1.13920689      -1.79954755      -0.02698909      -0.04622890
C       12.84776848       8.86348661      10.87857581      -0.11184196      -0.08864409       0.01332098       0.37229928      -1.61086428       0.94418257       0.00956440      -0.12519518
C       11.94019315       8.07305804       9.94765298      -0.49293146       0.14715629      -0.17767025      -1.01331019      -0.02717996       0.97318983       0.02119945      -0.10413290
F       12.38931073       6.80832729       9.94962550      -0.32248268      -0.36723448      -0.83949368      -0.23680806       0.45844164       0.31102997      -0.01144016      -0.19846940
F       11.87714214       8.39750613       8.69535725       1.49627510      -0.19918276      -0.25087760       0.42853394       0.71468943      -1.49328196      -0.00839717      -0.17631581
F       10.66955864       8.14370586      10.38616247       0.41388374      -0.30687356      -1.13159726      -0.01189915      -0.44464245       0.31851578      -0.01232236      -0.24669752
C       12.57528375      10.24832910      11.43497520      -0.36283451       0.17324521       0.58511867      -0.57618910       0.34869930       0.60553712       0.02108112      -0.15674572
F       12.43004378      11.18720033      10.52599836      -0.40357776       0.20526680       0.72387121      -0.45239547       0.40378073      -0.88956785      -0.00956149      -0.20658953
F       13.60857974      10.60590224      12.18336420       0.92840864      -0.69576109       0.61877588       0.32028398      -0.27415979       0.71356469      -0.01118081      -0.20712166
F       11.48787299      10.29005183      12.23141197       0.28644678      -0.39802394       1.05720551       0.26977804      -0.02175139      -0.58556384      -0.01147114      -0.21715388
H       14.17989672       9.24497605       9.52045459      -0.11921295      -0.04750062      -0.05029947       0.07055105      -0.91133147       1.32144892       0.02306521      -0.03133097
H       12.83070404       8.22481113      11.78597138       0.10953086      -0.13500052      -0.03451928      -0.12134944       0.30134287      -0.19204952       0.01282025       0.00407829
O        2.15989521      12.13671851       7.07936771      -0.86669035       0.46598652      -0.37463762      -0.74220186      -0.48868564       0.40472120      -0.02155705       0.04985245
C        2.21144484      11.42618374       8.29164730      -0.18626241       0.65218660      -0.16918764      -0.47812086       0.38587704      -0.21008001       0.01396839      -0.24103352
C        2.16310780       9.93047535       7.94029318       0.11274383      -0.12544775      -0.09781493      -1.18058264      -0.21039417      -0.01721992       0.02396140      -0.06843472
F        3.15577327       9.62338573       7.12314720      -0.95636829       1.51965855       0.74646684      -0.13927196       0.19552296      -0.60279602      -0.00799202      -0.25815755
F        0.94782688       9.68255565       7.38011091      -0.46826760      -0.67651989       0.27471344       0.29737276       0.11339904      -1.06406963      -0.01137542      -0.24034375
F        2.18596469       9.04433032       8.90977287      -0.20626884      -0.51555201       0.60418020       0.79559815      -0.10193679       1.22474515      -0.00838789      -0.15069349
C        1.03633700      11.91668479       9.16150243       0.66094271      -0.01671551      -0.59324319       0.82256764       0.89700335       0.50218880       0.02141458      -0.09099852
F       -0.04843271      11.81528508       8.43642006       0.09125235       0.40889723      -0.17462923      -0.44507182       0.46551114      -0.13738881      -0.00813027      -0.11066870
F        1.11860870      13.20186716       9.56143448       0.16113167      -0.12058588      -0.36890764       0.54223603       0.09109531      -0.71672827      -0.01462653      -0.24523306
F        0.89024741      11.26396341      10.29566921      -0.08024837      -0.83214289       0.12970649       0.31820828      -0.87579453       0.11711116      -0.00879229      -0.15099633
H        1.25913147      12.11047794       6.69236793      -0.08119801       0.12496315      -0.04148224       0.59323215      -0.15331998       0.39024246       0.02761267      -0.03865220
H        3.15017699      11.61223625       8.79424371      -0.06276897      -0.06910006      -0.05427715       0.32260340       0.28952861       0.12978953       0.01364685      -0.05170388
O        8.78340860      11.05733914       4.01049874      -0.32680734       0.36296958       0.34910843      -0.14415267       0.56876868       0.33424965      -0.03005531      -0.05306532
C        8.67886180      12.31514819       3.40804015       0.39598129       0.20471613      -0.23845179       0.98134285      -1.05722392      -1.13653886       0.00995761      -0.25533062
C        7.50772865      12.28264642       2.45385860      -0.21404533      -0.10492004      -0.56865927      -0.50929886      -0.55280548       0.77061445       0.02218808      -0.14436106
F        6.42112405      12.03963676       3.20833022      -0.13810628      -0.40881427      -0.35624650       0.70476091      -0.00329187      -0.68612111      -0.01117717      -0.12342317
F        7.61178465      11.27347692       1.59029139       0.22554744      -0.30490158      -0.06494906       0.12589315       0.11129974       0.10054620      -0.01069652      -0.17742082
F        7.28961357      13.44052402       1.82180448      -0.16892428       0.15048592      -0.81504852       0.03023738       0.07540143      -0.35257775      -0.00835838      -0.27412564
C       10.03665303      12.73139460       2.78820188       0.30133103       0.36226940      -0.49604430      -0.77533680      -0.08785357      -0.16430517       0.02123004      -0.16568778
F       10.51886048      11.73909113       2.01076028       0.31556363      -0.39028703      -0.03458171      -0.13339207       0.35237330       0.11629431      -0.01033893      -0.26762515
F       10.89909541      12.97631511       3.77542563       0.04386779       0.77758976      -0.67614739       0.04003561       0.12423199      -0.34332824      -0.01077521      -0.25416091
F        9.92191538      13.83353897       2.01495202       0.18974745      -0.20588091      -1.51464677       0.16359276      -0.41824803       0.35635054      -0.01154220      -0.25797269
H        8.92187492      10.38978709       3.33511052      -0.09964300      -0.02290094       0.05898328       0.04695004      -0.18671250      -0.21767999       0.02518107      -0.03751026
H        8.42178971      13.01865843       4.14048073       0.26374359      -0.03091397      -0.05240094      -0.18515335       1.05223978       1.24369466       0.01317930      -0.04173131
O        6.93888069       3.84218855       8.85629836      -0.53402262      -0.32680628       0.32491404       0.32059273       0.49624303       1.83266973      -0.02873065      -0.11264035
C        6.39916803       4.15479944      10.16047195      -1.20837087       0.54395927       0.48852827       0.33196038       1.00825632      -0.71390831       0.01243250      -0.24003810
C        5.95059405       5.65976784      10.17269043      -0.08645489      -0.91474255      -0.52569884      -0.24074173      -0.58095175       0.15645337       0.02189470      -0.13799381
F        4.91464999       5.76830491       9.32570765      -0.30264262      -1.41703915      -0.05555854      -0.20311175       0.09097905      -0.09846432      -0.01123182      -0.23144792
F        6.91979978       6.49538415       9.81021717       0.00867308      -0.88340133       0.54356561      -0.49469754      -0.96186799       0.23980148      -0.01145140      -0.12852624
F        5.45333933       6.05239848      11.38144951      -0.15617528      -1.68057436       0.34707652       0.50661260      -0.50278008      -0.68771881      -0.01218662      -0.24310981
C        7.40661198       3.89647078      11.27339249       0.28649888      -0.61803573      -0.39107632       1.10754085      -0.61254001      -1.66298187       0.02313195      -0.11920755
F        8.55254596       4.56285999      11.00477259      -0.87003890      -0.17067942       0.49977216      -0.44785774       0.01733547       0.23353170      -0.01054555      -0.18763334
F        7.71070751       2.58565711      11.24092255      -0.83431899      -1.08255157       0.13574977       0.11360925      -0.02090956       0.27342790      -0.01307299      -0.25688660
F        7.04111838       4.20586359      12.48730179       0.01894292      -1.36329064      -0.09004231      -0.60698533       0.24345584       0.90283567      -0.00776127      -0.27325025
H        7.88749417       4.11134375       8.88158002      -0.01806548       0.16387485      -0.03728150      -0.75320232      -0.21860355      -0.22802480       0.02323336      -0.06017545
H        5.54928263       3.50017687      10.35196721       0.00736167      -0.05271661      -0.13648100      -0.15946306       0.24879965      -0.18280998       0.01120316      -0.06294196
O       10.55251295       3.40636692       9.99478518      -0.23957630      -0.98042608      -0.63882611      -1.27028203      -0.56100696       2.01889634      -0.03341819      -0.05289140
C       11.02599648       3.23752553      11.33040748       0.79233637       0.46980779      -0.07684705      -0.85047054      -0.40613621      -0.82224756       0.00798588      -0.17592405
C       11.71999687       4.54205955      11.72104128       0.07769626      -0.39627581       0.22409927       1.05476165      -1.22341263       1.67652524       0.01995447      -0.13414584
F       10.87160118       5.54431002      11.72492535       0.41442064      -0.70889950      -0.17403571      -0.18503545       0.58593541      -0.32935655      -0.01037143      -0.23690864
F       12.71438734       4.74410800      10.83876158       0.88519394       0.75669302       0.34793558      -0.15027513       0.00973977       0.76712978      -0.01092334      -0.15529604
F       12.27461454       4.51682253      12.98497622       0.79545329       0.29523284      -0.31244149       0.09061347      -0.21541594      -1.83018100      -0.01439167      -0.19582866
C       11.84189116       1.95386676      11.24483014       0.58791043      -0.36183212       0.94829965      -0.40352079       0.66838413       1.78334188       0.01998478      -0.10508184
F       12.83469077       1.96966776      10.34383756       0.03741372       0.36944163      -0.58218227      -0.43760267      -0.51095867       0.72094053      -0.00982567      -0.27036136
F       10.95378751       1.00966138      10.98283127       0.66391897      -0.29712760      -0.62574017       0.61243343      -0.36643350      -1.16896427      -0.01098752      -0.15959369
F       12.29114391       1.67323370      12.48971245       1.42319273      -0.51408101       0.93235475       0.95067883      -0.19823135      -0.63021994      -0.01239523      -0.24085046
H       11.34112209       3.62895389       9.54966926      -0.01382048      -0.09722469      -0.08209240       1.26630294       0.43680814      -1.35296452       0.01993548      -0.00318120
H       10.19412234       2.95543897      12.02238447       0.13718405      -0.16535749      -0.06076603       0.56414527       0.66146874      -0.62019235       0.01100842      -0.04985642
O        6.18518472       6.92345069       7.49965390      -0.32339986      -0.92954850       0.61391931       0.22839972      -0.17336521      -0.50638157      -0.02722316      -0.04408550
C        6.93061977       7.48889903       6.46073627      -0.00943625      -0.12534787      -0.42711698      -1.08221233      -0.62861300       0.27538687       0.01236932      -0.25936460
C        6.04394534       8.56685713       5.87731792       0.07683206       0.00745608       0.42743257       0.51146209       0.58791214      -0.63599658       0.02107560      -0.15147078
F        5.73920599       9.46030033       6.85187600      -0.59260888       1.10330305      -0.23675574       0.22662191      -0.41149342      -0.78851706      -0.01249523      -0.25598815
F        4.92498116       7.99339048       5.44018059       0.02530802      -0.30051759       0.98327536      -0.65685964       0.15512910       0.13938828      -0.00852908      -0.25218162
F        6.59365274       9.20747366       4.82139755       0.82818392       0.09057167       0.57179749      -0.26505369       0.00690092       0.86184704      -0.01189855      -0.23479781
C        7.32298614       6.40311562       5.46633975      -0.20952849       0.04772814       0.47893258       2.53894615       0.38235000      -0.01592431       0.02354740      -0.07189678
F        6.37473086       5.53143531       5.20362341      -0.84166574      -1.12951504       0.56914723      -0.80937898       0.32629043      -0.88153261      -0.00325889      -0.25213903
F        8.33849386       5.64086562       5.94907181      -0.75595241      -0.43627155       0.94664553      -0.95338178       0.45642823       0.07956969      -0.01340322      -0.17516850
F        7.86272005       7.02857384       4.37418986      -1.06989640      -1.12580143      -1.14780357      -1.02866817      -0.96694380       0.13868947      -0.01281834      -0.22712481
H        5.48752589       6.40178066       7.07356058      -0.05952673      -0.05986944       0.11690048      -0.02825488       0.01962543       0.33699453       0.02754067      -0.02197286
H        7.81881548       7.93659515       6.84757313      -0.07203404      -0.20783899      -0.02333967       0.72064477       0.24597070       0.31674290       0.01343563      -0.05667381
192
Lattice="14.05790476106759 0.0 0.0 0.0 14.05790476106759 0.0 0.0 0.0 14.05790476106759" Properties=species:S:1:pos:R:3:momenta:R:3:forces:R:3:charge:R:1:energies:R:1 Built=T with=T Packmol=T charge=0 spin=1 external_field="_JSON [0.0, 0.0, 0.0]" energy=-15.82336139678955 stress="-0.008893013931810856 -0.00019481813069432974 0.0013633667258545756 -0.00019481813069432974 -0.0028916525188833475 0.0025785171892493963 0.0013633667258545756 0.0025785171892493963 -0.007314096670597792" dipole="0.5260008573532104 -0.16971075534820557 0.01734660565853119" free_energy=-15.82336139678955 pbc="T T T"
O       13.17225377       5.77727699       6.88106955       0.15622619      -0.02945938       0.46252825       0.29948294       0.01549037       0.32572290      -0.02675566      -0.07138897
C       12.36769894       4.65685889       6.65717022      -0.23082096      -0.48629718       0.14452282       0.39781308       0.52991128      -0.50937271       0.01468172      -0.29027426
C       10.96809976       4.97433493       7.12257461      -0.59010678      -0.47963392      -0.05860317      -1.34157324       0.24537750      -0.20017077       0.02323611      -0.14445452
F       10.55199861       6.05842851       6.45425270       0.38653411      -0.43739527       0.64207679       0.51653343      -0.14898570       0.52605289      -0.01183357      -0.18822961
F       10.92973405       5.24748588       8.44950947      -1.55887144       0.06405073      -0.16530068       0.05830965       0.44743600      -0.92271256      -0.00803082      -0.18124333
F       10.06830960       3.98709937       6.91146588      -1.07294033      -1.60155929      -0.13214881       0.58259928       0.28536898       0.01168282      -0.01010466      -0.25151551
C       12.93427658       3.44882061       7.35526375       0.28256960       0.74053123      -0.53051843       1.05031383      -0.76294750       2.13996816       0.02519212      -0.08143356
F       13.25487737       3.80293597       8.65828118      -0.04976088       0.63931570      -0.36279840      -0.58163673       0.14296193      -0.89790219      -0.01104409      -0.20187324
F       14.08285243       3.02138359       6.87882234       0.10033760      -0.73334258      -1.00703286       0.15129545      -0.10612582      -1.00548494      -0.00675020      -0.23495176
F       12.10051488       2.39664889       7.46770132       1.02096960       0.11355639      -0.50152172       0.02684799       0.37730679      -0.43823162      -0.00767257      -0.25749272
H       13.24741103       5.98930567       7.83277485       0.14657463      -0.09655830       0.05826577      -0.15641521      -0.31327599      -0.41744584       0.02349795      -0.06441964
H       12.35877330       4.50953986       5.56267126       0.02625833      -0.17934714      -0.05055848      -0.13876483      -0.16642925       0.44874015       0.01495089      -0.05008651
O        2.00355725       9.01781355       2.17046874      -0.30262765      -0.19707756      -0.14136736      -0.89630997      -0.87138754      -0.91942668      -0.02504954      -0.14864498
C        3.02411639       9.90955849       2.44925859      -0.01565301      -0.04403664       0.10395153      -0.10275877       0.04481756      -1.05103624       0.01292300      -0.25665891
C        2.71456294      11.27058626       1.79350515      -0.59130075       0.89752376       0.41157475      -0.35887027       1.08549309       1.61614096       0.02244251      -0.11426106
F        1.53033188      11.68076215       2.32486629      -0.49195223      -0.96284098      -1.33990173      -0.10505999      -0.43170625      -0.33560190      -0.01352683      -0.25652349
F        2.59370729      11.34466581       0.48402946       0.25159718      -0.18385666       1.50577165       0.34763238      -0.11011273       0.00122425      -0.00791299      -0.20857120
F        3.58847734      12.20066673       2.21535368      -0.10804762       0.89417934       0.02545462       0.44489652      -0.32237974      -0.76163906      -0.00896847      -0.21965465
C        4.34861352       9.21305047       2.14723850       0.03396580      -0.05749073      -0.14086264       0.23724678       0.11735594      -0.65769315       0.02195832      -0.15064034
F        4.34438771       8.70285162       0.89187839       0.70332188      -0.32080079      -0.65028605       0.16654350       0.46507430       0.07234121      -0.01084159      -0.25274268
F        4.43589705       8.16366307       2.94516144       0.97858583       1.34934140       0.37221080       0.32140344      -0.32682490       0.52442527      -0.00953338      -0.22995442
F        5.43846386       9.98012535       2.28965536       0.32241688       0.96184683      -0.28533925      -0.72191775      -0.53087485      -0.19127268      -0.01012756      -0.24218763
H        2.05558417       8.64323261       1.25845738      -0.10748361      -0.00642189      -0.06469381       0.19828324       0.48998994       0.82500827       0.02278293      -0.06211033
H        2.97029397      10.06229815       3.50668615      -0.01906799      -0.09583491       0.04031514       0.19303022       0.38916668       0.59468311       0.01232288      -0.03232816
O        7.48894560      12.23000736      13.42717900       0.10241651       1.27509657      -0.25939194      -0.09316030       0.40024203       0.13769603      -0.02709520      -0.00629298
C        7.96907904      12.42353242      12.14457105      -0.57079264       0.40838371      -0.31306574      -1.34275985       0.77600831       0.29061309       0.00861733      -0.25391042
C        9.34507716      13.03913181      12.18904815      -0.08193899       0.41922345       0.57831459       0.64421844       0.01958864       0.38148978       0.02121776      -0.15413737
F       10.09822555      12.43567359      13.14497055       0.49372807       0.33482147       0.31323483      -0.36991793       0.34421533      -0.89225698      -0.01307804      -0.24593318
F        9.27951103      14.33881330      12.54692085      -0.53371585       1.28567638      -1.13105599       0.06981517      -0.33343068      -0.21368903      -0.01158409      -0.23880495
F        9.95351386      12.88601559      10.99299982      -0.37418878      -0.33877817      -0.54176397      -0.28426534       0.10310841       0.85607862      -0.01209217      -0.20207863
C        6.89664316      13.23501449      11.39829934      -0.03895866       0.60440447       0.73611305       0.21526127       0.31438637       0.34644166       0.02185282      -0.13303111
F        6.71827509      14.39885077      12.03641088      -0.12911799       0.75720459       0.29028611      -0.50320476       0.20855708       0.40089065      -0.01070384      -0.23378156
F        5.70395783      12.59141078      11.40476075       0.24581173       0.79487710      -0.14823182       0.87705123       0.25422680      -0.34879807      -0.01333780      -0.28957456
F        7.25973567      13.54580587      10.16333813      -0.83840724       0.87858878      -0.43799165      -0.27016577      -0.30754566      -0.36110452      -0.01121212      -0.23674028
H        7.18011309      13.07524425      13.79832271       0.19060456       0.17546397      -0.02552408       0.19944808      -0.29374701      -0.17662723       0.02577688      -0.02631581
H        8.02296258      11.49948541      11.62733264      -0.01926778       0.11918677      -0.08892842       0.28995779      -0.96881366      -0.25918853       0.01038080      -0.03636017
O       13.36149740       8.52041198       1.83109535      -1.43151112      -0.14712101      -1.44732007      -0.85845041       1.03380203       2.06644630      -0.03301100      -0.11265007
C       12.22839460       8.70730130       2.70395577       0.68966165      -0.47737473      -0.69336385       0.24133267      -0.57050616       0.05445114       0.01367715      -0.19055817
C       12.33550061       9.82689553       3.75096445       0.22585660       0.43834164      -0.34200824      -0.47469291       2.62275290      -0.32378662       0.02278599      -0.08757314
F       12.70861701      11.05373325       3.19793362       1.65703862       0.67664023      -0.81460418       0.17950681      -1.92769289       0.17720705      -0.01490752      -0.22466390
F       13.17536677       9.59328146       4.73235223       0.95810824       1.70043973      -1.18532904       0.70132273      -0.12643854       0.31138065      -0.01000434      -0.23434632
F       11.12483027      10.09525172       4.30695375       1.05560213       1.69440343      -0.40056270       0.70423603      -0.91520244      -0.67867374      -0.01191615      -0.18334541
C       11.80329517       7.41981475       3.49100063       0.50196798       1.31399041      -0.07196273       2.25561881       0.38539395       0.81208599       0.02321297      -0.10762495
F       12.68417476       7.17783990       4.52533725       1.13006399       0.20198758      -1.30829845      -0.79353869      -0.19644721      -1.07358110      -0.01444435      -0.23649424
F       11.82515770       6.32317265       2.71929242       0.21487181      -0.12574375      -0.40312625      -0.12821025       0.54563969       0.15164772      -0.00734891      -0.22949755
F       10.61602408       7.58677655       4.04182460      -0.98348698       0.32758135      -1.27554537      -0.45943543      -0.32713982      -0.27798143      -0.01018141      -0.23663533
H       14.12954228       9.01977203       2.23509232       0.31908020      -0.02008106      -0.08963907      -0.65662372      -0.77927721      -0.61775106       0.02087487      -0.06762442
H       11.31276312       8.96734582       2.18562193      -0.12609648      -0.01765407      -0.01086555       0.03706453       0.12704718      -0.84017926       0.01397063      -0.02723417
O       10.60630586       4.83829164       0.72283608      -0.14018834      -0.67750136       0.56877806      -1.31728303      -1.28039718      -0.57703304      -0.03095024       0.02421339
C       10.30452672       3.56484697       1.31417494       0.31588431      -0.39411180       0.70195734       1.41087258       1.50957942       0.78338969       0.01370949      -0.22853017
C        9.27897836       3.87133012       2.43034136      -0.00662736      -1.13013012      -0.00134177      -0.38477728      -0.32725838      -0.88246548       0.02265567      -0.14301355
F        8.18156888       4.33867523       1.76689312      -0.46958364      -0.83330846      -0.86067622       0.45637569      -0.29255813       0.90246463      -0.01127479      -0.25198987
F        9.70844615       4.83231915       3.26286838       0.35154997      -0.83229049       0.07263940      -0.38086969      -0.78033191      -0.07350626      -0.00920201      -0.26219976
F        8.92120937       2.76333207       3.12330483      -0.46643498      -0.88683154      -0.89185225       0.21878889       0.93490624      -0.23808464      -0.00858503      -0.27170873
C       11.66119095       2.92055085       1.78961865       0.60533383      -0.50490354       0.43342203      -0.23840649       0.07301915       0.24877839       0.02216819      -0.10694103
F       12.46048982       3.78552661       2.45858769       0.18402569      -1.99214958      -0.27288516      -0.43246964       0.39422166      -0.43048346      -0.01025714      -0.26979908
F       12.32615279       2.47573951       0.74426814       1.49914784      -1.02639869       1.18800314       0.40048355       0.27528557      -0.77009827      -0.00932206      -0.21903700
F       11.54839457       1.88376454       2.59230832       0.71613849      -0.26938311      -0.37093509      -0.89282668      -0.67635244       0.81746370      -0.00849940      -0.22372477
H       11.32332901       5.32903173       1.12660507       0.18505202      -0.03921333      -0.19407442       0.19261788      -0.35712570       0.51123565       0.02230031      -0.07364579
H        9.80979742       2.90890856       0.57427600       0.09754825       0.19431700      -0.27198561       0.39793900       0.30743986       0.32221904       0.01445847      -0.05916940
O        8.50484750       7.12711639      11.66454693      -0.21183685       0.09197380       0.07307489      -0.33511594       1.01102126      -1.50731266      -0.02965716       0.00194193
C        8.36968318       8.47110771      12.01985034      -0.08590462      -0.14628277      -0.18105592      -0.22479105      -1.20943177      -0.49257022       0.00968269      -0.27418935
C        9.08692504       8.70100808      13.31352670       0.82104018      -0.65005776       0.34977325      -0.33284974       1.06821489       0.38390464       0.02230683      -0.12174362
F       10.38423718       8.43357356      13.20675041      -0.23602208      -0.77537123       0.57428088       0.23901315      -0.32392666       0.13428913      -0.01095884      -0.21752641
F        8.63551043       7.91367489      14.30322258       0.41339696       0.52512819      -0.13102885      -0.17484240       0.24351788       0.02338587      -0.00963818      -0.28755957
F        8.91913510       9.99629099      13.64261652       0.77283534       0.38727353       0.80521253       0.62072515      -0.61697567       0.54178351      -0.01093624      -0.20923308
C        6.88627383       8.79090368      12.07429207      -0.09604501      -0.65241150      -0.28042553      -0.23967612      -0.24660616       0.10581145       0.02152833      -0.15643963
F        6.26228584       7.92735171      12.86641469      -0.09394620      -0.53562208       0.54739826       0.25110337       0.42174014       0.87274051      -0.01114238      -0.18006024
F        6.33226837       8.61258391      10.86707520       0.73401656      -0.24832721      -0.45484823       0.25860769       0.96246284      -0.09362765      -0.01307793      -0.21799724
F        6.70294030      10.07006388      12.47992653       1.22183503      -0.33775752       0.00498696      -0.72659129      -1.19843340      -0.32328093      -0.01007553      -0.18490064
H        8.80124632       6.60930763      12.38231759      -0.04708222      -0.16562922      -0.08695121       0.51057494      -0.95065081       1.41034877       0.02397401      -0.03485435
H        8.77759220       9.09811604      11.23108993      -0.02634939      -0.00691083       0.01993528       0.33642238       0.15675113       0.04765647       0.01204084      -0.05404822
O        3.86477228       1.27419146      12.06981855      -0.65068982      -0.21827412       0.03922324       1.00280952       0.54674780       0.57653034      -0.02656888      -0.02042235
C        2.73152424       1.70443377      11.38713319      -1.18629316      -0.00931008       0.07068677      -0.04463523       0.63049906       0.44731125       0.01194569      -0.25285128
C        2.91111792       1.60964234       9.86381742      -0.51527308       0.33469639      -0.69184618      -1.15329576      -0.16533351       0.34734651       0.02371672      -0.11181411
F        3.49742338       0.42135352       9.59047518      -0.23109636       0.24465689       0.14158682      -0.39279485       0.32491982      -0.19115399      -0.00821100      -0.26072657
F        3.61120008       2.55144126       9.28931833       0.69580202       0.11511001       0.12658814       1.29207706       0.56902879      -0.33628193      -0.00622872      -0.22589523
F        1.68130759       1.71995990       9.29647318      -1.15072277      -0.24069057      -0.32868276       0.52138829      -0.73675382       0.22377619      -0.01332617      -0.22617649
C        2.28235686       3.11833884      11.81485019       0.98439074       0.26214373      -0.29315570       0.20040634       0.09053584      -0.42297888       0.02315967      -0.10189801
F        2.97238012       4.07800566      11.18924598      -0.61068949       0.28934532      -1.25139654       0.38020283       0.14438957      -0.41578794      -0.00874707      -0.21825360
F        2.56944260       3.30476909      13.11945834       0.02272261      -1.07759687      -0.43148263      -0.77767861      -0.56772572      -0.13661882      -0.00699792      -0.22763780
F        0.99279048       3.32896313      11.50857599      -0.66298421      -0.11938473       0.70514830       0.48899013      -0.33944881       0.76464850      -0.01184693      -0.23352739
H        4.19891915       1.88335375      12.78441975      -0.15756156      -0.22982339       0.21380675      -0.91678172      -0.67926115      -1.19885850       0.02727313      -0.04388054
H        1.89887437       1.04304143      11.58197493      -0.02603860       0.06648292       0.00339995      -0.36262497      -0.30243048       0.23281932       0.01545632      -0.03859387
O        2.31815805       6.82210833      10.79891491       0.01284229       0.59316054       1.07102359      -0.12689380       0.42392361      -0.08847740      -0.03084353      -0.06453124
C        1.99931284       7.47567873      12.00569776      -0.37330267       0.24896543       0.39912572      -0.91428828      -0.47495422      -1.10585392       0.00980242      -0.26789075
C        2.76070639       8.75855409      12.21144540       0.24544431      -0.27362432       0.58259769       0.30168459       1.65428329      -0.17900331       0.02095696      -0.12358300
F        2.57340463       9.73043514      11.32676653      -0.72441900       0.09087640       0.20894089      -0.26126993      -0.34050229      -1.04202139      -0.01303863      -0.16469480
F        4.08236617       8.59915291      12.25708291      -1.37426988       0.00683144       1.47561740      -0.33880785      -0.58022213       0.28583431      -0.00999772      -0.21899317
F        2.33380501       9.33752605      13.33675772       0.74204834       0.44410573       0.01718837      -0.17636834      -0.57711565       1.05738580      -0.00869711      -0.18111789
C        2.25416744       6.48291749      13.10026153       0.00589030       0.19025448      -0.09843221      -0.33635166      -1.63737130       0.99913037       0.02277360      -0.11967851
F        3.49479987       5.94274627      13.06137023       0.07557462      -1.26874393       0.49684663      -0.80445141       0.34026408      -0.15272979      -0.00914506      -0.24113116
F        1.32491720       5.49289646      12.94773100      -0.53143636      -0.82325237       1.16895611       0.68464029       0.61034137       0.05692131      -0.01396118      -0.20700249
F        2.08725891       6.91414425      14.35545938      -0.52471116       1.16375361       0.52331577      -0.09494662       0.42318919       0.10883559      -0.00524606      -0.24562606
H        3.19047176       6.38469412      10.81996831      -0.01372053       0.00270056       0.07163187      -0.33749178       0.40453815       0.30192682       0.02168403      -0.07450849
H        0.87165579       7.69029792      12.00896549       0.01420248       0.12602740       0.02809080       1.95648324      -0.22196010      -0.01142050       0.01079398      -0.01441812
O        4.02005888      13.85797687       6.86308847       0.50045014       1.30503918      -0.50011644       0.53128231      -0.19781333      -0.54625946      -0.02654700      -0.06358646
C        4.62412332      12.67516301       6.40609738       0.42704006       0.91059875       0.83892082      -0.63460302      -0.65902984       1.27192700       0.00821402      -0.24810949
C        6.13642521      12.75638558       6.53312435       0.22248129       1.28440987       0.87222323      -0.50471622      -1.03205168       0.22354549       0.02203122      -0.11364286
F        6.35981092      12.60042876       7.87925904      -1.32532102       0.45243216       0.19501199       0.32697943       0.69704354      -0.89474893      -0.01347904      -0.22450781
F        6.62464243      13.90543826       6.07888972      -1.39888342       0.70566968       0.91430602       0.38927636      -0.13730326       0.52942079      -0.00703533      -0.28503197
F        6.74137550      11.73900068       5.89123984       0.06704816       0.54938627       0.21226722       0.09586462       0.82556337       0.52135736      -0.01051830      -0.21435121
C        4.21406979      12.38892682       4.99208805      -0.21847102       1.05462692       0.22971680       0.26796088       0.08825826      -1.20781541       0.02147728      -0.16472469
F        4.81156212      13.25164442       4.13853722       1.10581915       1.01719845      -0.89467953      -0.72396380      -0.00108725       0.87066126      -0.01016445      -0.14054997
F        2.91639800      12.43615050       4.74080770      -0.52431510       2.71445155       0.79982330      -0.38725927       0.37281594       0.14339727      -0.00995115      -0.19194864
F        4.58767393      11.11855664       4.68448269       0.11134550       1.76970246       0.83416232      -0.00398404       0.37130415       0.08865922      -0.01305779      -0.19750519
H        4.32177414      14.04993773       7.75791244      -0.32023675      -0.03612644       0.16195878       0.01453729      -0.04841433       0.02488650       0.02212322      -0.05164925
H        4.32921976      11.74923366       6.99837613      -0.11816881       0.00724758       0.11640776       0.46511140       1.17970395      -0.73924994       0.00911536      -0.02080239
O       11.52797624      12.90378473       8.80689736      -0.83407498      -0.00743904       1.23816508       0.54154634      -1.42915952       0.41114533      -0.02801410      -0.02412440
C       10.81843858      11.81692037       8.29468459       0.29269048      -0.31944109       0.05420591      -1.77951193       2.19556069      -0.14581808       0.00901185      -0.18706766
C       11.43113793      10.96381203       7.23227503       0.20456931      -0.16343721      -0.08454857       0.58193767      -0.38682079      -0.38660851       0.01900969      -0.17524104
F       12.54690526      10.38436234       7.66077325      -0.65047144      -0.57865686      -0.19264280      -0.20021988      -0.26315096      -0.46923313      -0.01194379      -0.06123826
F       11.75843441      11.67785697       6.14666539       0.81536396       0.96979639      -0.47086873       0.03717432      -0.04142429       0.16910730      -0.01048589      -0.23603955
F       10.57275188       9.97302806       6.90689147      -0.74544759       0.55970064      -1.12327339       0.15139771       0.46357685      -0.16712528      -0.01386660      -0.24769893
C        9.44406822      12.36459680       7.75881103       0.20229894       0.65718989       0.85766115       1.71098971      -1.31710494      -0.12751769       0.02098960      -0.05765393
F        9.48603697      12.71056021       6.46234419      -0.10039944      -0.53438136       0.82071798      -0.29479015      -0.32153007      -0.25758490      -0.00910222      -0.24921772
F        9.04650532      13.40940684       8.39599428       0.60624842       0.75056896       0.00189287      -0.32348508       1.74840403       1.04006839      -0.00928584      -0.19624914
F        8.58092537      11.39491604       7.98654690      -0.10377468       0.15167011       0.25073950      -1.16982281      -0.94559121      -0.48911285      -0.01233129      -0.21731390
H       11.59002074      13.58035604       8.15670089      -0.03486602      -0.03885391      -0.03750264       0.17802371       1.03524923      -0.96123660       0.02505475      -0.03989623
H       10.52020353      11.18947668       9.10775960       0.29201583      -0.14521315       0.03587773       0.16115151      -0.41945070       0.58575177       0.01032721      -0.03803593
O       14.13167110       8.74115469      10.38069304       0.06205339       0.07019283      -0.01125269      -0.30747381      -0.43340746       1.04327810      -0.02730142      -0.04910391
C       12.84707847       8.84485672      10.88857106       0.07368450      -0.72764065       0.42105144       0.31016228      -0.50383431       0.32845110       0.01023035      -0.13781758
C       11.91582702       8.07697827       9.94853419      -0.53625152       0.00632524       0.14766360       0.92210591      -0.47797418       0.11075766       0.02122284      -0.09292598
F       12.37903423       6.80211683       9.93001791      -0.48482666      -0.10154157      -0.66325202      -0.37838620       0.58243346       0.46448386      -0.01329615      -0.18953168
F       11.91841254       8.39722599       8.67949866       1.67054488       0.18322164      -0.93030542       0.11957963       0.76826352      -0.93376660      -0.00928053      -0.18167713
F       10.67773851       8.13316280      10.35914152       0.11371952      -0.49482464      -0.93683210      -1.24704444      -0.27199844       0.55679309      -0.00916358      -0.24371475
C       12.55886077      10.25655071      11.46381339      -0.32730440       0.16722947       0.76874451       0.76244241      -0.39242142      -0.06884958       0.02159032      -0.14490607
F       12.41672210      11.19472165      10.54026450      -0.61827031       0.35090032       0.42777846      -0.33743048       0.09431112      -0.29501796      -0.00946067      -0.21782647
F       13.63327123      10.58603543      12.20327759       0.91708013      -0.83501883       0.88904803      -0.44547912      -0.19780937       0.31500229      -0.01225402      -0.21844009
F       11.49639609      10.27987910      12.25601456       0.33918531      -0.37324051       0.87784605      -0.12943533       0.16408651      -0.19031990      -0.00925240      -0.21709409
H       14.14787601       9.17165278       9.55166639       0.01511822      -0.07345346      -0.14173055       0.33673975       0.74297309      -1.61021912       0.02209564      -0.02935635
H       12.85720969       8.19813082      11.75833718      -0.01531470      -0.00771554      -0.01268475      -0.28653058      -0.04935925       0.52463573       0.01246094       0.00328472
O        2.13060075      12.14797212       7.07159702      -0.88456400       0.28035272      -0.08326400       0.77995425      -0.31622842       0.80031145      -0.02048002       0.03563855
C        2.19938758      11.45270732       8.28124374      -0.31242709       0.56210163      -0.31978988       0.46940178      -0.61857682      -0.02024552       0.01459475      -0.22864926
C        2.15158978       9.92508580       7.94070387      -0.73976665      -0.09502865       0.21610708      -1.85876739       0.29835519       1.11701369       0.02397814      -0.04719272
F        3.13217879       9.66307081       7.13699980      -0.79798073       1.50236646       0.26925279       0.67416728      -0.36141714      -1.22766447      -0.00594780      -0.23625755
F        0.93794646       9.66561318       7.38079285      -0.28415879      -0.63562198      -0.20858079       0.41908363       0.08854970      -0.87799001      -0.01188616      -0.25260976
F        2.18574543       9.03138411       8.93177428       0.18630927      -0.43817011       1.03016972       0.74103528       0.46473771       0.39884251      -0.01008680      -0.16918156
C        1.06574982      11.92401741       9.14691647       0.62015524       0.34001243      -0.02715072      -1.02380240       0.45308822       1.57982874       0.02170671      -0.10841782
F       -0.04798357      11.82865292       8.43119814      -0.01697837       0.61491423      -0.21448799       0.01774038       0.33259299       0.03647723      -0.00917108      -0.12814851
F        1.12665185      13.19926231       9.54757129       0.47457026      -0.07265995      -0.68171223       0.68881196       0.19278489      -0.43952823      -0.01334834      -0.24261373
F        0.89102570      11.23839570      10.29699796       0.17125363      -1.07632248      -0.12356876       0.67219824      -0.03449975      -1.02640021      -0.01114099      -0.16514376
H        1.25109791      12.14974954       6.70738050      -0.09504835       0.03357166       0.04712606      -0.75529408      -0.18237521      -0.12248272       0.02741732      -0.03776938
H        3.16565315      11.62234033       8.78460372       0.06490877       0.10417821      -0.02015796      -0.29203010       0.22747026      -0.22202870       0.01376224      -0.04910122
O        8.77289534      11.07194148       4.02240423      -0.33059332       0.54228013       0.36631382       0.16306415       0.13462064      -0.26436988      -0.03004248      -0.05695067
C        8.70218940      12.31688774       3.39050301       0.63204223       0.08644078      -0.39922416      -0.24613464       0.96873105       1.02556109       0.00957256      -0.22981112
C        7.49585639      12.27474937       2.44098471      -0.30546991      -0.22332733      -0.01791762       0.23175593       0.13103715       1.24021065       0.02247830      -0.14014155
F        6.42223814      12.02914272       3.19437210       0.21996892      -0.39696962      -0.72193274       0.63528955       0.06834692      -0.64797062      -0.01057564      -0.11435913
F        7.61844913      11.26601426       1.58865953       0.28826986      -0.27976545      -0.08034512       0.10701098       0.02970338      -0.11879081      -0.01046217      -0.17692478
F        7.28523052      13.44424761       1.79845718      -0.17432599       0.10538635      -0.97501878      -0.02126802      -0.30666992      -0.15785068      -0.00902880      -0.27720281
C       10.04149668      12.74279156       2.76580523      -0.04303647       0.14049660      -0.59742979      -0.50483310      -0.72894746      -0.14429533       0.02087948      -0.17601401
F       10.52649201      11.73140176       2.01040362       0.28385451      -0.19886189      -0.00338394      -0.02464117       0.41077867      -0.00671320      -0.01114507      -0.26636577
F       10.90070859      12.99770539       3.75549516       0.08431946       0.88312890      -0.87048835       0.08169755       0.19809116      -0.39580727      -0.01104043      -0.25274056
F        9.92794447      13.82578993       1.97753326       0.27353611      -0.38124349      -1.38304055       0.12487441      -0.26610571       0.30344030      -0.01105464      -0.26183319
H        8.87545921      10.37401401       3.35362543      -0.09759060       0.00446976       0.06063174      -0.01350064       0.24908949       0.18692732       0.02530059      -0.03710929
H        8.52283092      13.08559459       4.20910913       0.16818016       0.10575211       0.10181064      -0.10929003      -0.90409428      -1.06726074       0.01278610      -0.04184049
O        6.92278220       3.83582160       8.87933680      -0.68001750      -0.13192161       1.12859012      -1.27339351       0.06171017       1.23104596      -0.02909385      -0.09705044
C        6.35971593       4.18083191      10.17096757      -0.59455728       0.53425528      -0.01235382       1.81582987      -1.29531848      -1.13471234       0.01252062      -0.24640684
C        5.94325774       5.62055247      10.15638018      -0.29530531      -0.88341723      -0.19341519      -0.50750786       0.82442462       1.08258986       0.02228936      -0.15025140
F        4.90518553       5.73219378       9.32316673      -0.44036785      -1.36167170      -0.15681975      -0.32709566       0.25814304      -0.28190774      -0.00998012      -0.22182597
F        6.91655905       6.46575714       9.82555719      -0.26752788      -1.41430700       0.62536533      -0.57737988      -1.00635338       0.02469654      -0.01101439      -0.12895484
F        5.45247969       6.00526316      11.38527268       0.08235746      -1.95906025      -0.07198879       0.40529117      -0.41858888      -0.91258681      -0.01300886      -0.24292475
C        7.42298093       3.86630150      11.24527534       0.34032494      -0.81212491      -0.83669736      -0.95843852      -0.07173987       0.09384148       0.02286670      -0.14042245
F        8.52848258       4.55842941      11.01844421      -0.92427149      -0.17229297       0.52053550       0.34923735       0.00853213      -0.21035571      -0.00862683      -0.18990943
F        7.69005178       2.55759658      11.24518601      -0.74384533      -1.07554036       0.15183576       0.34092572       0.12475932      -0.23239750      -0.01203229      -0.26058665
F        7.03819140       4.17147214      12.48984727      -0.22415594      -1.31160509       0.23274492      -0.34961030       0.06519741       0.26389384      -0.01097664      -0.27741694
H        7.81261286       4.17325586       8.84046974      -0.13133893       0.14551787      -0.12276005       0.75809199       0.33323836      -0.12538777       0.02273806      -0.06252070
H        5.51662057       3.50112685      10.28468020      -0.13825495       0.06712796      -0.10162335      -0.12512545       0.35701564       0.27349594       0.01145286      -0.06318581
O       10.54494367       3.37448190       9.98642156       0.03790691      -1.00694796      -0.06035958       1.58955908       0.33541271       0.55675596      -0.03405194      -0.06225891
C       11.05283357       3.24810104      11.31550479       0.62381239      -0.01656331      -0.73172589       0.14795385      -1.23314643      -1.52652872       0.00777086      -0.21247798
C       11.73617799       4.51783572      11.74327991       0.73496254      -0.66840065       0.73269581       1.28235006       0.21544923       0.07591805       0.01981117      -0.16002953
F       10.88081412       5.52956531      11.71862881       0.29363383      -0.44575671      -0.29509167      -0.23784161       0.40571836      -0.11064107      -0.01157665      -0.24618924
F       12.73580952       4.76317420      10.85320621       0.75293423       0.68934085       0.78006565      -0.36424953      -0.32665890       0.87068141      -0.01330651      -0.15386519
F       12.29591976       4.52261733      12.96658354       0.85849709       0.13034367      -1.02770854       0.16483693      -0.48127463      -0.79915828      -0.01135446      -0.20702800
C       11.86261255       1.94668220      11.29488620       0.43317726       0.00963321       1.30628156      -0.31205875       0.63273954      -0.52250957       0.02042648      -0.13225266
F       12.83281662       1.97578627      10.33466566      -0.18198767       0.09926701      -0.07084884      -0.41465008      -0.55044913       1.36488533      -0.01235739      -0.25977767
F       10.97588817       1.00047530      10.96076922       1.07558379      -0.37632433      -1.00628316       0.95638025       0.07692436      -0.26198593      -0.01204747      -0.17260621
F       12.33383589       1.65832713      12.50977917       1.85471355      -0.64345878       0.61777048       0.64094728      -0.24292614      -0.65234137      -0.00936302      -0.25189987
H       11.35189317       3.59107643       9.44179495      -0.21016012      -0.14288739      -0.14719616      -1.30248332      -0.39212468       0.76436621       0.02008053      -0.03529196
H       10.26686898       2.95407779      11.96678323       0.00615431       0.13152303      -0.04513796      -1.03667712       0.39693406       0.64051783       0.01152110      -0.02997196
O        6.17867521       6.89500904       7.51394904      -0.05225892      -0.87474443       0.30122943       0.74633324       0.36328641      -0.71014440      -0.02760355      -0.03167275
C        6.91825579       7.47624064       6.45090246      -0.46807400      -0.45171787       0.10025190       0.14727089      -0.26319683       1.94460440       0.01339079      -0.25148112
C        6.05103016       8.57404341       5.88803812       0.23287729       0.34372946       0.10111285       0.06691813       0.55682927      -0.56163752       0.02169673      -0.15681045
F        5.72564285       9.48564934       6.84069998      -0.43895805       0.83017322      -0.62118065       0.42685002      -0.71809959      -0.69130176      -0.01247429      -0.25406143
F        4.92196784       7.98694782       5.46652191      -0.23707034      -0.17837601       1.04084220      -0.38987955       0.38185129      -0.02210436      -0.00930515      -0.25073004
F        6.61322188       9.20948495       4.84192294       0.67658150       0.05645968       1.00411988      -0.36126894      -0.09272819       0.70090812      -0.01104796      -0.23818696
C        7.33504430       6.40376801       5.48103848       0.63845683      -0.12362575       0.13696606       0.58372039      -0.86970204      -1.21159101       0.02317970      -0.11851539
F        6.34958382       5.50592186       5.21376092      -1.02162584      -0.77281018       0.24653265       0.16222735       1.14532614      -0.49080524      -0.00718836      -0.25927240
F        8.31310458       5.63287623       5.97421493      -1.16838703      -0.17716051       0.99685296      -0.46070230       0.49256930       0.06393734      -0.01140343      -0.17932506
F        7.82841099       6.99274015       4.34648976      -1.56326596      -1.64706436      -0.94972392      -0.76452059      -0.96573097       0.66492671      -0.01200494      -0.23768091
H        5.45243890       6.37194675       7.15226511      -0.08643923      -0.06552019       0.16436078      -0.00123434       0.02140999      -0.13563961       0.02701350      -0.03897998
H        7.86706970       7.87679027       6.87474204       0.12656115      -0.07258841       0.07705268      -0.69961536      -0.03242920      -0.24448809       0.01358967      -0.04958609
192
Lattice="14.05790476106759 0.0 0.0 0.0 14.05790476106759 0.0 0.0 0.0 14.05790476106759" Properties=species:S:1:pos:R:3:momenta:R:3:forces:R:3:charge:R:1:energies:R:1 Built=T with=T Packmol=T charge=0 spin=1 external_field="_JSON [0.0, 0.0, 0.0]" energy=-16.16034698486328 stress="-0.010135508142411709 0.00013931895955465734 0.002852492732927203 0.00013931895955465734 -0.003936094231903553 1.0201955774391536e-05 0.002852492732927203 1.0201955774391536e-05 -0.008266579359769821" dipole="0.6229944229125977 -0.191960871219635 0.36779430508613586" free_energy=-16.16034698486328 pbc="T T T"
O       13.17772840       5.77492900       6.89508513       0.14458739      -0.17309112       0.32781041      -0.33884090      -0.52329445      -0.88807851      -0.02728060      -0.08396562
C       12.36259232       4.64400166       6.65738641      -0.02070558      -0.12030953      -0.06071937       0.37938681       0.77389109       0.29685637       0.01481900      -0.27414143
C       10.93293814       4.95583682       7.11922504      -1.02808106      -0.45627508      -0.08086334      -0.13752221      -0.12978749       0.08567195       0.02365360      -0.12524526
F       10.56416813       6.04643601       6.47311536       0.49960940      -0.46399758       0.76047644      -0.14488447       0.15889667      -0.15209875      -0.01014167      -0.18793729
F       10.88940424       5.25114518       8.43957744      -1.56404585       0.18668586      -0.58049552       0.00911475       0.05906825      -0.63996440      -0.00840743      -0.19412437
F       10.04452302       3.94832700       6.90811281      -0.75811840      -1.35830232      -0.12820362       0.68051946       0.74442393      -0.00053130      -0.00940409      -0.26188222
C       12.95647064       3.46725978       7.35622172       0.77403786       0.09723619       0.55036580       0.68802238      -1.50734890       1.73890424       0.02416045      -0.10767151
F       13.25053111       3.82044348       8.64302010      -0.25023193       0.70879357      -0.79276059      -0.13406304       0.07301090      -0.56934470      -0.01009748      -0.21987645
F       14.08613597       3.00278523       6.84678066       0.15063538      -0.66472936      -1.43852448       0.11248619       0.37645689      -0.59728092      -0.00746045      -0.24962956
F       12.12692074       2.40230126       7.45200374       1.00276180       0.32143132      -0.69666980      -0.19187243       0.34334016      -0.24022847      -0.00859343      -0.26006785
H       13.30009019       5.91040137       7.83756401       0.07822835      -0.20282949       0.05209690      -0.07909520      -0.06632448       0.42111486       0.02318515      -0.06073881
H       12.35425096       4.42252686       5.59651773      -0.04169336      -0.14695325       0.12087479      -0.10048769       0.20086327      -0.29703090       0.01509720      -0.05276682
O        1.98787387       9.00719041       2.16236989      -0.68260258      -0.37833556      -0.18944953      -0.44738770       0.32092866       0.94476742      -0.02455124      -0.16793977
C        3.02136969       9.90980619       2.44693334      -0.14262046       0.08818390      -0.09183756      -0.36106727       0.39678875       0.25521260       0.01291667      -0.21799280
C        2.69143202      11.31148187       1.82639536      -0.42126734       0.92148600       1.13834072       1.04080045      -1.06389403       0.89223659       0.02200228      -0.13343628
F        1.51454292      11.65478349       2.28978490      -0.82538286      -0.96727981      -1.28769876      -1.23490989       0.50758225       0.68192863      -0.01007581      -0.25268704
F        2.60236792      11.33959396       0.52057778       0.41641562      -0.19163660       1.23600146       0.32309252       0.08820192      -0.99878937      -0.00912887      -0.20795952
F        3.58784934      12.22255763       2.21205621       0.03761540       0.82823153      -0.23878012       0.17272726       0.03064712      -0.25119400      -0.00816784      -0.24211767
C        4.35334343       9.21421651       2.13409487       0.20330005       0.15797440      -0.50084541       0.30327040       0.63022381      -0.62867486       0.02206739      -0.15064818
F        4.36366238       8.69759263       0.87649363       0.78334745      -0.08439018      -0.50440385       0.11690969       0.47610444       0.49028799      -0.01095534      -0.25812662
F        4.46341545       8.19580003       2.95828844       1.14488485       1.10948932       0.63485725       0.25948301      -0.63103366       0.41437113      -0.00890629      -0.22945367
F        5.44133028      10.00131524       2.28063406      -0.12425525       0.66557910      -0.42561423      -0.98764700      -0.65344161      -0.34884116      -0.01084102      -0.24165417
H        2.03565294       8.67930809       1.27440525       0.04119997       0.07613758      -0.06552112       0.35663861      -0.24441940      -1.01860702       0.02189536      -0.05755144
H        2.98638735      10.05292238       3.54578155       0.08394599       0.02769753      -0.00378776       0.16812731       0.06232984      -0.67638165       0.01211317      -0.03888974
O        7.49092455      12.27100121      13.42046412       0.01725296       1.31393142      -0.18164740      -0.25766069      -0.39804855       0.17284536      -0.02705409      -0.03031618
C        7.93829705      12.44506275      12.13406293      -0.75440514       0.49371784      -0.24680926       0.77066594      -0.71244484      -0.09271211       0.00901069      -0.23622747
C        9.34709831      13.05558897      12.21158426       0.13085067       0.36172619       0.40064446       0.05020768      -0.25176764      -1.07818794       0.02141842      -0.12471099
F       10.10810936      12.44747123      13.14733918       0.25406612       0.60352696      -0.12478992      -0.56228274       0.65087372      -0.81702465      -0.01188086      -0.25373331
F        9.26658476      14.36946424      12.51664609      -0.44302700       1.06079398      -1.18596230       0.33925703      -0.62047011       0.07494595      -0.01091686      -0.24224040
F        9.94156367      12.87815013      10.98596813      -0.55568590      -0.25807550       0.04724543      -0.34622410       0.23578696       1.42256737      -0.01401758      -0.19349489
C        6.89602967      13.26371713      11.42541377      -0.02409659       0.80574579       0.43277165      -0.16984889       0.39518693      -1.50170684       0.02186128      -0.15602131
F        6.71169381      14.42037619      12.04695701      -0.37823918       0.92278376       0.53864265      -0.47463977       0.38237557       0.54775172      -0.00937288      -0.22682115
F        5.71530893      12.61357807      11.39929578       0.59965251       0.90999143      -0.25077524       0.47148368       0.13600129      -0.06315157      -0.01353141      -0.28580064
F        7.23621436      13.56663220      10.15178098      -0.97356946       0.73167626      -0.37970040      -0.18224813      -0.30083737       0.54047310      -0.01324716      -0.24529628
H        7.28739163      13.13728747      13.78061819       0.21923708       0.13572262       0.00100261      -0.10421468       0.20995280       0.31358892       0.02578145      -0.01330764
H        8.03705643      11.48312979      11.58119044       0.04238427      -0.02553721      -0.00895696      -0.10423154       0.64635473       0.66282529       0.01069015      -0.04388320
O       13.31685999       8.52415734       1.80090583      -1.50697712       0.26158403      -0.68068757      -1.21983588      -0.40650567       0.17292786      -0.03083556      -0.13328183
C       12.25123718       8.69003804       2.67580556       0.29006843      -0.17702767      -0.65465858      -1.31087101       1.64078033       0.43812481       0.01364929      -0.19592071
C       12.34219325       9.86968195       3.73109656       0.16981334       1.56419227      -0.67516016       0.34552208       1.50623953      -0.85002548       0.02170641      -0.09328426
F       12.75242254      11.05956998       3.17729202       1.71135863      -0.18137911      -0.80958616      -0.04804841      -1.35822225      -0.16637860      -0.01417337      -0.23667705
F       13.20488006       9.63619992       4.70403756       1.31391182       1.59888185      -0.99242197       0.56768620      -0.36059403       0.44707066      -0.01136323      -0.24366769
F       11.15616174      10.13362793       4.29223425       1.32747519       1.28377491      -0.72952758       0.21666144      -0.77206743      -0.56920779      -0.01026551      -0.19103156
C       11.84152477       7.46867155       3.49381161       1.20155544       0.87246754       0.14361352       0.26710582      -2.00195003      -0.00637216       0.02288666      -0.12653251
F       12.70835615       7.18272490       4.48545185       0.74786708       0.20513744      -1.71821812      -0.67973298       0.15150449      -0.35287288      -0.01117968      -0.23881710
F       11.83016451       6.32557685       2.71077546       0.18524881       0.38069770      -0.22649341       0.02457248       1.35514295       0.49282441      -0.01230646      -0.22335403
F       10.59073160       7.59391905       4.00649903      -0.83930231       0.25167603      -1.46553531       1.11509204      -0.00438266      -0.37242946      -0.01215130      -0.25064296
H       14.14069468       8.89564478       2.11233280      -0.16160700      -0.38819869      -0.30298415       0.70194793       0.31940609       0.63056743       0.02010768      -0.08304384
H       11.31868215       8.95361574       2.12194390       0.21381940      -0.06806928      -0.17993486       0.69525236      -0.19216280      -0.04065990       0.01387786      -0.03208566
O       10.59627080       4.81145996       0.73814889      -0.39600984      -0.96009018       0.47521426      -0.02023811      -0.01508550      -0.05263487      -0.03083912      -0.03245227
C       10.33149998       3.56227054       1.34523718       0.98478516       0.22307053       0.72054093       1.13950145       0.91345322      -0.37776256       0.01254555      -0.21915781
C        9.27412113       3.82610751       2.42126600      -0.22836954      -0.96888947      -0.43204475      -0.34401110       0.99740249      -0.74782568       0.02320769      -0.13977115
F        8.17349136       4.31450187       1.75074821      -0.11765018      -1.05301866      -0.37706879       0.89562893      -0.48779860       1.01508319      -0.01191481      -0.25225097
F        9.71452049       4.80454096       3.26366091       0.09399837      -1.34783856      -0.03092073      -0.66332710      -1.14349282      -0.30295524      -0.01111145      -0.25892776
F        8.91012877       2.74494978       3.09935816      -0.40397033      -0.58807572      -0.92842140       0.05513433       0.28629062       0.13963614      -0.00602139      -0.26724154
C       11.68157758       2.90026134       1.80677065       0.35287222      -0.49997258       0.33161379      -0.68097198      -0.08413848      -0.61191714       0.02205462      -0.09740710
F       12.46446830       3.73866096       2.45057738       0.20084063      -1.53307267      -0.27244159       0.48757330       1.55694890       0.45502719      -0.00826286      -0.24900040
F       12.36763094       2.45066023       0.76926017       1.69168453      -0.91370329       0.71556536       0.19215430       0.26101327      -1.10302079      -0.01062747      -0.22165428
F       11.56075820       1.87024844       2.58954652       0.21703394      -0.84271139       0.20741593      -1.14875913      -1.44793046       1.38873708      -0.00790421      -0.20528176
H       11.39307955       5.24678069       1.07323343       0.05256381      -0.29295648      -0.04820706      -0.26645577      -0.22978657       0.26054740       0.02261936      -0.06295101
H        9.89673408       3.01247595       0.51194939       0.21307992       0.13772521       0.03041641      -0.13288806      -0.76584166       0.49526668       0.01398051      -0.03014979
O        8.49923851       7.12998436      11.66136690      -0.04292820      -0.16056757      -0.08746178       0.75567281      -1.54409301       0.27534804      -0.02956410       0.03504790
C        8.36605612       8.45396653      12.01162499      -0.02752040      -0.62177273      -0.14550231       0.50925183      -0.40409854       0.42821118       0.00863177      -0.27381393
C        9.11147175       8.68901210      13.32855163       0.26044317       0.12523801       0.30775103      -1.69999003       1.76893675      -0.50972271       0.02143905      -0.11464874
F       10.38222386       8.41098517      13.22218573       0.16334807      -0.97739880       0.60464145       1.19380021      -0.38238207      -0.04512271      -0.00969474      -0.21419008
F        8.64458425       7.92759435      14.30155672       0.26364642       0.50422660       0.06323774      -0.46492466      -0.31399858       0.73676819      -0.00879671      -0.28087497
F        8.94367551      10.00120036      13.66644427       1.13578077      -0.03833964       1.01528944       0.73712701      -0.97797054       0.26068941      -0.01294190      -0.22628245
C        6.88208105       8.76364366      12.06596312      -0.05176981      -0.63077890      -0.08661833       0.43512732       0.34504658       0.57820165       0.02144748      -0.15507886
F        6.26128819       7.91634706      12.88508296       0.00939982      -0.30875755       0.85174731       0.16310178       0.49535689       0.32313123      -0.01100581      -0.20536657
F        6.35215380       8.61168320      10.85465402       0.76776212       0.15430680      -0.50265080      -0.16920839       0.65458226      -0.04724502      -0.01181944      -0.23387253
F        6.72972391      10.05327285      12.47783370       0.83177202      -0.96489289      -0.16690192      -0.91828442      -1.22358847      -0.32003796      -0.01094780      -0.18681082
H        8.78798428       6.52065526      12.39279562      -0.10593638       0.01633560      -0.10108954      -0.44078228       1.14114857      -0.80865198       0.02550340      -0.04259558
H        8.80133186       9.10969088      11.24276015       0.09547699       0.02466148       0.04240856       0.01688289      -0.16902532       0.17793614       0.01170312      -0.05602630
O        3.84818106       1.26703541      12.06808397      -0.56825178      -0.39447334      -0.43268677      -0.36263058      -0.68457550      -1.96450055      -0.02690348      -0.04873065
C        2.68764166       1.70977802      11.39257198      -0.91046700       0.18017526       0.15771970       0.64123338      -0.32750842      -0.04189675       0.01245963      -0.23842943
C        2.87970220       1.62091389       9.84255585      -0.95427074       0.20560816      -0.27449207      -0.34275740      -0.29311666       1.21085370       0.02460322      -0.09647994
F        3.48852430       0.42994452       9.59266188      -0.47410967       0.42563978       0.02007309      -0.58811551       0.38737047      -0.27895260      -0.00721183      -0.25110272
F        3.63580529       2.55729393       9.29060705       1.12229983       0.29247396      -0.00948068       0.26088408       0.02828324      -0.12574759      -0.00619295      -0.23839337
F        1.65545705       1.70960099       9.28863040      -0.82632853      -0.53455815      -0.30629452       0.77495420      -0.41506273      -0.12001306      -0.01148225      -0.23222432
C        2.31704308       3.12891440      11.79930489       0.54183946       0.22845550      -0.44017725      -1.81537008      -0.22634687      -0.11549214       0.02269010      -0.10781194
F        2.95936239       4.08668789      11.15436169      -0.38182209       0.38712308      -1.42669071       0.53582948       0.19511609      -0.16735652      -0.00633487      -0.22214013
F        2.56612035       3.27405996      13.10747986      -0.23950996      -1.25580891      -0.48761354      -0.28784096      -0.05740988      -0.04341415      -0.00608198      -0.23441030
F        0.98063781       3.32377655      11.53169433      -0.21531041      -0.27386795       1.07011439       1.21177042      -0.23750745       0.60441697      -0.01508662      -0.22871311
H        4.05005439       1.76676345      12.83973398      -0.36040547      -0.07933159       0.26012700      -0.07318968       0.79898912       0.96535194       0.02613539      -0.04665053
H        1.83409941       1.04098026      11.61054752      -0.17866653      -0.00932153       0.08965506       0.24237576       0.37372223      -0.02817598       0.01527600      -0.05210953
O        2.31592500       6.84369767      10.82958095      -0.21773128       0.81305942       0.86087617      -0.60800827       0.31138125      -0.84938455      -0.03061315      -0.08650535
C        1.98530485       7.48057331      12.01303580       0.07883445      -0.04183501       0.04003379       3.07670760      -0.73501611      -0.14137129       0.00907725      -0.25570381
C        2.76889852       8.76488714      12.23168120       0.03162882       0.55869399       0.37096562      -1.14480865       1.35031164      -0.60060596       0.02032364      -0.11564636
F        2.55351526       9.72981177      11.32629348      -0.78765065      -0.15583971      -0.21991921       0.05265208      -0.54105502      -0.71183902      -0.01401805      -0.17695837
F        4.04821276       8.59524957      12.29687973      -1.11427904      -0.31564994       1.57973216       1.46588469      -0.64810669       0.01412977      -0.00743111      -0.20873760
F        2.35121163       9.34607358      13.34519005       0.57172035       0.24661236       0.67243320      -0.55894053      -0.21250887       1.48190999      -0.00893969      -0.17767027
C        2.24985537       6.47313336      13.10941061      -0.23912177      -0.64461827       0.58508725      -0.60587984      -1.32703638       1.43921220       0.02305210      -0.09942289
F        3.49037726       5.91288362      13.07339815      -0.45221679      -1.01156801       0.43846551      -1.19960165       0.67599690      -0.08200529      -0.00845880      -0.24334562
F        1.31622717       5.47650641      12.97851873      -0.12486118      -0.41968167       1.21157406       0.86498153       0.89602822       0.05513325      -0.01402070      -0.21121641
F        2.07354371       6.94623495      14.36816440      -0.51623145       1.27771833       0.40868464       0.14179352      -0.06511362      -0.49018928      -0.00631188      -0.24975017
H        3.17314031       6.41896182      10.88912240       0.02353486       0.09206890       0.19770828       0.41327325      -0.03857886       0.11398414       0.02177141      -0.06155642
H        0.98976470       7.73730302      12.01993350       0.06557918       0.12674519       0.01302417      -2.23111224       0.35939816      -0.04074566       0.01034876      -0.02524637
O        4.03953059      13.89856312       6.84701011       0.74735663       1.38405727      -0.47614521       0.29275623       0.34063002       0.21708669      -0.02758988      -0.07874800
C        4.63336510      12.70773167       6.44619380       0.03900756       0.84893252       0.83837165      -0.51137149       1.19449103      -1.97516775       0.00737027      -0.24666040
C        6.13760071      12.79316631       6.56832916      -0.22187489       0.42113233       0.77039546      -1.15355718      -2.10371351      -0.71537423       0.02188162      -0.07752091
F        6.32885619      12.61675103       7.88098673      -1.01207629       0.80502744       0.03794210       0.98991251       0.62870997       0.29795367      -0.01113483      -0.21443141
F        6.59226728      13.92521122       6.10557203      -1.05183478       0.89229933       1.13023376       1.00644696       0.66833675       0.30305445      -0.00584648      -0.27444646
F        6.74336567      11.75993519       5.90088358       0.07721919       1.10307403       0.55467816      -0.02632165       1.21574104       0.76774138      -0.01239872      -0.22171074
C        4.21011961      12.43426467       4.99176433       0.06639369       1.18317150      -0.16647396       0.73546022       0.32544693      -0.26392999       0.02106236      -0.15343392
F        4.83481402      13.27762578       4.12180268       0.66285677       0.97897327      -0.37208911      -1.06140125      -0.15546040       1.18452239      -0.01070056      -0.14977704
F        2.90144557      12.50914532       4.76223023      -0.58327577       2.92028459       0.83955170       0.20858790       0.24774265      -0.06201478      -0.01019618      -0.20708442
F        4.58978860      11.16685604       4.70638144       0.02649663       1.94979755       0.83850239      -0.31293976       0.18228497      -0.16078024      -0.01249093      -0.20217898
H        4.15656951      14.01941808       7.80063571      -0.36166120      -0.08711707      -0.01566923      -0.04250020      -0.02402110      -0.24124488       0.02113670      -0.05590728
H        4.32468685      11.86302245       6.98656977       0.02943103       0.24996807      -0.02736027      -0.31392631      -1.16040456       0.78173703       0.00895090      -0.02680689
O       11.50759049      12.89993161       8.84082185      -0.45319088      -0.04321000       0.76370732       0.96427655       0.59234977      -1.67361832      -0.02834063      -0.02111429
C       10.81378340      11.82139445       8.30024209      -0.44481891       0.37799621       0.33216774      -0.81911880       0.40373343       1.05420244       0.00850732      -0.18536001
C       11.44284388      10.95653596       7.22259174       0.28723637      -0.10087571      -0.41802294      -0.36166710       0.69708109      -0.73653132       0.01911147      -0.16780683
F       12.52977325      10.36747203       7.65278256      -0.63021043      -0.72926974      -0.42343606       0.31999582      -0.27406257      -0.44254318      -0.01038227      -0.05232285
F       11.77981910      11.70188549       6.13661071       0.83695323       0.85429568      -0.27286986       0.01484349      -0.44779229       0.57678390      -0.01185059      -0.24100062
F       10.55498072       9.99094784       6.87667804      -0.60287976       0.83626204      -1.20930666       0.45540810       0.57928628      -0.11718403      -0.01395573      -0.24676099
C        9.46629931      12.37391364       7.79134649       0.74367154      -0.24036998       0.71052752       0.01796264      -1.74084890      -0.41096050       0.02167577      -0.08819444
F        9.48212300      12.69489596       6.48225462      -0.17552585      -0.66965421       0.73220071       0.02770955      -0.22953109      -0.09417100      -0.00975497      -0.24145779
F        9.06015257      13.44013449       8.40310968       0.46478799       1.57391637       0.53575026      -0.13437696       1.10346484       0.87876087      -0.00898323      -0.20517200
F        8.57182833      11.39438389       7.99058484      -0.54727118      -0.13014047       0.08425885      -0.53297186      -0.19206128      -0.20344619      -0.01358793      -0.23800078
H       11.58972869      13.58576523       8.13159907       0.02327318      -0.10460160       0.12254203       0.09595635      -0.57496363       0.90077424       0.02568257      -0.03244473
H       10.66438506      11.10980302       9.14524572       0.25658774      -0.07973485       0.00151430      -0.38821977       0.65717018      -0.62799966       0.00991589      -0.03557868
O       14.13164383       8.74434412      10.37861226      -0.04747594       0.21747322      -0.33450343      -0.15587075       0.31564334      -0.95476586      -0.02817792      -0.03994557
C       12.85221220       8.81443402      10.90740456       0.15092817      -0.69175997       0.50956582      -0.00604959       0.37339702       0.35399091       0.00970683      -0.16525663
C       11.90738606       8.07222300       9.95177272       0.18036742      -0.23295776      -0.06893406       1.55391765      -0.39641809      -0.83294201       0.02098066      -0.08506453
F       12.36388516       6.80279046       9.91576588      -0.68404196       0.13021659      -0.43830859      -0.33567908       0.28909588       0.46422273      -0.01366831      -0.17767991
F       11.96208888       8.40643631       8.65214208       1.68224081       0.50685990      -1.07149082      -0.17528717       0.49114400       0.43531492      -0.01127757      -0.18950695
F       10.67127866       8.11892216      10.33821136      -0.63023301      -0.59066021      -0.69531664      -1.40546656      -0.07763433       0.38094628      -0.00776094      -0.24574037
C       12.55598417      10.25751104      11.49168366       0.22915647      -0.15580804       0.52814266       1.24186170      -0.79882330      -0.83253497       0.02166895      -0.11695030
F       12.39907126      11.20343177      10.55119734      -0.71744905       0.28024800       0.47973853       0.01720709      -0.41770256       0.44781050      -0.01009654      -0.22151491
F       13.65315582      10.56333712      12.22774726       0.58252156      -0.90602755       0.97592114      -0.89288425      -0.02756132      -0.02076570      -0.01279632      -0.22653270
F       11.50366066      10.27153688      12.27858065       0.20621424      -0.26171074       0.89061974      -0.30885991       0.27813110       0.08136665      -0.00800698      -0.21486649
H       14.17115922       9.13762019       9.46970615       0.02937591      -0.18913200       0.08273422      -0.22923125      -0.50322318       1.17006803       0.02293240      -0.04554859
H       12.82609722       8.18047620      11.81339292      -0.08338625      -0.03907817       0.16722579       0.05652973       0.18986346      -0.23880878       0.01223927      -0.01931386
O        2.10459932      12.15464846       7.07230315      -0.95633050       0.16311639       0.04312551      -0.66199207      -0.21674238      -0.09496997      -0.02120912      -0.00644653
C        2.19231931      11.46854412       8.27024175      -0.09343537       0.19376269      -0.17784881      -0.20632266      -0.83077151       0.46860129       0.01382245      -0.23772550
C        2.10734088       9.92471378       7.96051256      -1.25837054       0.07874311       0.70568106       0.09043783       0.31900325       0.55689597       0.02376881      -0.05221219
F        3.11497837       9.69953433       7.13691818      -0.58306910       1.30867792      -0.22495171       0.08205099      -0.47048450      -0.62118983      -0.00826113      -0.24512205
F        0.93266962       9.64934494       7.37043104      -0.14984367      -0.63143723      -0.56257761       0.11587148      -0.01662391      -0.49790224      -0.00930240      -0.26227766
F        2.19466187       9.02394296       8.95947442       0.47194659      -0.10085325       1.05073793       0.35539076       0.89390630      -0.33913454      -0.00974973      -0.17204164
C        1.07792407      11.93985420       9.16058389      -0.05750543       0.35941036       0.62450969      -1.39893615      -0.43501136       0.71001089       0.02181436      -0.10432713
F       -0.04777078      11.84657884       8.42640925       0.04239775       0.76247841      -0.13349736       0.12506856       0.22112219       0.30285943      -0.01006490      -0.14547177
F        1.14345141      13.19960135       9.52819335       0.82053948       0.14537706      -0.76320495       0.62820172       0.73483300       0.20687573      -0.01121951      -0.24185613
F        0.89998413      11.21156224      10.28643468       0.51904314      -0.95028005      -0.69943266       0.62882686       0.54143399      -1.08077192      -0.01096116      -0.17233874
H        1.18293562      12.14736358       6.73914729      -0.04389805      -0.03575338       0.12383503       0.59621280      -0.08416981       0.23161732       0.02761045      -0.02983921
H        3.14813928      11.68387988       8.74213603      -0.09486688       0.12085800      -0.12925795       0.16849735      -0.10053022       0.05515160       0.01388741      -0.04533171
O        8.76434073      11.09083990       4.03285574      -0.21110333       0.71341901       0.35063350       0.35344875       0.32293323       0.06850545      -0.02978190      -0.05172497
C        8.72292259      12.32890372       3.38357903       0.33701402       0.34821148      -0.08968892      -0.78815514      -0.76102561      -0.66591489       0.01018821      -0.23655577
C        7.48869387      12.26874460       2.44995201       0.02770062      -0.03609251       0.35902313       1.07453704       0.53326958       0.07277171       0.02260207      -0.12706456
F        6.43085940      12.01921522       3.17250814       0.39293787      -0.37151532      -0.91601663      -0.00851352       0.06075813      -0.01324634      -0.00840558      -0.10225456
F        7.62673599      11.25910665       1.58597291       0.35875275      -0.24010488      -0.11233589       0.17946211       0.19372818       0.05448895      -0.01146636      -0.18526366
F        7.28058844      13.44414054       1.77282921      -0.18075312      -0.14511968      -0.97257797       0.02671173      -0.67346543       0.25294888      -0.01051518      -0.27510238
C       10.03697173      12.74102123       2.74017463      -0.11948334      -0.21541911      -0.64246984       0.19225504      -0.56990707       0.02629029       0.02081865      -0.17764944
F       10.53388677      11.72853502       2.00992734       0.29273733      -0.04008912      -0.04763759       0.03619432       0.19305736      -0.17922892      -0.01068062      -0.26733091
F       10.90324922      13.02191406       3.73008401       0.10352813       0.98197934      -1.09974030      -0.02068019       0.11012939      -0.45037752      -0.01203356      -0.25353995
F        9.93557477      13.81438071       1.94317435       0.30326507      -0.49473763      -1.28171461      -0.03587355      -0.18746935       0.20470269      -0.01088314      -0.26219106
H        8.82980664      10.38338689       3.38451719      -0.08339327      -0.00601068       0.02710427       0.05087707      -0.11933299      -0.17711316       0.02508647      -0.03749461
H        8.57880334      13.04758206       4.14540831       0.01786405      -0.10205351      -0.19841938      -0.59788626       0.90453392       0.78754622       0.01372013      -0.03068609
O        6.89662798       3.83286300       8.91980808      -0.82653864      -0.02883829       1.35288719       0.65787727       0.25261134      -0.57996410      -0.02739281      -0.09234919
C        6.35294614       4.18452611      10.16095189       0.22624303      -0.40284711      -0.40182326       1.32275879      -1.85420549      -0.20251018       0.01112491      -0.25143173
C        5.92655803       5.59484116      10.15972578      -0.49143491      -0.36469516       0.34071540      -0.14145173       0.89181745       0.85766065       0.02171197      -0.15400515
F        4.89144427       5.69860459       9.31723564      -0.62498972      -1.22364857      -0.29694258      -0.35109890       0.39973006      -0.21540380      -0.01021325      -0.22672696
F        6.90622359       6.42338782       9.84146887      -0.51156172      -1.80944811       0.58211977      -0.32520363      -0.35685736      -0.25124955      -0.01039115      -0.13640392
F        5.45639503       5.95213268      11.37838865       0.18090714      -2.11575660      -0.41001966      -0.07808982      -0.00394743      -0.28620091      -0.01179339      -0.25189742
C        7.42244236       3.83384281      11.21782795      -0.44070602      -0.73569516      -0.37631872      -1.80012381       0.39622995       1.62628746       0.02286616      -0.10784779
F        8.50791864       4.55388917      11.02989813      -0.63395431      -0.18931169       0.34132561       0.71232504      -0.12417952      -0.48831022      -0.00811135      -0.18678051
F        7.67328747       2.53044799      11.24673808      -0.53678171      -1.01834484      -0.06244011       0.51976794       0.19383191      -0.59343934      -0.01069811      -0.25197977
F        7.03054733       4.13728262      12.49594415      -0.35732634      -1.34305470       0.18492224      -0.23211534      -0.06468177      -0.38143966      -0.01413101      -0.27054352
H        7.77310546       4.26326585       8.77724496      -0.20378499       0.15563188      -0.10187233      -0.87268263      -0.29567999       0.23424050       0.02416585      -0.05700564
H        5.45680771       3.57479057      10.27455106      -0.08252015       0.19846068       0.06710019       0.16799410      -0.07822014       0.34992504       0.01077346      -0.05024653
O       10.54893973       3.34377618       9.99383866      -0.02592250      -1.04091299       0.65758169      -0.62266505      -0.04634455       1.19622123      -0.03072094      -0.08398987
C       11.07506501       3.23526680      11.27891513       0.31913541      -0.56146625      -0.79569158      -1.31775880      -0.57209963       1.40710795       0.00844547      -0.23924822
C       11.77578723       4.49613686      11.76602172       1.08259924      -0.33191442       0.17915015      -0.14251974       0.92731071      -2.26090336       0.01934237      -0.13090426
F       10.88757292       5.51931453      11.71082415       0.25591862      -0.39204016      -0.28673781       0.08332387      -0.13010414       0.14710557      -0.01398324      -0.26148075
F       12.75378824       4.77883713      10.87843320       0.67796511       0.52146189       1.12875817       0.12905622      -0.32456937       0.34428531      -0.01417269      -0.15944847
F       12.32023235       4.52243985      12.93865474       1.06070075      -0.16046845      -0.96653738       0.61623001      -0.66607243       1.16447318      -0.00780185      -0.19416367
C       11.87685489       1.95027370      11.33721631       0.24995558       0.07658615       0.64476828      -0.44445476      -0.42443115      -1.91729498       0.02074001      -0.11956913
F       12.82602721       1.97534510      10.34214615      -0.30890412      -0.11026863       0.65863432       0.00609711      -0.26676500       1.44777536      -0.01425584      -0.24662995
F       11.01032051       0.99171780      10.93472621       1.58725468      -0.29061517      -0.94112798       0.93521112       0.19077653       0.53712022      -0.01326503      -0.16891800
F       12.38551442       1.64030466      12.52184844       2.10689186      -0.73316641       0.31195664       0.21051730      -0.03872669      -0.69029021      -0.00786944      -0.25673515
H       11.24049719       3.51136324       9.37122086      -0.00456726      -0.12669593      -0.29572026       0.82038587       0.09477494      -0.36382458       0.01951518      -0.04636877
H       10.20704403       3.06501196      11.97484688      -0.08356211       0.30994710      -0.04275849       0.72587138       0.16215710      -0.60183531       0.01146758      -0.03601751
O        6.18194297       6.87028440       7.51845054       0.24163307      -0.74947402       0.02965475       0.48373917       0.21013153      -0.24222894      -0.02736295      -0.04535127
C        6.90304428       7.45615410       6.47334552      -0.31666558      -0.53027859       0.87069436      -0.27139580      -0.21980685       0.45890117       0.01233047      -0.26134786
C        6.05957715       8.59038087       5.88907945       0.14339107       0.34998042       0.02341726      -0.43006280      -0.68302971       0.31379041       0.02157900      -0.14121112
F        5.71704127       9.50295205       6.82077175      -0.22507455       0.52642193      -0.88634949       0.43390861      -0.48899442      -0.27587780      -0.01221464      -0.25458351
F        4.91389412       7.98525105       5.49302952      -0.36542083       0.06576156       0.98759385      -0.12560517       0.59396750      -0.27835107      -0.01109309      -0.25363979
F        6.62897168       9.21072992       4.87112777       0.56273811       0.05850685       1.18717471      -0.10336519       0.12351780      -0.10535888      -0.00933086      -0.24568361
C        7.35799992       6.39012530       5.47464465       0.26089625      -0.50665688      -0.40827725      -2.05120921      -0.44749951      -0.70178616       0.02275145      -0.11318532
F        6.32537155       5.49366948       5.21751007      -0.80994631      -0.16590987       0.05476119       0.64581919       1.23373258      -0.34180689      -0.01108978      -0.26321688
F        8.28207515       5.63020708       6.00082173      -1.13274148      -0.08481775       1.06754354       0.69967192      -0.16384605       0.13686819      -0.00876368      -0.18217081
F        7.78400477       6.94408114       4.32588706      -1.81702070      -2.09247354      -0.66139151      -0.11406066      -0.66926396       0.44141513      -0.00994639      -0.25837424
H        5.42589984       6.35432725       7.20814626      -0.00696919       0.00616494       0.04651815       0.14613104       0.15004002      -0.36058491       0.02696323      -0.04275231
H        7.82782313       7.83720968       6.88100705      -0.20413404      -0.04965320      -0.00306400       0.23674260       0.41402990       0.29343468       0.01329049      -0.04069898
192
Lattice="14.05790476106759 0.0 0.0 0.0 14.05790476106759 0.0 0.0 0.0 14.05790476106759" Properties=species:S:1:pos:R:3:momenta:R:3:forces:R:3:charge:R:1:energies:R:1 Built=T with=T Packmol=T charge=0 spin=1 external_field="_JSON [0.0, 0.0, 0.0]" energy=-15.96961784362793 stress="-0.010522156022489071 -0.0009011754300445318 0.0036858271341770887 -0.0009011754300445318 -0.006218846887350082 0.0017648834036663175 0.0036858271341770887 0.0017648834036663175 -0.01259440928697586" dipole="0.49084264039993286 -0.2685585618019104 0.5232531428337097" free_energy=-15.96961784362793 pbc="T T T"
O       13.17928008       5.76586094       6.90131132      -0.04770695      -0.40657609       0.17440788      -0.42436042      -0.40629661       0.05079199      -0.02829123      -0.11938701
C       12.36468902       4.64392049       6.66097920       0.09842696       0.01558632       0.21468053       0.07607580      -0.39637753       0.11680963       0.01289517      -0.22326908
C       10.89489142       4.93491748       7.11706039      -0.70376745      -0.57502560      -0.02150288       1.38380742      -0.22077337       0.12937579       0.02314790      -0.07923661
F       10.57472933       6.03639215       6.49028662       0.26507362      -0.27938428       0.50697404      -0.76011640       0.54268777      -0.87101221      -0.00950987      -0.17409581
F       10.84851450       5.25575961       8.42185188      -1.60683793       0.14612018      -0.72684974      -0.09101844      -0.23416345       0.12139611      -0.00893282      -0.20148325
F       10.02879262       3.91808708       6.90463580      -0.47224612      -0.97137102      -0.14690262       0.51228929       0.84620571      -0.07479542      -0.00830381      -0.27056435
C       12.99121568       3.45870709       7.38739318       0.81547850      -0.42936097       0.72118013      -0.60576671      -0.48608708      -1.25017571       0.02333768      -0.10642330
F       13.24487189       3.83909433       8.62178953      -0.11705156       0.72264125      -0.71319876       0.70011955      -0.06067704       1.03449059      -0.00592788      -0.21758841
F       14.09122421       2.98830048       6.80692910       0.26332036      -0.44536821      -1.58689200       0.34796587       0.49859402       0.08460782      -0.00822907      -0.26616055
F       12.15121756       2.41179629       7.43335030       0.85284527       0.36262999      -0.70355584      -0.46997729      -0.25886214       0.26473361      -0.00837989      -0.26703209
H       13.32734835       5.80858314       7.86586363       0.03232927      -0.19562016      -0.02845148      -0.05827214       0.17873040      -0.46003038       0.02322225      -0.04261471
H       12.32807925       4.38010762       5.59571779      -0.05073392      -0.00600969      -0.08068965       0.07828066       0.43398276       0.12790345       0.01423687      -0.05509861
O        1.96605467       8.99744600       2.15763139      -0.64787283      -0.26744770      -0.31660088       0.61223245       0.33568808      -0.97827363      -0.02358490      -0.18575224
C        3.01256527       9.91662970       2.44402810      -0.25959860       0.21336610      -0.12312173      -0.03392168       0.02097218      -0.41969267       0.01316983      -0.19319519
C        2.68649380      11.33396892       1.87543207       0.17960340       0.11078359       1.08781651       1.00965488      -1.84192693      -1.13464737       0.02199460      -0.11269327
F        1.48388348      11.63432929       2.26243248      -1.55420599      -0.57569719      -0.77423087      -1.29736483       0.96277291       1.30666316      -0.00870147      -0.23626697
F        2.61544514      11.33539232       0.54632719       0.60410469      -0.12904003       0.77197635       0.42643782       0.13948792      -0.80718112      -0.01213850      -0.20157441
F        3.58945624      12.24494920       2.20559582       0.06617627       0.91575501      -0.21030244      -0.08159254       0.16854797       0.35419732      -0.00652504      -0.24187636
C        4.36332277       9.22657779       2.10943006       0.24513122       0.41613095      -0.63934846      -0.16842844       0.26654908       0.15636632       0.02228371      -0.14520760
F        4.38472597       8.69818979       0.86668685       0.84144091       0.12023907      -0.25232866       0.06427733       0.34683776       0.50868732      -0.01002928      -0.25881436
F        4.49448790       8.22109575       2.97636639       1.23951718       0.87387898       0.71443484       0.03432600      -0.30818895      -0.16884926      -0.01039349      -0.23901318
F        5.43226747      10.01500960       2.26706936      -0.55044259       0.42338389      -0.63220571      -0.66157335      -0.28549999      -0.44851369      -0.01009167      -0.23699313
H        2.08291763       8.71699425       1.21724658       0.10987519       0.12843391       0.02559720      -0.11755526       0.21080787       0.87017989       0.02219293      -0.05090183
H        3.03797780      10.06611504       3.50463308       0.10739442       0.01675827      -0.03492747      -0.07274854      -0.07678887       0.67885655       0.01235877      -0.03865034
O        7.48838114      12.31010832      13.41779162      -0.21103028       1.28519514       0.05830803      -0.56155139       0.06223027       0.69211942      -0.02859685      -0.04181367
C        7.91987072      12.46093202      12.12578649      -0.08200107       0.44517324      -0.04882704       1.54416764       1.04788208       1.09754956       0.00872760      -0.22387573
C        9.34977723      13.06789499      12.21463061      -0.07053284       0.24504945      -0.28372883      -0.78124779      -0.19551776      -1.44070983       0.02111730      -0.09912609
F       10.11130238      12.46740564      13.13959218       0.00178630       0.93688439      -0.44588506      -0.45528781       0.63201255      -0.47024578      -0.01128300      -0.26022333
F        9.25766833      14.39282400      12.48669866      -0.23265796       0.73679875      -1.11730047       0.50025105      -0.71797132       0.22631241      -0.01106352      -0.24979882
F        9.92545468      12.87305003      10.99588532      -0.66173569      -0.13393780       0.68368568      -0.00377356       0.26276079       0.97078377      -0.01371090      -0.19891620
C        6.89286296      13.30032083      11.42590777      -0.12472667       0.96302235      -0.41310497      -0.09820764       0.13666469      -1.53374243       0.02175111      -0.16298993
F        6.69904787      14.44675322      12.06425645      -0.59021362       1.10600954       0.78212362      -0.35579133       0.24581350       0.33478084      -0.00935347      -0.22821555
F        5.73252812      12.63770141      11.39275400       0.67387526       0.93692143      -0.24414428      -0.22756454      -0.08882125       0.07149015      -0.01374845      -0.27722079
F        7.21015174      13.58430201      10.14590947      -1.02283517       0.66267914      -0.07448346       0.05122468       0.03766081       0.53177178      -0.01281284      -0.24691896
H        7.38659595      13.19630073      13.80735308       0.19534695       0.03895733       0.07696797      -0.04207246      -0.42283630       0.01312751       0.02565658      -0.01322764
H        8.03631515      11.52573657      11.63618187      -0.04769444       0.06311189       0.14307379      -0.14616919      -0.80450070      -0.32886711       0.01062658      -0.04648615
O       13.26197361       8.52705499       1.77648567      -1.62813005       0.00991366      -0.91336535       2.96257353       0.12483460      -0.19122481      -0.03387302      -0.05737919
C       12.25344246       8.70136869       2.65841688      -0.11746581       0.74152089      -0.09635808      -0.72836179       1.80060983       1.43093765       0.01093701      -0.19137800
C       12.35546152       9.94033696       3.69551934       0.52414244       1.64443696      -1.02509487       0.87342930      -1.42795599      -0.36191863       0.02079581      -0.08507663
F       12.79675672      11.04965347       3.15371024       1.73308653      -0.42591712      -1.08057513       0.14135619       0.55972278      -0.96161145      -0.00999975      -0.23486736
F       13.24181046       9.67541742       4.68054254       1.50838955       1.43300745      -0.84786237       0.15832298      -0.37256962       0.16574803      -0.01465920      -0.25856304
F       11.19047914      10.16321976       4.27027573       1.26821520       1.05194225      -0.94188335      -0.46577865      -0.20781387      -0.25326535      -0.00912195      -0.19886069
C       11.88545607       7.48294433       3.49546660       0.75810055      -0.14208288      -0.17430485      -1.96986997      -1.60576212      -1.31506348       0.02290701      -0.08887158
F       12.72513563       7.18906198       4.44127675       0.62523166       0.27457690      -1.57898364       0.21381144       0.03345424       1.05920219      -0.00732814      -0.22426042
F       11.83558425       6.34413645       2.70776170       0.24956144       1.03376297      -0.02867575       0.21049523       1.09068823       0.21757999      -0.01379108      -0.22421399
F       10.57825632       7.60081254       3.96634530      -0.06293014       0.28760732      -1.61621338       1.85706007       0.07255317      -0.09070729      -0.01552454      -0.24904117
H       14.20130093       8.76713172       2.07410027       0.13007258      -0.23328876       0.07078392      -1.63773978      -0.33945623       0.07643586       0.02036357      -0.10361154
H       11.41883881       8.91398169       2.01889805       0.03265025      -0.06019903      -0.24644255      -1.02693260       0.16247441       0.06694764       0.01312950      -0.01613364
O       10.58453071       4.78315751       0.75198040      -0.28245439      -0.81104941       0.42617640       1.02497435       0.82926679      -0.04553682      -0.02900839      -0.08846029
C       10.37869520       3.57487888       1.37004274       1.15857355       0.19726594       0.43694042      -0.79718012      -1.41531324      -1.01808941       0.01127024      -0.17763375
C        9.26371020       3.79831919       2.39788010      -0.20847605      -0.37238526      -0.65240767       0.51355380       1.18366182      -0.02984605       0.02334638      -0.14258532
F        8.17602751       4.28413543       1.74673256       0.29695210      -1.28074516       0.03048380       0.68304557      -0.30373764       0.56928951      -0.01053885      -0.26671872
F        9.71240731       4.76250615       3.26099226      -0.26628012      -1.87562536      -0.16514345      -0.75870103      -0.80152392      -0.17507517      -0.01234858      -0.26411769
F        8.89965070       2.73007569       3.07651902      -0.41493391      -0.60798796      -0.82883643      -0.04498203      -0.26217628       0.24515520      -0.00606358      -0.26794475
C       11.69052469       2.87765348       1.81391355       0.14043880      -0.63158752       0.03879120      -0.00802622      -0.38539782      -0.35698035       0.02258475      -0.10156111
F       12.47413287       3.70993240       2.44774695       0.58026210      -0.66615438       0.09127939       0.87969863       1.80307734       0.89862579      -0.00747780      -0.23642609
F       12.41182207       2.42854394       0.78129427       1.67969414      -0.79644433       0.24385133      -0.36141703       0.25986740      -0.74669242      -0.01189649      -0.22588062
F       11.55893873       1.83953105       2.60320935      -0.35685224      -1.48902349       0.80494984      -1.12131906      -0.91459984       0.84986210      -0.00846735      -0.22206101
H       11.42554326       5.12637896       1.08331976       0.08714965      -0.13660390       0.06097473      -0.22047833       0.52893776      -0.08336887       0.02317047      -0.03317604
H        9.96518488       2.96026315       0.56371668       0.06423716      -0.34097885       0.17728495      -0.18346785      -0.61722606       0.41364032       0.01354746      -0.01692047
O        8.50095388       7.11936267      11.65284025       0.09982686      -0.38306860      -0.64368641       0.34812668      -0.39619163      -1.08062446      -0.02859430      -0.00702102
C        8.37088174       8.42791138      12.01115781       0.25169394      -0.58654995       0.15590979       0.37596732       0.39507383       0.81006467       0.00891182      -0.26657352
C        9.10658146       8.70868718      13.33554842      -0.41273738       0.71517568       0.04582614      -0.66860861       0.30980003      -0.37756196       0.02145660      -0.13444711
F       10.39339195       8.38364026      13.23734639       0.63889647      -1.10909252       0.55790020       0.46808520      -0.04549237      -0.16382107      -0.01184408      -0.22447109
F        8.64796441       7.93836713      14.30851914      -0.01920147       0.32805392       0.48312143      -0.66154033      -0.32549351       0.82695615      -0.00935013      -0.27464947
F        8.97762439       9.99458970      13.69398684       1.47125703      -0.43276679       1.09528126       0.50956839      -0.48476249       0.02727954      -0.01106108      -0.23752257
C        6.88593144       8.74202566      12.06786850       0.26705890      -0.41979008       0.15862985       0.74787474       0.41281509       0.32575691       0.02145776      -0.14959408
F        6.26244672       7.91134567      12.90826897       0.07826630      -0.08394188       0.90300281       0.13942461       0.41975874      -0.14396536      -0.01099123      -0.22112091
F        6.37049646       8.61907539      10.84173479       0.63674406       0.38687166      -0.47223277      -0.33445176       0.27946693       0.24348678      -0.01184580      -0.24801379
F        6.74542603      10.02128140      12.47188478       0.38162406      -1.45869818      -0.27130464      -0.92208678      -0.59900510      -0.05101755      -0.01041087      -0.19966641
H        8.73480118       6.55187081      12.37506502      -0.03686601      -0.07385791       0.22382972       0.20774207      -0.45917952       0.77744526       0.02494550      -0.04008629
H        8.83603234       9.09360092      11.28151456       0.03734055      -0.07899438       0.08209349      -0.10302743      -0.03810753      -0.21299213       0.01153075      -0.05234803
O        3.82884833       1.25713353      12.05006497      -0.70538291      -0.09742983      -0.51920839      -0.50714719       0.99143714       0.33080646      -0.02766886      -0.10645793
C        2.65691412       1.71172743      11.39634451      -0.54033128      -0.07036632      -0.04547117       1.21435463      -0.18414642      -0.89992768       0.01239312      -0.22407781
C        2.84201204       1.62702118       9.84340407      -0.76688360       0.10920233       0.29146126       1.09695661      -0.10737104       0.90254295       0.02505304      -0.07828809
F        3.47204815       0.44344429       9.59146937      -0.81109747       0.61110154      -0.10727646      -0.70871055       0.29285097      -0.21553291      -0.00713812      -0.23950216
F        3.66392733       2.56342328       9.29063631       0.94987565       0.12092961       0.05555995      -0.96636456      -0.69080120       0.39649677      -0.00840014      -0.23312390
F        1.63863726       1.69380094       9.27926666      -0.48678893      -0.65806989      -0.43582373       0.62933433      -0.05591404      -0.32840854      -0.00974025      -0.23145927
C        2.31925810       3.13554887      11.78072243      -0.42788185       0.09265787      -0.45609428      -1.71954620      -0.26205239       0.04537905       0.02287781      -0.09639193
F        2.95246067       4.09755840      11.11712298      -0.17753909       0.42664406      -1.41015496       0.22261746      -0.12738693       0.34842873      -0.00591338      -0.22910589
F        2.55884405       3.24216412      13.09485933      -0.29714943      -1.16983171      -0.47627901       0.03186413       0.42930797       0.09535954      -0.00522124      -0.22464007
F        0.98263878       3.31568008      11.56268226       0.34328092      -0.32876785       1.29544472       0.86867499       0.04741377       0.22339405      -0.01444845      -0.22653931
H        3.84769865       1.71351318      12.92932153      -0.45178713      -0.27861148      -0.08470035       0.11233029      -0.71112579      -0.96361661       0.02667549      -0.02768282
H        1.79228035       1.09381462      11.64146213      -0.02404587       0.19025424       0.03641538      -0.09435307      -0.02448355      -0.04639082       0.01484776      -0.05218817
O        2.30916287       6.86833263      10.84865188      -0.08931751       0.71525561       0.35980064       0.80297416      -0.51363248      -1.10968173      -0.03034440      -0.13702008
C        2.00410231       7.47730589      12.01840669       0.36603291       0.03624759       0.33863410      -1.86938512       0.88938844       1.21279597       0.00614046      -0.20293693
C        2.75677312       8.79634038      12.24140516      -0.62342368       0.84069487       0.13494847      -1.10351157      -0.30493814      -0.21513587       0.01973565      -0.13703518
F        2.53386617       9.72279295      11.31676523      -0.71486046      -0.36236660      -0.48767106       0.25676179      -0.24547412      -0.35077158      -0.01217935      -0.19563136
F        4.03061163       8.58356786      12.33739820      -0.21648123      -0.55322956       1.52494033       1.79924417      -0.23023424      -0.33571085      -0.00791453      -0.21612075
F        2.36190862       9.35210099      13.37184657       0.23518576       0.25440805       1.36188401      -0.79597205       0.20198497       1.13249755      -0.00803914      -0.18062590
C        2.23400503       6.43931485      13.14469560      -0.51564594      -0.83989179       1.03582815      -0.33841327       0.69525558       0.19940877       0.02267046      -0.11814479
F        3.47143438       5.89045393      13.08486735      -0.98378506      -0.74701227       0.47454225      -0.85149330       0.39538017       0.22506328      -0.00773820      -0.25538021
F        1.31771797       5.47034682      13.01064104       0.19561815      -0.10746726       1.28279036       0.31426346       0.28016126       0.17199685      -0.01162689      -0.22335353
F        2.06122781       6.97802586      14.37572011      -0.43162827       1.14349078       0.19265254       0.19529533      -0.50986594      -0.28662941      -0.00598458      -0.25430483
H        3.19164797       6.47208489      10.97401435      -0.01706950       0.14043515       0.09609967      -0.25047702       0.06265525      -0.50143838       0.02250859      -0.03578553
H        0.90098290       7.79399965      12.02600342      -0.04366348      -0.01306927       0.02282228       1.65928662      -0.85209268       0.08155845       0.00864839      -0.01225565
O        4.06389922      13.94466832       6.83297519       0.81275345       1.64587154      -0.40356706      -0.06348449       0.64546841       0.61272556      -0.02722301      -0.09613046
C        4.62861873      12.75207804       6.45773638      -0.36571498       1.05981378      -0.17793659      -1.40774083      -1.33276272      -1.18459821       0.00697259      -0.22387235
C        6.11784229      12.79253293       6.59053591      -0.69446482      -0.33032551       0.28197701      -0.56105447      -0.63674253      -1.09055519       0.02132619      -0.11136559
F        6.30949528      12.64110399       7.88600889      -0.47284412       1.05299232       0.41146004       1.12021291       0.31813225       1.01393509      -0.01048709      -0.20983656
F        6.57145010      13.95238358       6.13684389      -0.56496471       1.17454832       1.28938251       0.91421002       0.26082385       0.30678719      -0.00811424      -0.27985477
F        6.74514252      11.79584823       5.92002525       0.05970786       1.63858319       0.91013573      -0.02655162       0.77064538       0.56950057      -0.01142923      -0.23294517
C        4.21883353      12.48595044       4.98609455       0.30253615       1.32599550      -0.02839695       0.05304368       0.11582655       0.70874143       0.02086958      -0.15106907
F        4.84544043      13.30249569       4.11923938       0.17361122       0.96720165       0.14749590      -0.87491530       0.11797843       0.86228073      -0.00923344      -0.16413608
F        2.88898445      12.58639770       4.78320578      -0.32831430       3.04105880       0.76542127       0.82532686       0.08867242      -0.26692373      -0.01167246      -0.21963891
F        4.58814314      11.21812103       4.72648489      -0.16376893       1.98950702       0.68979077      -0.43025026      -0.12356485      -0.47092214      -0.01210387      -0.20841669
H        3.97689569      13.98284078       7.79704786      -0.37173527      -0.05496425      -0.00642532       0.03492077       0.08566226      -0.31022638       0.02054488      -0.05972414
H        4.29811439      11.85487990       7.05473932      -0.06752085      -0.06276446       0.14108887       0.31112415       0.90807599      -0.82136142       0.00845882      -0.02049558
O       11.50028787      12.89729644       8.85844177      -0.03144266      -0.23670536       0.53665850       0.94281161      -0.22361933      -0.30132943      -0.02814782      -0.01570883
C       10.79447969      11.83818233       8.32034970      -0.33706130       0.42930714       0.49001123       1.06421614       0.11225660      -0.71664971       0.00925966      -0.19372261
C       11.44831741      10.96214458       7.19944371      -0.06442760       0.41551143      -0.66120506      -0.88837874       1.15662980      -0.08818454       0.01951043      -0.13597840
F       12.51594951      10.34718376       7.63891244      -0.43151793      -0.81369779      -0.65481863       0.40210217       0.04507147      -0.50751716      -0.01039179      -0.04927590
F       11.80172854      11.72095304       6.13334803       0.85788647       0.61674310       0.02007301       0.02057220      -0.48154941       0.56214637      -0.01134547      -0.24484593
F       10.54248461      10.01641234       6.84441730      -0.35726968       1.13298667      -1.28888670       0.52476335       0.57404649      -0.15662891      -0.01340733      -0.24751185
C        9.48796841      12.35275288       7.81630513       0.11358821      -0.61933157       0.50265795      -2.34710431       0.32812741      -0.49023420       0.02251438      -0.10474167
F        9.47846389      12.67585975       6.50148186      -0.08368233      -0.80844577       0.78202954       0.30496573      -0.28919899       0.21894072      -0.01002356      -0.22809891
F        9.07269717      13.48406156       8.42084765       0.55127708       1.66523160       0.76679760       0.40056220      -0.77568364       0.05201272      -0.01156187      -0.22232074
F        8.55570558      11.39099264       7.99210904      -0.65005975      -0.09494836       0.05835855       0.05913266       0.25825897       0.09706009      -0.01313603      -0.23903681
H       11.62522060      13.57206872       8.19384939       0.13388002       0.17908754      -0.00916992       0.13766152       0.50311345      -0.32776931       0.02508575      -0.03598139
H       10.71580062      11.12543056       9.10743821      -0.08672670       0.04554700      -0.03029571      -0.84563768      -0.38065296       0.71091074       0.01010783      -0.02811609
O       14.12859183       8.74797004      10.37370098      -0.14714465      -0.07351387       0.23863046      -0.05358488      -0.53994906       0.93872464      -0.02680831      -0.01876565
C       12.85754453       8.79144036      10.93108934       0.09167780      -0.36982754       0.56539359      -0.22830090       1.09169364      -0.61178786       0.01144034      -0.16350125
C       11.92581064       8.06042931       9.94024537       0.57717172      -0.28735037      -0.47765251      -0.13426799       0.27858219      -0.61860383       0.02148982      -0.08459955
F       12.34457952       6.80673782       9.90710160      -0.77954390       0.11844467      -0.24208775       0.01660432      -0.38868955       0.33296123      -0.01136544      -0.16973424
F       12.00441034       8.42197210       8.62945749       1.58047069       0.66397592      -0.60227620      -0.29966441       0.11827030       1.39230943      -0.01172447      -0.17656311
F       10.64875874       8.10345778      10.32133513      -0.98442240      -0.59009431      -0.66078879       0.09641539       0.10656389      -0.22841977      -0.00983123      -0.26678440
C       12.57526559      10.24379154      11.50510136       0.62126296      -0.48487752       0.15021341       0.14091548      -0.43886164      -0.56384575       0.02183439      -0.10940498
F       12.38144392      11.20696803      10.56754296      -0.60913904      -0.04595341       0.81235038       0.45765865      -0.87817997       0.77913874      -0.01092979      -0.22352229
F       13.66250570      10.53985582      12.25238831       0.14551937      -0.90030389       0.90721296      -0.82552510       0.08955868      -0.29012457      -0.01176286      -0.23407012
F       11.50798273      10.26633744      12.30178399       0.17447349      -0.15048948       0.87486572       0.23509803       0.15588382      -0.25386536      -0.00919222      -0.21619023
H       14.15701769       9.06015355       9.47117350      -0.09428289      -0.05319506      -0.27222153      -0.34574151       0.14639159      -0.38170767       0.02288054      -0.04793198
H       12.80465168       8.18738566      11.84192618       0.01155310       0.03409491      -0.03498327       0.24458459      -0.18559520      -0.08225030       0.01290914      -0.02770973
O        2.07411677      12.15779212       7.07446047      -0.93950524       0.02995278       0.13868545       0.09047283      -0.35573134       0.28374738      -0.02262709      -0.04608527
C        2.18203154      11.46917393       8.26885318      -0.43354904      -0.11515925       0.15992694      -0.52868688      -0.26871172       1.02091539       0.01298082      -0.21884033
C        2.06346466       9.93021120       7.99065800      -0.74109480       0.16426960       0.65733115       1.82713974       0.01233929      -0.76642925       0.02346573      -0.03143684
F        3.09860012       9.73060097       7.12903207      -0.73903175       1.09215701      -0.31782954      -0.57670712      -0.48532256       0.18464585      -0.01155057      -0.23737651
F        0.92900537       9.63273774       7.35374423      -0.14761452      -0.65422137      -0.68197105      -0.05364393      -0.03391750       0.05990018      -0.00804284      -0.26344544
F        2.20822051       9.02756077       8.98366458       0.54157615       0.39759540       0.78680522      -0.06563480       1.08570433      -0.73855168      -0.00895150      -0.16979906
C        1.06478594      11.94834423       9.18703673      -0.48288914       0.03677353       0.51209201      -0.17941877      -0.64223504      -1.14770567       0.02152825      -0.08705692
F       -0.04651940      11.86763056       8.42532544       0.01979927       0.85801288       0.06538128      -0.28835279       0.12710746       0.48729962      -0.00993832      -0.15500720
F        1.16829973      13.20893409       9.51109143       1.07814430       0.59216742      -0.51022486       0.34496140       0.89936692       0.78757751      -0.01055663      -0.24598315
F        0.91663106      11.19058878      10.26303492       0.72879160      -0.67028493      -1.02948570       0.15039094       0.55752468      -0.10958686      -0.00871908      -0.17836009
H        1.15854030      12.12502735       6.78999268      -0.16232775      -0.04642280       0.02841908      -0.33262172       0.03561630      -0.32880729       0.02638793      -0.02357975
H        3.15227352      11.72207966       8.70579682       0.08973542       0.00590784      -0.01432703      -0.05752376      -0.44533315       0.14084943       0.01365884      -0.03766022
O        8.76091329      11.11341576       4.04303631      -0.00510855       0.72512528       0.29344498       0.43182787      -0.00045448      -0.10118277      -0.02886043      -0.05862480
C        8.72744847      12.33487181       3.37268397      -0.17000651       0.11423687      -0.26332921      -1.32710958       0.85729277       1.01929617       0.01110686      -0.24001949
C        7.50115949      12.27227686       2.46025076       0.56057356       0.18899478       0.03057688       0.79616648       0.29197088      -1.27243161       0.02279161      -0.12232069
F        6.43980966      12.01000305       3.15001756       0.26674243      -0.33495804      -0.77769245      -0.38867664       0.13372400       0.52638900      -0.00759746      -0.09665395
F        7.63753016      11.25449325       1.58387553       0.48982116      -0.10598794      -0.03695497       0.34603181       0.31971815       0.20813911      -0.01276088      -0.18769789
F        7.27635195      13.43578805       1.74998049      -0.13266883      -0.50556326      -0.76457997       0.19602065      -0.72101778       0.60289550      -0.01083469      -0.26356283
C       10.03528383      12.72912187       2.71529480       0.05259634      -0.29033895      -0.53657881       0.37611273       0.32702070       0.45946530       0.02100198      -0.18086837
F       10.54193831      11.72778148       2.00708517       0.33931591      -0.05796700      -0.19020717       0.14305381      -0.27910972      -0.38746789      -0.00927936      -0.26453933
F       10.90563348      13.04774746       3.69863836       0.07719937       0.99772362      -1.32735314      -0.06197289      -0.10472332      -0.38215426      -0.01287374      -0.25617698
F        9.94282977      13.80024902       1.91090074       0.24174645      -0.60199960      -1.22277757      -0.22709502      -0.22598177       0.09692466      -0.01124459      -0.26011580
H        8.79347666      10.39028543       3.39865781      -0.06622222       0.05705554       0.05598246       0.04416246       0.09254050       0.06821679       0.02564596      -0.03531495
H        8.52475110      13.11756395       4.15524489      -0.17196659       0.22486772       0.07188790       0.12242609      -0.64042330      -0.74983937       0.01413915      -0.03987518
O        6.87288841       3.82954812       8.95320039      -0.80531065      -0.33052797       0.69952228       0.05595735      -1.18879449      -2.13321590      -0.02511062      -0.09778988
C        6.36947359       4.15480623      10.14865118       0.39112987      -0.91075528      -0.03345842      -0.92596245      -0.21094805       1.74594617       0.01014909      -0.20811473
C        5.90725287       5.58291512      10.17828443      -0.40183482      -0.38463262       0.45077078       0.44178069      -1.05956972      -0.51131201       0.02083143      -0.12299553
F        4.87330066       5.66957540       9.30881990      -0.75833549      -1.01229060      -0.32213503      -0.10843383       0.50018299       0.16510406      -0.01163008      -0.24511912
F        6.89185441       6.37627614       9.85442175      -0.55803977      -1.74592925       0.39701943       0.17103696       0.68684292      -0.51743209      -0.00934564      -0.13641541
F        5.45909229       5.89844653      11.36861089      -0.03244626      -1.97894256      -0.23172406      -0.78934556       0.67416072       1.06870461      -0.00924800      -0.24552882
C        7.38992978       3.80824160      11.22025244      -1.01849404      -0.50851607       0.49963523      -0.24602090       0.47859254       1.65559340       0.02258052      -0.12113255
F        8.49505617       4.54733713      11.03576831      -0.40669864      -0.35263725       0.12454559       0.16993712      -0.53646463      -0.34163594      -0.01047681      -0.20172246
F        7.66264004       2.50551397      11.24111921      -0.29037717      -0.89368667      -0.37345304       0.47065803       0.38554895      -0.60307533      -0.01055906      -0.24479914
F        7.01943198       4.10194147      12.49799322      -0.52067528      -1.38555287      -0.02343060      -0.44564918      -0.00982771      -0.33163887      -0.01344472      -0.26883355
H        7.64825680       4.34311855       8.74172358      -0.15474086       0.25327207      -0.08160700       0.52842826       0.40857181      -0.09464373       0.02483000      -0.04360378
H        5.43296166       3.62896755      10.33909516      -0.00523641      -0.02324812       0.16687008       0.28102943      -0.63158411      -0.01888610       0.00969752      -0.03359232
O       10.55022865       3.31341859      10.01175092       0.14812411      -0.91323176       0.32231420      -0.26128447       0.23132163      -0.82069796      -0.02945379      -0.05678680
C       11.07882030       3.21280626      11.26375614       0.02961833      -0.39539066       0.05581201       0.50243217       1.06888270       1.50130045       0.00750629      -0.22836690
C       11.81357170       4.49078657      11.74861011       0.66100731       0.03482546      -0.99028175      -1.37511551       0.50571716      -1.74223316       0.01856378      -0.11590198
F       10.89541495       5.50766006      11.70449783       0.37263747      -0.52636097      -0.20113929       0.34753293      -0.33647975       0.16196424      -0.01558640      -0.26645654
F       12.77418942       4.79096800      10.90763304       0.97884964       0.44452185       1.02582485       1.06801975       0.00821731      -0.89413571      -0.01233085      -0.15763633
F       12.35212813       4.51393949      12.92347871       1.39565187      -0.49980350      -0.16520872       0.47751015      -0.69576389       1.63975072      -0.00838212      -0.19705856
C       11.88321958       1.94629782      11.34523170       0.08546041      -0.31812299      -0.19177076      -0.15480117      -0.96777302      -1.17072666       0.02047052      -0.10443817
F       12.81967687       1.97160514      10.36734662      -0.11124428      -0.14516867       1.22933001       0.86049080       0.14131175       0.69499725      -0.01384670      -0.24077456
F       11.05652600       0.98448613      10.91456956       1.93181417      -0.31663920      -0.59383708       0.27168646      -0.38626012       0.81760764      -0.01242808      -0.15629685
F       12.44049139       1.62155311      12.52485358       2.09542660      -0.69573136      -0.11289489      -0.38237447       0.21302888      -1.07090890      -0.00945117      -0.26380062
H       11.21147891       3.42791407       9.31869749      -0.18263173      -0.23289907       0.16586977       0.11673874      -0.11393245       0.47057194       0.02026763      -0.05372585
H       10.23157446       3.19865882      11.91267573       0.06098246       0.16607066      -0.08795011      -0.58931446      -0.66593164       0.75864989       0.01168171      -0.01877836
O        6.19216274       6.84798694       7.51958383       0.36109512      -0.74739216       0.09459767      -0.27379373      -0.32017767       0.34779501      -0.02640938      -0.09065046
C        6.88614639       7.43389429       6.50612845      -0.38417714      -0.44334084       0.62302081       1.04768908       1.07354641      -0.90300995       0.01100856      -0.22907573
C        6.06020649       8.59416015       5.89583134      -0.12253129      -0.22667566       0.35080831      -0.53825235      -1.39101446       0.82107800       0.02105074      -0.11631066
F        5.71369443       9.51442979       6.79726290      -0.04526430       0.39352870      -0.87787862       0.29191962      -0.10033879       0.37283054      -0.01189953      -0.25000381
F        4.90377289       7.99082544       5.51636430      -0.41738237       0.36199022       0.79402755      -0.11913506       0.54550898      -0.54749358      -0.01190731      -0.25635248
F        6.64359879       9.21329216       4.89966658       0.58667055       0.13729950       0.96892639       0.10868215       0.08460903      -0.70329362      -0.00892209      -0.25049531
C        7.34414976       6.36747614       5.45597154      -0.96490199      -0.54440946      -0.36794379      -2.34323883       0.22809608       0.91361535       0.02272071      -0.09381296
F        6.30814864       5.49631644       5.21681734      -0.54980480       0.32514296      -0.10670602       0.30122903       0.67264014      -0.31323162      -0.01039216      -0.27615571
F        8.25840197       5.62587147       6.02918283      -0.67813562      -0.27427321       1.10325909       0.92617041      -0.44240955      -0.13444266      -0.00874917      -0.19670409
F        7.73729470       6.88630441       4.31017091      -1.75175373      -2.33776097      -0.60450801       0.40794945      -0.20879334      -0.15336092      -0.00834962      -0.26458284
H        5.42422525       6.36575599       7.18604853      -0.01086415       0.03405788      -0.12016089       0.02850280       0.07437143      -0.14909579       0.02731132      -0.03408049
H        7.80522229       7.87169358       6.93173651       0.06083143       0.13837853       0.16789133      -0.20515621      -0.15495059      -0.15160581       0.01260811      -0.04338495
192
Lattice="14.05790476106759 0.0 0.0 0.0 14.05790476106759 0.0 0.0 0.0 14.05790476106759" Properties=species:S:1:pos:R:3:momenta:R:3:forces:R:3:charge:R:1:energies:R:1 Built=T with=T Packmol=T charge=0 spin=1 external_field="_JSON [0.0, 0.0, 0.0]" energy=-16.00438117980957 stress="-0.011754421517252922 -0.0015444750897586346 0.0032332679256796837 -0.0015444750897586346 -0.007089528720825911 -0.00012785286526195705 0.0032332679256796837 -0.00012785286526195705 -0.014138809405267239" dipole="0.042019426822662354 -0.48783978819847107 0.31766241788864136" free_energy=-16.00438117980957 pbc="T T T"
O       13.17416820       5.75069193       6.90458165      -0.28664439      -0.55864336      -0.00798780      -0.39437559      -0.12744893      -0.30399099      -0.02888594      -0.14215201
C       12.36843300       4.63769587       6.66813776       0.06545533      -0.34649510       0.13534927      -0.14939390      -0.71608979       0.10006970       0.01170606      -0.20150350
C       10.88176955       4.91057621       7.11727025       0.06989759      -0.56645162       0.02592251       1.46611500       0.35475427       0.06481197       0.02258723      -0.06237538
F       10.57643469       6.03234603       6.49705170      -0.13178812      -0.05918312      -0.00633211      -0.73979670       0.23524003      -1.13820136      -0.01096662      -0.16708747
F       10.80626759       5.25750806       8.40525225      -1.65217352      -0.02952973      -0.50954517       0.01363578      -0.45872465       0.68877363      -0.00975133      -0.19782713
F       10.01964898       3.89817505       6.90014378      -0.23341616      -0.57165084      -0.20871892       0.52822459       0.80693328      -0.17274557      -0.00790168      -0.27001667
C       13.01567935       3.44014599       7.39630220       0.34106807      -0.38932612      -0.41900529      -1.07832563       0.58223379      -2.80113053       0.02371370      -0.04909455
F       13.24757809       3.85698748       8.61232539       0.36052122       0.63411566       0.02716479       1.09984374      -0.39647874       1.54758000      -0.00406422      -0.20446979
F       14.10052697       2.97992412       6.76758166       0.45728812      -0.20091762      -1.41057616       0.35739946       0.51595962       0.63165039      -0.00821541      -0.26902196
F       12.16982944       2.41803638       7.41769777       0.56771690       0.06471044      -0.47685231      -0.68944514      -0.91417861       0.62281370      -0.00683002      -0.26311690
H       13.35094216       5.74868621       7.85030717       0.08517036      -0.03135090       0.03893893       0.14288317       0.39839339       0.22088443       0.02293082      -0.02853411
H       12.31750267       4.42647281       5.60049190       0.01059465       0.16616037       0.08174333       0.11456691       0.08361015      -0.07207746       0.01370774      -0.05454846
O        1.95209140       8.99514821       2.14657903      -0.22625903       0.20670498      -0.24266588       1.09514785       1.24925303       0.46287790      -0.02613001      -0.18473613
C        3.00310622       9.92368528       2.43973800      -0.16789464       0.07812813       0.07196328       0.37314367      -0.62944722       1.25083017       0.01367608      -0.17864493
C        2.69884247      11.32349638       1.90451013       0.28655457      -0.50334769       0.26840995      -0.60819280      -0.41622630      -1.91771019       0.02244463      -0.10700364
F        1.43850376      11.62500352       2.25045425      -1.80893058      -0.17612638      -0.17269862       0.44142967       0.59895587       1.05994129      -0.01093412      -0.24369209
F        2.63402819      11.33278262       0.56218864       0.83725254      -0.08016950       0.48612795       0.46953157       0.04965941      -0.42989621      -0.01301380      -0.18240440
F        3.58981861      12.26894684       2.20320411      -0.07502193       0.89525128       0.04848643      -0.52455473      -0.36868224       0.63153034      -0.00604285      -0.22863023
C        4.37000193       9.24393824       2.08756569       0.04260481       0.37606827      -0.36591303      -0.62042123      -0.41053697       0.91660446       0.02250920      -0.12629426
F        4.40675142       8.70316773       0.86307401       0.85094188       0.25037680      -0.04056328      -0.07437553       0.17153583       0.34660700      -0.00926353      -0.25489622
F        4.52628368       8.24270200       2.99258231       1.19712116       0.82486623       0.49692872      -0.23733594       0.02284558      -0.67918676      -0.01270227      -0.24285239
F        5.41507382      10.02555813       2.24779740      -0.72339782       0.44920403      -0.85553060       0.00747315       0.39353174      -0.41088367      -0.00915593      -0.22310150
H        2.11818962       8.76514637       1.23304673       0.02854497       0.00796362      -0.12313741      -0.26899055      -0.38851959      -0.58392948       0.02088496      -0.04269329
H        3.07311784      10.05612384       3.53738430       0.01969397      -0.07303603       0.05261406      -0.26687354      -0.23091015      -0.50130683       0.01247767      -0.03976640
O        7.47810768      12.34776199      13.42354388      -0.44068201       1.11464130       0.27685549      -0.35121411      -0.41686901       0.30230173      -0.02974202      -0.06214714
C        7.92951964      12.48900888      12.13396717       0.46189704       0.78800364       0.36243891       0.39818811      -0.30876070       0.21985398       0.00849546      -0.24608944
C        9.33844781      13.07655162      12.19149261      -0.47377235       0.19513938      -0.74327253      -0.65772372       0.01677688      -0.18366297       0.02068850      -0.12539671
F       10.10862914      12.49547921      13.12564742      -0.20469880       1.22189128      -0.61091288      -0.40337530       0.47468448      -0.20037389      -0.01232096      -0.26576060
F        9.25478568      14.40752354      12.45909603       0.00415762       0.41031646      -1.02175707       0.42906129      -0.58857960       0.17702825      -0.01175557      -0.25918084
F        9.90931051      12.87113912      11.01726764      -0.54350846      -0.02069483       0.85428479       0.51713777       0.17584014      -0.42816913      -0.01156041      -0.19800138
C        6.88828462      13.33962832      11.39895785      -0.06464125       0.91791605      -0.74157365       0.30319789      -0.35159728       0.41539779       0.02151331      -0.15659055
F        6.68171744      14.47628808      12.08563273      -0.74060684       1.14685631       0.82525793      -0.23511952      -0.13402103      -0.21717517      -0.01067371      -0.23372832
F        5.74723208      12.66096214      11.38692349       0.41969351       0.84450025      -0.20597290      -0.74723607      -0.29868284       0.08285410      -0.01379710      -0.26918277
F        7.18458450      13.60285823      10.14573819      -0.92655239       0.81760903      -0.01632606       0.38783479       0.57642245      -0.39303428      -0.01006829      -0.23635353
H        7.47236700      13.20528980      13.85838537       0.15219938       0.05792975       0.14567649      -0.09412649       0.14020556       0.08725069       0.02476793      -0.01871928
H        7.99759619      11.48357286      11.66753296      -0.10813303      -0.07225054       0.04256074      -0.07370313       0.83010989       0.19385312       0.00986187      -0.04467124
O       13.23426305       8.52833522       1.74726749      -0.50512869       0.04614133      -1.03567219      -0.56419486      -0.06947239      -0.70135349      -0.03219454      -0.13685420
C       12.23660407       8.74675543       2.66255622      -0.77289966       1.35468829       0.13609138      -1.38628352       0.30152652      -0.38362688       0.01114001      -0.17504019
C       12.38474152       9.98519833       3.65374912       0.87543479       0.41325634      -0.91494563       0.50861233      -2.99236512       0.83510375       0.02163104      -0.06106117
F       12.84350195      11.04630631       3.11769968       1.90518594       0.28656348      -1.75977035       0.39001730       1.93817616      -1.58701777      -0.00707408      -0.20107906
F       13.28121619       9.71026702       4.65882519       1.51014369       1.26006612      -0.86272471      -0.19417976      -0.39918453      -0.20520534      -0.01677011      -0.25757745
F       11.22014118      10.19014750       4.24446325       1.03192342       1.05755195      -1.05265659      -0.39972222       0.11906749      -0.21914084      -0.00951940      -0.20654652
C       11.89392755       7.46820508       3.47320905      -0.35027195      -0.38410110      -0.90227857      -2.01567364       0.72598273      -1.13986826       0.02252858      -0.08968559
F       12.74406710       7.19589369       4.40908304       0.85886744       0.24304908      -0.87081564       0.43573341      -0.08811682       1.51851010      -0.00734128      -0.22765982
F       11.84356063       6.37585370       2.70676743       0.36921898       1.32224502      -0.12691589       0.23099665      -0.09090618      -0.73362267      -0.01035380      -0.22750333
F       10.58811036       7.60846626       3.92478686       0.79040379       0.29150186      -1.55812786       1.41824865      -0.08098970       0.39482310      -0.01619811      -0.25503874
H       14.09120245       8.62295596       2.10947894      -0.26059769      -0.29816693       0.14690159       1.84081888       0.24919280       0.87996536       0.01953026      -0.07754394
H       11.36636178       8.90086083       1.97362426      -0.13409244       0.01144508       0.16035259       0.18368536       0.24586400       1.13267303       0.01260754      -0.01275808
O       10.58576947       4.76506496       0.76416144       0.32620653      -0.40671125       0.31134805       0.65069544       0.37957093      -0.67517734      -0.02668785      -0.10186537
C       10.41226053       3.56105871       1.37675745       0.40236145      -0.97597959      -0.07646954      -1.72432160      -2.57768226      -0.64179015       0.01118503      -0.09839416
C        9.26319370       3.79143514       2.37401578       0.23882375      -0.07259666      -0.43904584       1.15877223      -0.10956097       0.86149061       0.02283512      -0.14566904
F        8.18682176       4.24998508       1.74957718       0.48537463      -1.31571254       0.12613797       0.05823249       0.23090456      -0.19061773      -0.00877653      -0.27104264
F        9.70096557       4.71040289       3.25639956      -0.59886713      -2.08039992      -0.15335370      -0.51121914       0.09049310       0.26839465      -0.01182017      -0.27389118
F        8.88876200       2.71223106       3.05624709      -0.41626717      -0.78099140      -0.75294992       0.08408982      -0.37747777       0.08486614      -0.00851852      -0.27372205
C       11.70015826       2.84803890       1.81520641       0.42094002      -0.79690831       0.10740351       1.04936898      -0.15150362       0.62426007       0.02285027      -0.11406061
F       12.49409699       3.70261322       2.45553383       0.92221955       0.02578288       0.48863487       0.38388002       0.90802503       0.63255966      -0.00887385      -0.25745359
F       12.45188876       2.40947546       0.78430769       1.37396614      -0.68110806       0.04785750      -0.89877623       0.22378589      -0.03894041      -0.01201200      -0.22829732
F       11.54322529       1.79747135       2.62737932      -0.82408448      -1.66877686       0.98171504      -0.69583589       0.22721189      -0.14237791      -0.00936238      -0.24830768
H       11.41903864       5.11974273       1.08481689      -0.07903015       0.11267754      -0.05138143       0.12337493       0.53772801      -0.06821603       0.02369422      -0.03184313
H        9.99427343       2.78343794       0.69921528       0.07160051      -0.28153525       0.32343969      -0.00088337       0.56659502      -0.24787673       0.01371268      -0.01391222
O        8.50988588       7.09807912      11.63581180       0.51815674      -1.03352597      -0.29069015       0.77345061      -0.68176091       0.85542649      -0.02823570      -0.04196844
C        8.38307438       8.40859621      12.02454200       0.31695998      -0.33779091       0.41571289       0.04287727       0.62767088      -0.16612050       0.00952591      -0.27073011
C        9.08939328       8.73386979      13.33619018      -0.27402506       0.34647641       0.05634919       1.16466773      -1.70000923       0.46481645       0.02217140      -0.10656498
F       10.41027731       8.35542888      13.25063475       0.57086741      -1.04307471       0.46437455      -0.68234766       0.30929625      -0.22837244      -0.01562807      -0.22131379
F        8.64316969       7.94545932      14.32550526      -0.35166386       0.24746192       0.79261713      -0.65777403      -0.00597893       0.37091970      -0.01039373      -0.27013272
F        9.01827334       9.98216702      13.72229729       1.64168359      -0.45626424       1.08269919       0.13588311       0.36245507      -0.11944608      -0.00826309      -0.22867528
C        6.90342180       8.72738461      12.07595304       0.54577677      -0.34119305       0.19393519       0.24009171      -0.11719204      -0.18428494       0.02148076      -0.14721417
F        6.26559616       7.91159639      12.92996960       0.17780029       0.09231773       0.74510089       0.28503487       0.27995503      -0.50777346      -0.01132517      -0.22277921
F        6.38517861       8.63013313      10.83192403       0.51526290       0.43854727      -0.25193634      -0.14010037      -0.08469301       0.65215945      -0.01342257      -0.25645936
F        6.74962915       9.98183956      12.46545291      -0.04803759      -1.50030862      -0.18745136      -0.80832565       0.50432485       0.41015664      -0.00875318      -0.19503564
H        8.69770477       6.55792053      12.42618584      -0.14087219       0.14242755      -0.13144935      -0.09316334      -0.00891955      -0.47128695       0.02540437      -0.03155341
H        8.84705586       9.06516578      11.28206039       0.00250368      -0.03543432      -0.06966139      -0.15988243      -0.00257989      -0.10090692       0.01160082      -0.04714228
O        3.80261548       1.25750791      12.02799031      -0.99552032       0.06719916      -1.01173116      -0.51909596       0.44280335      -0.26862964      -0.02608029      -0.14632687
C        2.64740179       1.71017278      11.38334202      -0.00995685       0.02660568      -0.58877014       0.22961536       0.22929153      -0.85338724       0.01275076      -0.20394669
C        2.82410723       1.63049957       9.86085661      -0.07600323       0.05679080       0.45819642       1.47738361      -0.14358178      -0.34615418       0.02504210      -0.08308160
F        3.44674709       0.46049566       9.58755770      -1.12677311       0.67383186      -0.18721067      -0.46963039      -0.12529832      -0.11959687      -0.00752009      -0.22745423
F        3.68078613       2.56145032       9.29548390       0.30732905      -0.28724101       0.34592823      -1.52031386      -0.85118109       0.70967722      -0.01024989      -0.21598515
F        1.62993730       1.67714316       9.26610197      -0.18086008      -0.59916185      -0.56504657       0.68527871       0.31995559      -0.12193146      -0.01027335      -0.23274800
C        2.29035587       3.13722202      11.76299972      -0.81226066      -0.00432447      -0.39545866       0.34432328      -0.19140013       0.22547434       0.02257493      -0.09100254
F        2.94803096       4.10679408      11.08393413      -0.21310807       0.25090649      -1.11275658      -0.34957990      -0.56313062       0.87300128      -0.00766753      -0.23544726
F        2.55170771       3.21505561      13.08311611      -0.24314790      -0.90940197      -0.43269299       0.17561021       0.64130324       0.08976126      -0.00643290      -0.22117782
F        0.99449993       3.30820795      11.59670414       0.45269099      -0.21655640       1.29446963      -0.59172016       0.43972319      -0.27563155      -0.01102584      -0.21406949
H        3.66127674       1.55754874      12.93576354      -0.28810349      -0.31591446       0.25415560       0.52678829      -0.27796358       0.21441029       0.02647398      -0.00993425
H        1.74330803       1.14829159      11.65750994      -0.14823098       0.01779047       0.01196128       0.21177337      -0.23628007      -0.24781930       0.01445264      -0.03738635
O        2.31049783       6.88768082      10.85186236       0.13125129       0.57978310      -0.11378647       0.40490353      -0.15221612      -0.64399874      -0.03113600      -0.14585985
C        2.00369294       7.48497371      12.04495072      -0.09781547       0.19988000       0.92361948       1.18850005      -0.64418316       0.78732634       0.00616929      -0.18160534
C        2.72541511       8.82306280      12.24830217      -0.76759608       0.37596414       0.29159250       0.56115085      -1.37155688       0.82457060       0.02042530      -0.13238354
F        2.51713250       9.71247919      11.30276983      -0.57302566      -0.41885698      -0.55316060       0.33602166      -0.05925125       0.16795748      -0.00952120      -0.19393072
F        4.03357516       8.56895430      12.37398319       0.31466445      -0.53189293       1.27142178       0.24687897       0.31053683      -0.72702599      -0.01112247      -0.23543131
F        2.36283526       9.36038019      13.41240003      -0.16307252       0.39432796       1.68597198      -0.78318250       0.30531520       0.06566948      -0.00761106      -0.18239984
C        2.21276235       6.41817457      13.18455540      -0.43477988      -0.07295354       0.80967960       0.68789834       2.10621452      -1.04168200       0.02245302      -0.10353270
F        3.44148473       5.87299762      13.09923143      -1.29411656      -0.61817610       0.65720884      -0.37330562       0.21046329       0.47432840      -0.00830857      -0.26384088
F        1.32270966       5.46753189      13.04517345       0.11022595      -0.17069800       1.39041284      -0.62842655      -0.42251614       0.20019946      -0.00954094      -0.22097240
F        2.05109522       7.00397738      14.38015454      -0.36054264       0.85080897       0.20385673       0.09555241      -0.66097760       0.35271692      -0.00592483      -0.25699398
H        3.19797873       6.52445445      10.95859817       0.09257212       0.05184608      -0.15094564       0.19631289      -0.15295370      -0.41593957       0.02190064      -0.04392750
H        0.99638326       7.71294194      12.04689514       0.08066534      -0.21058303       0.05854732      -2.16667700       0.32903737       0.03474129       0.00894716      -0.01629299
O        4.08777483      14.00020911       6.82621510       0.74132069       1.95440801      -0.08201330      -0.07326249       0.44183388       0.17103066      -0.02695414      -0.09053709
C        4.60080235      12.78151695       6.44139186      -0.88677686       0.53598145      -0.62881266      -0.14218777       0.48391247      -1.21294832       0.00765737      -0.25002921
C        6.08706729      12.78049346       6.59332132      -0.73192460      -0.06525798      -0.06923533       0.37508050       1.65263832      -0.17055163       0.02100847      -0.13199779
F        6.30339241      12.66974726       7.90257797      -0.04829095       1.13490907       0.82586596       0.52865744      -0.01258247       0.48983929      -0.01178037      -0.23361716
F        6.56164308      13.98280961       6.17228857      -0.23362093       1.11500781       1.44888871       0.43201593      -0.49253452       0.26360083      -0.01145174      -0.27574557
F        6.74688583      11.84133511       5.94619596       0.09467115       1.79635939       1.06571220       0.20313586      -0.22419660      -0.01049651      -0.00908699      -0.22866014
C        4.22815968      12.54027419       4.99242797       0.06830816       1.29862754       0.31602437      -0.95633334      -0.26365000       0.43559387       0.02121067      -0.15116146
F        4.84531655      13.32930235       4.12756444      -0.14470751       1.14281979       0.46069249      -0.40735787       0.55544466       0.42505592      -0.00763078      -0.17297755
F        2.88642789      12.66559752       4.80112442       0.14579703       3.07150831       0.61254980       0.99567270      -0.07034484      -0.36156884      -0.01274230      -0.22460434
F        4.58114329      11.26839751       4.74104766      -0.37701596       1.87720333       0.42769916      -0.42468825      -0.38553348      -0.57690537      -0.01209735      -0.20835017
H        3.80439611      13.96653212       7.74182983      -0.34281551      -0.01220171      -0.17590823      -0.05049676       0.07258367       0.11438359       0.02001873      -0.05802061
H        4.29359626      11.94092813       7.01410565      -0.03365989       0.27529715      -0.21387298      -0.63459277      -0.70623446       0.25786108       0.00909672      -0.01737115
O       11.50798019      12.89492746       8.86827706       0.54210409       0.12489288       0.10338738       1.00290883       0.18302107      -0.25273716      -0.02734330      -0.00193121
C       10.79124917      11.85341544       8.33324451       0.11095021       0.20017180       0.21391651       0.28478789      -1.06488264      -0.05361355       0.00986251      -0.22774380
C       11.43796604      10.98854795       7.17531654      -0.39032906       0.79654858      -0.42266525      -0.27679929       0.22018553       1.03478587       0.01963586      -0.13293034
F       12.50648630      10.32762054       7.61825966      -0.33891039      -0.64684873      -0.95824635      -0.05190155       0.66800827      -0.68220347      -0.01228352      -0.05835636
F       11.82407043      11.73456709       6.13687147       0.86536428       0.46910788       0.22701681      -0.03881274      -0.08631577       0.26082698      -0.00979684      -0.24611147
F       10.53625929      10.04949744       6.80977999      -0.14061840       1.42722078      -1.39539323       0.32332957       0.58183604      -0.21527189      -0.01316514      -0.24870369
C        9.46816127      12.33647058       7.83186053      -1.02460911      -0.06407119       0.26356034      -1.64549148       1.67522633      -0.41115323       0.02226157      -0.10978272
F        9.47811493      12.65321751       6.52300739       0.04122410      -0.92829174       0.86034833       0.11926083      -0.11037278      -0.05217996      -0.00962448      -0.22742012
F        9.08968835      13.51971935       8.43996875       0.75239460       1.01454084       0.67880078       0.27491599      -1.71573579      -0.35486677      -0.01347641      -0.22058654
F        8.53934566      11.39035834       7.99486390      -0.62669634       0.04510691       0.17824912      -0.07654867       0.25130498       0.38071960      -0.01143859      -0.23563753
H       11.67660562      13.60879718       8.23634173       0.04760335      -0.09545896       0.21024963      -0.17099412      -0.19674997      -0.06625139       0.02544391      -0.04244207
H       10.59750466      11.12207496       9.15111157      -0.31652258       0.03878599       0.08522138       0.11013915       0.58528513      -0.54790801       0.01023477      -0.04353367
O       14.12456561       8.74492869      10.37785844      -0.10873785      -0.10183651      -0.03760780       0.06228959      -0.23252037       0.14700389      -0.02695082      -0.04092357
C       12.85866297       8.78755162      10.94429401      -0.03958739       0.11699939       0.07198568      -0.26062137       0.35096487      -0.72096896       0.01163265      -0.16601504
C       11.94272787       8.05393852       9.91743309       0.14365321       0.01529109      -0.55757906      -1.40451193       0.80054301       0.34134579       0.02216134      -0.06146733
F       12.32522234       6.80601200       9.90252133      -0.69215543      -0.21161836      -0.12780771       0.31796435      -0.81613398       0.14375575      -0.00970924      -0.16682096
F       12.04340843       8.43930620       8.62333310       1.43022718       0.65529538       0.13783832      -0.36628613      -0.13839839       1.49548066      -0.01007285      -0.15987904
F       10.62658478       8.08919064      10.30158034      -0.64285329      -0.49782300      -0.90429894       1.15146565       0.29432607      -0.67344654      -0.01285166      -0.26548415
C       12.59746776      10.22144967      11.50823555       0.36146805      -0.55716388       0.07311596      -1.08336449       0.16518679       0.27392006       0.02174340      -0.11412841
F       12.36936270      11.19974875      10.59342389      -0.29717290      -0.52126106       1.17278213       0.78818566      -0.97506326       0.57208639      -0.01122593      -0.22359478
F       13.66174448      10.51719492      12.27371809      -0.17404780      -0.84857418       0.72954781      -0.45611325       0.13490891      -0.44407648      -0.01090963      -0.23946564
F       11.51513163      10.26292840      12.32203225       0.41136603      -0.13497988       0.66308730       0.62105399      -0.10691126      -0.58343601      -0.01156858      -0.21209796
H       14.07285909       9.00017736       9.44777829      -0.21855406      -0.20393826       0.21472532      -0.00138820      -0.01481614       0.02197328       0.02353868      -0.03626303
H       12.83312848       8.16188009      11.84513985       0.08705540      -0.12532264       0.04173990       0.02161608      -0.03383731      -0.13977399       0.01294479      -0.03331923
O        2.04156959      12.15557933       7.07991934      -1.20102558      -0.18144075       0.22092843      -0.04323298      -0.43026802       0.36360294      -0.02355799      -0.05552748
C        2.16102139      11.46337632       8.28544743      -0.59166767      -0.15959404       0.59263829      -0.49812657      -0.15624870       0.31169960       0.01274885      -0.22251906
C        2.05229720       9.93614046       8.00681261       0.16472281       0.10514942       0.07381713       1.45278656      -0.22914340      -1.46061325       0.02298439      -0.04178921
F        3.07566578       9.75578953       7.12269394      -1.01738322       0.85262724      -0.15892770      -0.36229667      -0.52505541       0.34364942      -0.01232241      -0.23034471
F        0.92507703       9.61564802       7.33764405      -0.13620466      -0.65934345      -0.51710657       0.18037041       0.06277686       0.61074895      -0.00913488      -0.26685894
F        2.22143055       9.04476299       8.99894919       0.47032046       0.92631535       0.38275748      -0.18441805       0.99599004      -0.88491905      -0.00848385      -0.17019519
C        1.04750765      11.94623264       9.19298301      -0.27569947      -0.05666628      -0.26782213       0.84060997       0.33303279      -1.67819285       0.02130933      -0.06925966
F       -0.04902023      11.89055934       8.43026514      -0.25450231       0.91056957       0.31843942      -0.77609622       0.06874634       0.50396377      -0.00884155      -0.15243590
F        1.19773079      13.22861730       9.50323859       1.16898962       0.85750334      -0.09319413      -0.00655132       0.03198391       0.83118212      -0.01184375      -0.25850627
F        0.93535484      11.17625263      10.23797935       0.67784133      -0.45500481      -0.82821294      -0.34612060       0.37039229       0.83713263      -0.00698516      -0.16721348
H        1.11761710      12.10955832       6.78897893       0.04893146      -0.01765514      -0.01074091       0.20254727       0.02148551      -0.10512080       0.02645355      -0.02597123
H        3.15103337      11.66880209       8.70471037      -0.10560732      -0.20087818       0.01104406      -0.18019527      -0.16433765       0.15320276       0.01387472      -0.04385745
O        8.76370991      11.13711439       4.05265145       0.17522017       0.82517515       0.34992965       0.28237811       0.06775652       0.08667171      -0.02880558      -0.05827390
C        8.70939109      12.35058201       3.37350241      -0.59927732       0.57640668       0.19421392       0.02774888      -0.06266281      -0.24986938       0.01173411      -0.27633187
C        7.52753793      12.28096214       2.44751618       0.60485976       0.17810892      -0.64929208      -0.66943377      -0.39421028      -1.20958996       0.02311080      -0.12850876
F        6.44477689      12.00256190       3.13327050       0.14739937      -0.22319437      -0.52483119      -0.04275671       0.33709693       0.44414368      -0.00903097      -0.11143684
F        7.65293748      11.25367150       1.58409628       0.72100064       0.03364107       0.04186909       0.56973726       0.20683561       0.05653226      -0.01264310      -0.18762256
F        7.27455929      13.41861255       1.73412500       0.00682181      -0.79106789      -0.46591477       0.34366810      -0.32874161       0.54616004      -0.00895406      -0.25208682
C       10.03998989      12.72266597       2.69874587       0.13896150       0.00642108      -0.26444219      -0.07500267       0.70310730       0.55140549       0.02103949      -0.17130113
F       10.55169149      11.72376538       1.99958463       0.40928772      -0.27038691      -0.38488304       0.07005894      -0.48554432      -0.32144612      -0.00885883      -0.26500133
F       10.90749176      13.07264276       3.66231151       0.08081978       0.91820929      -1.45379274       0.10964471      -0.21860665      -0.03717854      -0.01248716      -0.25890586
F        9.94734109      13.78324695       1.87946515       0.09613053      -0.70544423      -1.22174332      -0.35996911      -0.13237712      -0.06250279      -0.01140179      -0.25755531
H        8.76715472      10.40734690       3.41734655      -0.04192511       0.00710283       0.01579217       0.04553901       0.03911199       0.02429366       0.02558362      -0.03500453
H        8.47517498      13.12576891       4.08423949      -0.03371731      -0.10654101      -0.26055395       0.09346056       0.35332945       0.43646580       0.01485293      -0.04167686
O        6.85487274       3.81345723       8.95579023      -0.26942981      -0.64314867      -0.52713788       1.08222568      -0.45935452      -1.99715436      -0.02583028      -0.11705571
C        6.37038641       4.11798457      10.16725849      -0.41508669      -0.86477214       0.91583875      -1.74110293       0.08506902       1.39590251       0.00969153      -0.21222761
C        5.89475556       5.55183601      10.18830459      -0.24339071      -1.19638588      -0.00547451       0.03751951      -1.76441920      -1.02700102       0.02079353      -0.09977755
F        4.85379112       5.64639679       9.30245157      -0.71504303      -0.78834401      -0.13526437       0.31602690       0.39975628       0.58425212      -0.01306377      -0.25522873
F        6.87913466       6.33652229       9.86115437      -0.41331647      -1.30772686       0.11998662       0.30941135       0.92510653      -0.55444008      -0.00879669      -0.13177001
F        5.45229703       5.85239526      11.37135801      -0.51302206      -1.55521365       0.48411205      -1.01743829       0.99538958       1.52208102      -0.00856106      -0.23797226
C        7.35253404       3.79128150      11.25323329      -0.65272609      -0.34813182       0.98079511       1.62483752       0.15223719       0.06520254       0.02247814      -0.13482076
F        8.48432193       4.53414948      11.03759521      -0.46624882      -0.68382676       0.04889526      -0.34065065      -0.73049504       0.04574364      -0.01320291      -0.20804127
F        7.65776881       2.48527096      11.22805199      -0.09918856      -0.65309057      -0.61529971       0.31663305       0.60613942      -0.33678880      -0.01132552      -0.23985082
F        7.00245633       4.06625358      12.49687313      -0.81574175      -1.35878419       0.01735767      -0.71936375       0.17964762       0.63202137      -0.00977725      -0.26586235
H        7.55350459       4.45235392       8.71157127      -0.31693650       0.11416932      -0.02231134      -0.30955058      -0.38914493       0.06875664       0.02504834      -0.03778198
H        5.46809340       3.54907644      10.40178357       0.13131322      -0.28303050       0.06675286       0.06878297      -0.37291697      -0.29708695       0.00981422      -0.03780553
O       10.54612388       3.28620409      10.02202458      -0.35091412      -0.84770213       0.29874179       0.31816575       0.27932847      -1.15936899      -0.02896126      -0.05132047
C       11.08467173       3.20776041      11.28079399       0.14398933       0.11283979       0.80488948      -0.58316535       0.62936258       1.63018453       0.00792977      -0.24283448
C       11.82653177       4.49545894      11.70060702      -0.00457662       0.15126069      -1.09867456      -1.06465662       0.00494327       1.29692042       0.01855320      -0.13898461
F       10.90754282       5.49200284      11.69992425       0.56919022      -0.66940864      -0.16938928       0.38598508      -0.14921978      -0.03577525      -0.01423535      -0.26148587
F       12.80784548       4.80317285      10.92608236       1.65432901       0.51370101       0.32609781       1.38714969       0.16555637      -1.76115060      -0.01041311      -0.13840710
F       12.38956928       4.49653764      12.92680427       1.42528823      -0.84293351       0.29933363      -0.41146404      -0.64967299       0.18658571      -0.01297975      -0.22055115
C       11.88689597       1.92554551      11.33157554       0.13891358      -0.61392580      -0.32514208       0.38461632       0.01582981       0.62045187       0.02004842      -0.09935208
F       12.82442675       1.96950240      10.40103259       0.56191430       0.00805647       1.26763650       1.83752263       0.44995686      -0.59889770      -0.01242104      -0.22665782
F       11.10624220       0.97183683      10.90407002       1.82597787      -0.74069241      -0.23639337      -0.77098477      -1.31824756       0.59995246      -0.01023644      -0.14245081
F       12.49130902       1.60503667      12.51458200       1.79554459      -0.58137680      -0.68900215      -0.85286248       0.21650738      -1.14422464      -0.01222648      -0.26866183
H       11.24138272       3.31665924       9.33309392       0.23830964      -0.22945681      -0.06106032      -0.48840356      -0.08813094       0.77707100       0.02104704      -0.05325557
H       10.20405420       3.19739066      11.95868631      -0.04517519      -0.15694592       0.18734801       0.68877745      -0.49048334      -0.12194087       0.01168503      -0.03114739
O        6.19901097       6.82133854       7.52497291       0.05886652      -0.99212517       0.24467482      -0.59040976      -0.36820823       0.20678306      -0.02579203      -0.10847955
C        6.88524453       7.42983266       6.52224972       0.30715101       0.23731898       0.14103363       0.64794701       0.96137184      -1.19381928       0.01149116      -0.22368059
C        6.05090763       8.57316739       5.91682359      -0.29947336      -0.70920886       0.61092093      -0.14915118      -0.30239189       0.05764232       0.02103878      -0.12467121
F        5.71404210       9.52441544       6.77819423       0.06067860       0.38663107      -0.54774682       0.15266943      -0.00732714       0.95896751      -0.01177547      -0.23768115
F        4.89198799       8.00311730       5.53318260      -0.49849670       0.56247063       0.49955713      -0.16923687       0.22736464      -0.63090575      -0.01043968      -0.25818706
F        6.65925323       9.21626015       4.92056447       0.60592569       0.03927721       0.66992091      -0.10383396      -0.54283535      -0.44256967      -0.01079952      -0.25469941
C        7.28773765       6.34847931       5.45343209      -1.58702147      -0.35926356       0.28642402       0.12744053       0.53705567       1.41052032       0.02312860      -0.09574504
F        6.29375906       5.50718274       5.21227993      -0.65465207       0.43870854      -0.23074181      -0.79546678      -0.25086656      -0.14528656      -0.00608116      -0.26806110
F        8.24494649       5.61667419       6.05588266      -0.44378013      -0.39997942       0.92091817      -0.04058049      -0.00453648      -0.61721075      -0.01127631      -0.21930435
F        7.69481061       6.82510489       4.29308259      -1.52646339      -2.36740472      -0.71396680       0.50151950       0.13600965      -0.11334537      -0.00901024      -0.26244241
H        5.42755494       6.39223339       7.13146084       0.00873694       0.06000130      -0.07274019      -0.14538263      -0.08669769       0.22008824       0.02757028      -0.02141805
H        7.77362858       7.88883555       6.96313975      -0.15422534      -0.07377847      -0.04964579       0.21925230      -0.21930714      -0.27366835       0.01291784      -0.04528929
192
Lattice="14.05790476106759 0.0 0.0 0.0 14.05790476106759 0.0 0.0 0.0 14.05790476106759" Properties=species:S:1:pos:R:3:momenta:R:3:forces:R:3:charge:R:1:energies:R:1 Built=T with=T Packmol=T charge=0 spin=1 external_field="_JSON [0.0, 0.0, 0.0]" energy=-15.908388137817383 stress="-0.008430704474449158 -0.0007500970386900008 0.0031375454273074865 -0.0007500970386900008 -0.006189609877765179 -0.0007957800407893956 0.0031375454273074865 -0.0007957800407893956 -0.012823810800909996" dipole="-0.3952680230140686 -0.751842737197876 0.09947310388088226" free_energy=-15.908388137817383 pbc="T T T"
O       13.16397084       5.73380081       6.90557285      -0.33787039      -0.50059475       0.11133809       0.05254545       0.35181519       0.08160443      -0.02897085      -0.11915560
C       12.36965842       4.61903174       6.67657053      -0.00504203      -0.49193862       0.23108088      -0.14785750       0.18310882      -0.43883765       0.01244288      -0.23502381
C       10.89559691       4.89305371       7.11899937       0.49436809      -0.24672470       0.06073069       0.12805770       0.87313062       0.08712383       0.02262394      -0.08970705
F       10.56927094       6.03086984       6.48985013      -0.37958859      -0.11129606      -0.53620570      -0.22897306      -0.43462402      -0.96291733      -0.01314822      -0.17277043
F       10.76417097       5.25353511       8.39666850      -1.57518924      -0.28655284      -0.15528575       0.35411099      -0.55922055       0.67751437      -0.01049890      -0.19163667
F       10.01748596       3.88847159       6.89343928       0.09092429      -0.17783047      -0.31688952       0.81893623       0.81209755      -0.25837478      -0.00876952      -0.26229525
C       13.02058604       3.43142801       7.35580542      -0.04367561      -0.03490850      -1.37769395      -0.39033979       0.59219122      -0.64493787       0.02470837      -0.06652910
F       13.26341117       3.86958027       8.61972463       0.83289639       0.28853529       0.39243029       0.73347819      -0.99828357      -0.24800138      -0.00753202      -0.22082204
F       14.11405258       2.97815251       6.73549111       0.55935015       0.07215721      -1.06329464       0.00138540       0.61287767       0.73082787      -0.00727741      -0.26346019
F       12.18017363       2.41336315       7.40936087       0.24215500      -0.43014061      -0.17546012      -0.56627375      -0.95660055       0.53261501      -0.00573359      -0.25810048
H       13.39367726       5.77253585       7.84547654       0.06737321       0.10384338      -0.09109216      -0.10131840       0.10544230      -0.08856823       0.02326128      -0.03855810
H       12.33009672       4.49443579       5.59299492       0.02833733       0.08272178      -0.10485792      -0.03703771      -0.28559160       0.01122975       0.01400291      -0.04440227
O        1.95403679       9.00875940       2.13665788       0.32937970       0.62039257      -0.47039587       0.79399443       0.59059566      -0.17304972      -0.02710563      -0.17430745
C        3.00006012       9.91857168       2.45298044       0.00826288      -0.35410361       0.43874456       0.24981782      -0.91312987      -0.24130172       0.01405641      -0.23441030
C        2.70102319      11.30469540       1.89810224      -0.23070176      -0.28977104      -0.50165234      -1.21753538       1.07450950      -0.93956465       0.02290579      -0.09184566
F        1.39791250      11.62314994       2.25159585      -1.21506380      -0.00649008       0.21504265       1.82952762       0.12797780       0.50094688      -0.01391380      -0.23865119
F        2.65847747      11.33075314       0.57215942       1.03941899      -0.08581866       0.27577661       0.29439682      -0.05423111      -0.54641420      -0.01071210      -0.16769406
F        3.58346288      12.28826792       2.20845539      -0.45629110       0.54338634       0.35183092      -0.99742091      -1.02604604       0.56252944      -0.00749838      -0.21674395
C        4.36557544       9.25389447       2.08275147      -0.23641393       0.09011046       0.13534293      -0.34784472      -0.65040332       0.97413754       0.02226734      -0.11678837
F        4.42778103       8.71041444       0.86398796       0.75014373       0.29878341       0.10726258      -0.37769565       0.03226066       0.29597223      -0.00937264      -0.25107282
F        4.55538698       8.26429309       3.00079634       1.04037486       0.83860104       0.13565858      -0.39467868      -0.05427539      -0.70991558      -0.01338711      -0.24165599
F        5.39749212      10.04094538       2.22330257      -0.60589324       0.78013110      -1.02508228       0.37341076       0.86222607      -0.24227518      -0.00927484      -0.20897047
H        2.08532776       8.75481334       1.20678172      -0.16057991      -0.01016515       0.10278195      -0.21936312       0.04223081       0.29762289       0.02095776      -0.05233953
H        3.05273410      10.00421062       3.52181739      -0.09182262      -0.10946307      -0.01460046      -0.13876180       0.11566103       0.56469929       0.01277960      -0.04232989
O        7.46265534      12.38139015      13.43491243      -0.54106540       1.10454489       0.45577442      -0.06986492      -0.12941147       0.16172403      -0.03039052      -0.06755669
C        7.94540552      12.51783440      12.14958811       0.14725072       0.71392359       0.41243292      -1.57176518       0.66777354       0.29340106       0.00862073      -0.24584627
C        9.31535426      13.08604701      12.16509331      -0.57133313       0.30392725      -0.41892907       0.34584960       0.42336056       1.32354438       0.02051326      -0.12429418
F       10.10077083      12.52966467      13.10908248      -0.40109146       1.39955030      -0.64589586      -0.37314904       0.19933075       0.09980549      -0.01353466      -0.26216695
F        9.25714732      14.41509263      12.43352691       0.15800831       0.20691149      -0.96251460       0.18345080      -0.19676408       0.09811120      -0.01203577      -0.26306814
F        9.89944689      12.87129547      11.03324828      -0.19305025       0.01502487       0.26256490       0.81801212      -0.03396676      -1.83127713      -0.01007173      -0.17618831
C        6.88873917      13.37275864      11.37956302       0.07324284       0.69103597      -0.07593611       0.13747509      -0.47869366       1.94537878       0.02161784      -0.11719474
F        6.66131916      14.50431892      12.10446131      -0.82450693       0.99000297       0.59015954      -0.08391219      -0.50405121      -0.70362538      -0.01200265      -0.23254174
F        5.75315206      12.68077210      11.38210852       0.04157947       0.68452228      -0.16562127      -0.70603114      -0.33449623       0.09360814      -0.01413484      -0.26402497
F        7.16370286      13.62864595      10.14089581      -0.66685087       1.20353952      -0.40648483       0.64214563       0.88867390      -0.93876117      -0.00825332      -0.21697995
H        7.53572817      13.21652341      13.91363467       0.10773910      -0.02925991       0.05682589      -0.08125954      -0.00762123      -0.15719017       0.02426567      -0.02036659
H        7.94882363      11.54500538      11.70719945      -0.06733511       0.20038954       0.06583982       0.20553747      -0.51769727      -0.39942431       0.00992504      -0.04152646
O       13.21657526       8.53119391       1.71529327      -0.37272404       0.19018053      -0.77460482       1.54357982       0.47665739       1.99589157      -0.03421491      -0.09859677
C       12.19923008       8.79722799       2.66403998      -0.82328678       0.93432063      -0.04538101       1.12537050      -1.78221297      -0.34493929       0.01226552      -0.22282290
C       12.42513580       9.97764050       3.62656591       1.09208597      -0.57600432      -0.39359894       0.40033904      -0.55778784       1.09315419       0.02216412      -0.11827294
F       12.89443827      11.06409307       3.06289781       1.98212101       0.96028760      -2.41753364      -0.21854685       0.43505460      -0.86961162      -0.00908660      -0.22563687
F       13.31865363       9.74013151       4.63451232       1.37358802       1.03728444      -1.03564481      -0.33290750      -0.54442137      -0.41564763      -0.01566350      -0.25557175
F       11.24541423      10.21838411       4.21564467       0.96976948       1.12233331      -1.18011951       0.16795607       0.07246483      -0.26540121      -0.01083573      -0.20663571
C       11.86634259       7.46687761       3.43143985      -0.79789781       0.45383851      -0.97266572       0.36069834       2.28702426       0.79802549       0.02231406      -0.07278882
F       12.76721227       7.20216590       4.39416203       0.84624559       0.26942229      -0.37642663      -0.56137562       0.23897520       0.42087710      -0.01171614      -0.25927588
F       11.85438677       6.40632185       2.69616007       0.45974825       0.92256022      -0.78661415       0.13412453      -1.38601875      -1.81852281      -0.00694797      -0.20040715
F       10.61492172       7.61515423       3.88811902       1.16091003       0.21489941      -1.22681959      -0.05280390      -0.20573729       1.00952327      -0.01309256      -0.25189310
H       14.10101373       8.49807044       2.23099367      -0.08813705      -0.22215206       0.12587133      -1.63433981       0.20466955      -1.25804067       0.02161040      -0.06405094
H       11.29192928       8.95714538       2.12318490      -0.25243303       0.25598273       0.29863041      -0.53615332       0.62996584      -0.53754181       0.01300180      -0.03449952
O       10.59811210       4.75256811       0.76747610       0.46103855      -0.46702829      -0.09517724       0.27504900      -0.41380697      -0.73150253      -0.02723633      -0.03496073
C       10.41640543       3.50252198       1.37173155      -0.05921473      -1.68023159      -0.09389483      -0.11945787      -0.23497993       0.18465778       0.01219864      -0.10131929
C        9.28350700       3.78218949       2.36559912       0.69211656      -0.49695974       0.02103277       0.40648177      -1.51131070       0.77790838       0.02226853      -0.14561038
F        8.19895723       4.21831799       1.75038981       0.43898062      -1.10446638      -0.09945884      -0.10878192       0.57547122      -0.62337619      -0.00927955      -0.26445925
F        9.68335603       4.65913627       3.25534817      -0.71161794      -1.80747556       0.12037722       0.10705218       1.01104558       0.84388971      -0.00993058      -0.26958773
F        8.87892817       2.68942247       3.03713648      -0.32810431      -0.99272963      -0.72400864       0.27758080      -0.49521679       0.09764168      -0.01087608      -0.26941201
C       11.72849207       2.81551194       1.82769602       0.93915517      -0.75758309       0.52111821       0.74037218       0.27325585       0.82792753       0.02330354      -0.12384812
F       12.51894957       3.70668131       2.47132730       0.94530484       0.20135911       0.70094333      -0.27233088      -0.14843272       0.24869728      -0.01003201      -0.27232820
F       12.48123764       2.39305451       0.78672733       0.88469341      -0.59712041       0.19080411      -1.02886200       0.12346981       0.58381784      -0.01108113      -0.23196939
F       11.51889514       1.75752240       2.65043247      -0.99634773      -1.35974922       0.75630958       0.04413636       0.96733719      -0.68481702      -0.00945497      -0.25374529
H       11.40378424       5.21140187       1.06413992      -0.03839258       0.16721958      -0.03115858      -0.33716241      -0.51357681       0.02320644       0.02376707      -0.06322289
H       10.00827096       2.69962687       0.76543397      -0.04232054      -0.09123064      -0.13398461      -0.27729481       0.33004853      -1.14339721       0.01427144      -0.01404080
O        8.52972540       7.06934896      11.62690003       0.77019856      -0.77628472      -0.24275886       0.66712534       0.08115476       1.38281274      -0.02840440      -0.03806513
C        8.39659630       8.39994978      12.03540249       0.33760971      -0.14971521       0.06442817      -0.03698152      -0.14178549      -0.75670850       0.01046460      -0.27459133
C        9.09330475       8.72841936      13.34547824       0.51258837      -0.62377901       0.43349920       1.71832263      -1.82839727       0.88093787       0.02267861      -0.09374146
F       10.41950113       8.33055134      13.26121092       0.11445106      -0.88223785       0.35678251      -1.01435852       0.29160729      -0.18664089      -0.01652074      -0.21997215
F        8.63011890       7.95226187      14.34744718      -0.64505062       0.28694582       0.87393688      -0.50047243       0.09329268       0.00510358      -0.01077634      -0.27035078
F        9.06113458       9.97327679      13.74916049       1.65715850      -0.23139949       0.97563854      -0.05839541       0.36126453      -0.35063243      -0.00809260      -0.22807871
C        6.92544435       8.71090406      12.08104603       0.46719162      -0.48134415       0.04368575      -0.52134264      -0.30744317      -0.31872961       0.02127223      -0.14268693
F        6.27236972       7.91522951      12.94554445       0.35685109       0.16364376       0.44373858       0.41091880      -0.02502146      -0.69493663      -0.01145876      -0.21800876
F        6.39816314       8.64018486      10.82998826       0.50544464       0.30889544       0.11026361       0.05645612      -0.44634247       0.74520010      -0.01485649      -0.25563997
F        6.74378398       9.94834735      12.46399016      -0.37961265      -1.01486046       0.09824176      -0.51082188       1.39475083       0.69604450      -0.00861106      -0.19192860
H        8.64681041       6.52731381      12.43367452      -0.07216049      -0.26113855       0.14983860      -0.08238534       0.04735208      -0.58618957       0.02525910      -0.03514480
H        8.82621223       9.03777821      11.25900340      -0.07158119      -0.07173732      -0.00865560       0.03549312       0.05975797       0.08580901       0.01189130      -0.04807582
O        3.76904084       1.26340168      12.00356581      -1.11108276       0.26306623      -0.54687372       0.45815858      -0.06870447       0.06630873      -0.02419651      -0.12356272
C        2.64300970       1.71333540      11.35484407      -0.28540998       0.14804253      -0.72076843      -0.71031255       0.45961776       0.13468733       0.01232554      -0.21159270
C        2.83351491       1.63143162       9.87163429       0.45829506      -0.00347725      -0.02332291       0.54655159      -0.05502889      -1.42572045       0.02457183      -0.10686132
F        3.41579083       0.47553148       9.58193355      -1.21129444       0.41594125      -0.25198555       0.20514682      -1.00154150      -0.17101540      -0.00747896      -0.20577572
F        3.67936203       2.54927903       9.30885640      -0.38994095      -0.61630363       0.67259089      -1.18020177      -0.38821998       0.51191127      -0.00965954      -0.21872222
F        1.63003752       1.66438815       9.25139256       0.20224716      -0.36024178      -0.54848392       0.83507043       0.64532614       0.15915343      -0.01273864      -0.23439047
C        2.26717811       3.13477196      11.74997233      -0.19868116      -0.11807647      -0.21569425       1.76722944      -0.21020524       0.52657205       0.02210516      -0.07349458
F        2.93947236       4.10926675      11.06127863      -0.47162283      -0.07167591      -0.62147067      -0.62231666      -0.70784980       1.08845055      -0.00928576      -0.23661220
F        2.54678698       3.19571833      13.07233556      -0.12404558      -0.58507685      -0.40889003       0.33770409       0.65483773       0.00113814      -0.00851839      -0.22163665
F        0.99896211       3.30616618      11.62757446      -0.21944155       0.08129677       1.06135495      -1.89425147       0.70442331      -0.65309221      -0.00927688      -0.18537256
H        3.59619593       1.34849138      12.95130719       0.00060414      -0.51423893      -0.21787955       0.25555846      -0.07380174      -0.06247895       0.02745176      -0.02093083
H        1.73336433       1.14759661      11.61850774       0.11246636      -0.01516063      -0.17718676       0.25807321      -0.17479731      -0.30160719       0.01407293      -0.03103442
O        2.31880281       6.90466509      10.84590487       0.37856620       0.56094112      -0.20205520      -0.01129709       0.26369444       0.22200008      -0.03123221      -0.11378895
C        2.00461590       7.48487020      12.08542436      -0.21059336      -0.20336184       0.91436249      -2.15760136      -0.75423300      -0.88780522       0.00774829      -0.21348831
C        2.70296183       8.82520202      12.27010242      -0.27728384      -0.22951348       0.78865448       1.21195769      -0.88869452       0.99974674       0.02171900      -0.12556371
F        2.50462279       9.70052228      11.29137416      -0.38503140      -0.54688529      -0.24824612       0.44694179      -0.53903973       1.12057674      -0.00936775      -0.18258628
F        4.04028722       8.55788333      12.40189701       0.10743655      -0.30247520       0.87829326      -0.92957866       0.57233912      -0.83537221      -0.01303819      -0.22360845
F        2.35405270       9.37228066      13.45412744      -0.49665292       0.50877289       1.45484159      -0.54725957       0.09742970      -0.97228110      -0.00670351      -0.17137419
C        2.20311196       6.43457377      13.20559131      -0.04073740       0.77649209       0.20841302       0.65548110       0.93114501      -1.14928496       0.02264172      -0.14193285
F        3.40671748       5.85840645      13.11953387      -1.34772134      -0.50077998       0.91735366       0.19311430       0.32613510       0.52199185      -0.00870224      -0.25543514
F        1.32079242       5.46073002      13.08240378      -0.26643520      -0.31647860       1.48396897      -0.73645860       0.03122988       0.13682599      -0.01058737      -0.22076957
F        2.04218646       7.02205493      14.38882324      -0.33201349       0.56208758       0.49861167       0.05249799      -0.48413494       0.72885239      -0.00470086      -0.24693736
H        3.22297334       6.55440158      10.85244188      -0.01642997       0.09249317      -0.23874034      -0.07349715       0.08991630       0.12216792       0.02146512      -0.07243911
H        0.87101763       7.64567528      12.07763209      -0.19623168      -0.10646632       0.06639759       1.70890474       0.00239208       0.00809222       0.00963643      -0.01328265
O        4.11004011      14.06239553       6.82469800       0.67677319       2.04955751       0.03249096      -0.39179674      -0.11062872       0.56717980      -0.02665195      -0.09061144
C        4.56757179      12.81493521       6.40710833      -0.72809684       1.01550300      -0.77887675       0.13169955      -0.08373827       1.67455089       0.00838401      -0.25292009
C        6.06233256      12.79817333       6.59328360      -0.45603777       0.96385415       0.16968247       0.64860570       2.05851102       1.03364050       0.02090832      -0.13828246
F        6.30390204      12.69866747       7.92521179       0.03010341       1.09169888       0.85666240      -0.16646639      -0.13630414      -0.31933615      -0.01417888      -0.24734512
F        6.55753101      14.00804307       6.21111091      -0.10638572       0.83665049       1.53433384       0.16422577      -0.48913583       0.03153316      -0.01200614      -0.26285732
F        6.75106519      11.88478078       5.97257635       0.23495103       1.51795706       0.93891889       0.26931924      -0.76536047      -0.43194550      -0.00842343      -0.21798405
C        4.21985000      12.58991524       5.00558152      -0.48529215       1.10917754       0.21519028      -1.06551349      -0.48995066      -0.87144542       0.02135322      -0.15276062
F        4.83994297      13.36317718       4.14144500      -0.23604654       1.50024175       0.58311362       0.01454529       0.83165687       0.06281110      -0.00741848      -0.18092242
F        2.89562646      12.74444573       4.81460485       0.51086161       3.01455561       0.42483465       0.32522953      -0.21475592      -0.42732126      -0.01186881      -0.22695525
F        4.56858033      11.31426911       4.74847579      -0.60075849       1.66083723       0.14696907      -0.49591631      -0.50285929      -0.57412350      -0.01296007      -0.21025322
H        3.63013559      13.96731384       7.66500139      -0.34427932       0.01713937      -0.20998002       0.21322557       0.08968967      -0.52686179       0.02014113      -0.05734020
H        4.18286582      11.94377396       6.97991030      -0.33663191      -0.11062169      -0.01527702       0.21243411       0.69716793      -0.49521035       0.00870142      -0.01951478
O       11.53002688      12.89347554       8.87483236       0.87458626      -0.20635375       0.29289341       0.72095996       0.19130524      -0.49360126      -0.02751266       0.00430306
C       10.79326990      11.85411636       8.34042200      -0.10830029      -0.01591131       0.04626027      -0.84691638       0.62393421      -1.02717173       0.00927788      -0.22116855
C       11.42217258      11.01967898       7.16987264      -0.31807819       0.64797536       0.16284822       0.48838270      -0.70717764       1.10479319       0.01969635      -0.13487187
F       12.49657174      10.31606666       7.58918259      -0.44842801      -0.21994822      -1.27732448      -0.29964712       0.98712730      -0.51825416      -0.01401025      -0.06573421
F       11.84595622      11.74724064       6.14398116       0.81433716       0.55011055       0.31367231      -0.19401020       0.38259488       0.14904365      -0.00954063      -0.24549770
F       10.53394041      10.09008876       6.77231701      -0.06823965       1.70384896      -1.49670899      -0.03236578       0.47872138      -0.15053283      -0.01335354      -0.24977830
C        9.41884593      12.35069630       7.83991327      -1.15352403       0.72057003       0.16695823       1.11002111       1.18981767       0.02943191       0.02189231      -0.09006696
F        9.47897185      12.62935537       6.54345590      -0.01418691      -0.87700783       0.65608777      -0.34782797       0.37156266      -0.82689816      -0.00843139      -0.22761208
F        9.10975722      13.53499488       8.45509775       0.74776683       0.18352780       0.48912868      -0.34610608      -1.50864124      -0.38008398      -0.01199468      -0.23159224
F        8.52142087      11.39281212       8.00241753      -0.80427352       0.13775265       0.42387824      -0.59114939       0.18277419       0.59316528      -0.01066316      -0.23042929
H       11.69758722      13.62525681       8.24876956       0.02445376       0.11609133      -0.12919558      -0.29674789      -0.60790879       0.16210254       0.02548345      -0.04492283
H       10.49177888      11.19444644       9.13375491      -0.08014411       0.15556144      -0.06367359       0.55979538      -0.54595023       0.45673290       0.01031696      -0.03229509
O       14.12145361       8.73891079      10.38395231      -0.12452046      -0.23962796       0.26704000      -0.30350479       0.20997715      -1.38072705      -0.02740746      -0.04202915
C       12.85455360       8.79057547      10.94369939      -0.16318950      -0.04590642      -0.06875269      -0.28271240      -0.54971999      -0.34644347       0.01102024      -0.15511605
C       11.93435302       8.06132634       9.90116380      -0.52227846       0.29110318      -0.16442020      -1.02914822       0.15363979       1.20934999       0.02292419      -0.05737667
F       12.30935172       6.79601602       9.89981330      -0.54120143      -0.51707160      -0.09234098       0.24898431      -0.29145235       0.01479060      -0.01037426      -0.17930377
F       12.07793866       8.45532427       8.63543108       1.22997329       0.58644471       0.74722025      -0.48968989      -0.10571073       0.88788432      -0.00775291      -0.14938229
F       10.61769717       8.07858912      10.27353793      -0.05095311      -0.30554395      -1.26962671       1.06820333       0.49231708      -0.73077041      -0.01304741      -0.26292136
C       12.60014363      10.20157978      11.51625178      -0.23202389      -0.39790783       0.35718445      -1.09259558       0.35740769       0.72368646       0.02132849      -0.12684888
F       12.36685027      11.18062870      10.62629298       0.10265089      -0.92333862       1.31682615       0.78393292      -0.55888605      -0.06048308      -0.01089057      -0.23028719
F       13.65516552      10.49602886      12.28970933      -0.30378621      -0.78989371       0.50784621      -0.07942583       0.11674734      -0.43294021      -0.01119028      -0.24435902
F       11.52934293      10.25815516      12.33560113       0.65285591      -0.25483423       0.40478877       0.19620836      -0.35534245      -0.35552952      -0.01220309      -0.20780572
H       13.98382635       8.93168372       9.42450733      -0.09146227      -0.10033121      -0.20456799       0.65672272      -0.13657613       0.83830786       0.02414622      -0.01272336
H       12.86331867       8.12790232      11.82163897       0.00806829       0.00525165      -0.13255920      -0.30847004       0.18065789      -0.06601259       0.01269885      -0.02569782
O        2.00996212      12.14732714       7.09109633      -0.81707164      -0.33641206       0.49930300       0.46314654      -0.19463384       0.25766420      -0.02256018      -0.03119500
C        2.13020248      11.45352446       8.30694662      -0.87397927      -0.35410325       0.33788187       0.04631034      -0.52551687      -1.09908295       0.01374899      -0.18717946
C        2.06769585       9.93820925       7.99599210       0.43130237       0.00850400      -0.54952503      -0.42205644      -0.08072517      -0.81472456       0.02260814      -0.08569958
F        3.04883979       9.77434680       7.11981881      -0.97203738       0.57106249      -0.11709541       0.66421449      -0.66085553      -0.30405003      -0.00947241      -0.22336359
F        0.92335263       9.59918045       7.32876576       0.01920808      -0.60993457      -0.15615256       0.37292635       0.11505810       0.77013636      -0.01126931      -0.27477756
F        2.23268104       9.07446317       9.00327520       0.41239456       1.34115450      -0.04477041      -0.03677429       0.63587564      -0.83875853      -0.00880894      -0.17850524
C        1.04431210      11.94970899       9.16929866       0.07869196       0.26419860      -0.74537659       0.35717812       0.78503007       0.03818795       0.02133443      -0.07796183
F       -0.06099431      11.91461633       8.44148561      -0.68164981       0.95280453       0.53879053      -0.89360118       0.10312457       0.37803856      -0.00811294      -0.15364203
F        1.22745079      13.24875933       9.50545979       1.11248199       0.61801531       0.23385220      -0.21416123      -0.95430332       0.45716807      -0.01307498      -0.26067913
F        0.95019335      11.16716900      10.22208563       0.45655937      -0.22036965      -0.41530046      -0.50860608       0.68586719       0.67994428      -0.00815698      -0.16536509
H        1.09947975      12.09581837       6.75714260      -0.11685445      -0.04851386      -0.09888666       0.25219405      -0.09134481       0.14632519       0.02722321      -0.03132410
H        3.11977556      11.58223422       8.74179134      -0.00091076      -0.10539956       0.13938389       0.03467643       0.41285011       0.10886489       0.01437392      -0.04175544
O        8.77072971      11.16248400       4.06369579       0.26741510       0.85322937       0.38317243       0.10998655       0.33937147       0.22339144      -0.02913765      -0.06357359
C        8.69074283      12.36754887       3.37216690      -0.25336765       0.32119500      -0.21950686       0.79984069       0.53626662       0.02099757       0.01179175      -0.27105042
C        7.54237391      12.28243950       2.41309853       0.07294248      -0.13197336      -0.89905327      -1.23689187      -0.70236421       0.39488357       0.02337088      -0.12802403
F        6.44901966      11.99917679       3.12187022       0.19774066      -0.03478123      -0.38060328       0.15945347       0.38082871       0.16070215      -0.01117578      -0.12735264
F        7.67549988      11.25504133       1.58460862       1.02837865       0.03089957      -0.04607346       0.62068963      -0.28904301      -0.46488854      -0.01110244      -0.18724085
F        7.27683734      13.39755549       1.72460229       0.16091872      -0.77469151      -0.31369067       0.24133708       0.42345482       0.02871280      -0.00632599      -0.23539072
C       10.04361164      12.72873201       2.69213631       0.01482351       0.24711258      -0.10078795      -0.35474408       0.19464743       0.04829923       0.02085111      -0.16533950
F       10.56212337      11.71413027       1.98831226       0.37112118      -0.44916565      -0.45420938      -0.24674286      -0.18097043       0.07062131      -0.01032596      -0.26815832
F       10.91087896      13.09511124       3.62538651       0.20447160       0.82397085      -1.36407204       0.38628054      -0.16600469       0.41652647      -0.01140980      -0.25592425
F        9.94733420      13.76459898       1.84703448      -0.10456461      -0.71786034      -1.29840846      -0.45293400       0.09390589      -0.20533206      -0.01140201      -0.25557700
H        8.75187590      10.42941567       3.43840287      -0.02164573       0.06838200       0.05893857       0.03261745      -0.10450403      -0.08502709       0.02528151      -0.03468494
H        8.44982132      13.18427289       4.07771019      -0.05299330       0.26587806       0.16638341       0.24002931      -0.40038055      -0.16271177       0.01473172      -0.04938666
O        6.84914945       3.78786254       8.93183401      -0.18680581      -1.00681638      -0.83722146       0.15257403      -0.11889154       0.27716941      -0.02866673      -0.12918298
C        6.34028074       4.07967882      10.21004817      -0.93372636      -1.11745593       0.95936802      -0.28168127      -1.17706013      -1.16995299       0.01041148      -0.24009165
C        5.88210847       5.48971091      10.18094224      -0.44805459      -1.68634673      -0.25132360      -0.82030165       0.06198601       0.18526992       0.02216723      -0.12474658
F        4.83796778       5.62792690       9.30318434      -0.48828370      -0.66487562       0.20502017       0.55732352       0.10258485       0.73885876      -0.01242640      -0.25100285
F        6.86941770       6.30688835       9.86127661      -0.38729524      -1.06498540      -0.08443957      -0.27156386      -0.03323952      -0.24057038      -0.00952981      -0.13698357
F        5.43332240       5.81793965      11.39154327      -0.91426667      -1.13825252       0.97518503      -0.54155898       0.65504456       0.32097116      -0.01012816      -0.25193340
C        7.34439757       3.77734008      11.28753953       0.25881402      -0.35911993       0.55660023       1.65187240      -0.15644737      -1.58284748       0.02274959      -0.14207913
F        8.46978900       4.51195770      11.03995924      -0.65443266      -1.01838526       0.16208032      -0.29773206      -0.55394620       0.38175708      -0.01294540      -0.21481791
F        7.65709634       2.47232542      11.21066164       0.04936881      -0.35122899      -0.70271577       0.34429345       0.56066936      -0.01039639      -0.01192691      -0.23099566
F        6.97657736       4.03253696      12.50378347      -1.17986323      -1.23934730       0.59224225      -0.63648719       0.28765577       1.49622273      -0.00740633      -0.25797209
H        7.43121751       4.52118899       8.67880474      -0.14750862       0.19552551      -0.13096231       0.07255328      -0.21194330      -0.10662317       0.02354883      -0.04491112
H        5.51878298       3.38743098      10.40322132       0.05201172      -0.32416979      -0.04713706      -0.22745137       0.29327101      -0.13465044       0.01105007      -0.04891963
O       10.54078309       3.26217936      10.02334681      -0.11365299      -0.71390462       0.03817592      -0.85815156       0.36666816       1.54875314      -0.02919757      -0.04182385
C       11.08424459       3.21299391      11.32488950      -0.08665744       0.00471887       1.15108889       0.28650236      -0.98210633      -0.69986039       0.01016544      -0.25811300
C       11.82157728       4.50110865      11.67429026      -0.06321480       0.11399571      -0.10636663       0.99019128      -0.15540642       2.29830861       0.02005532      -0.11530678
F       10.92426002       5.47474913      11.69500966       0.69831404      -0.61834686      -0.21735081       0.08533891       0.40988469      -0.11423243      -0.01133933      -0.24595764
F       12.85722477       4.81674710      10.92416284       2.04200868       0.49306580      -0.41229011      -0.05924863      -0.33876866      -1.02969861      -0.01141964      -0.14318641
F       12.42243226       4.47090265      12.93321485       1.06915832      -1.12388740       0.11699417      -0.97883612      -0.45449492      -0.77434754      -0.01647475      -0.21078388
C       11.89838786       1.90506009      11.32790907       0.46739799      -0.30233218       0.18477442       0.90357155       1.01010466       1.07458639       0.02044000      -0.09019862
F       12.85151669       1.97296023      10.42802741       1.53710887       0.27191115       0.76157847       1.87590575       0.59707290      -1.30111647      -0.01218059      -0.21988814
F       11.14720894       0.94321984      10.90117891       1.31118691      -1.48219714      -0.00244573      -1.12899196      -1.41221988       0.42107576      -0.00952294      -0.15054521
F       12.53199107       1.59095091      12.49048888       1.34063194      -0.52435349      -1.11946258      -0.96993375       0.02099856      -0.47615957      -0.01281538      -0.26580706
H       11.25820575       3.19875296       9.41990290      -0.02789168      -0.24741395       0.24843102       0.96705645      -0.06221817      -0.95645106       0.02053796      -0.04136421
H       10.26892000       3.08941532      12.02057954       0.22380783      -0.23259844       0.10423705      -0.27212068       0.13278863       0.27429062       0.01233059      -0.05324606
O        6.19781342       6.78974407       7.53280391      -0.10143302      -1.01285899       0.21174092      -0.13974309       0.27568695      -0.40877461      -0.02561449      -0.08638950
C        6.89480815       7.44204057       6.51608529       0.06227067       0.23791635      -0.36018813      -0.45315617      -0.45799708      -0.19685711       0.01360294      -0.25296637
C        6.03848317       8.54712513       5.93906830      -0.27690377      -0.41743621       0.40495685       0.22275768       1.43525124      -0.80008197       0.02182509      -0.11920452
F        5.71644853       9.53395481       6.77079465       0.12183837       0.32864800      -0.00544358       0.10674278      -0.26958898       1.18794978      -0.01203956      -0.22573930
F        4.87808440       8.01837377       5.54226829      -0.57253530       0.59040910       0.21040193      -0.11599520      -0.09472872      -0.54182738      -0.00860132      -0.25562346
F        6.67363388       9.21246633       4.93601995       0.48249728      -0.37723587       0.55448818      -0.38668966      -1.07035434      -0.09675459      -0.01294397      -0.24541061
C        7.23306896       6.33961365       5.47606944      -0.90199550      -0.08218716       0.71081752       2.29637694       0.41574875       0.10299006       0.02369297      -0.07489906
F        6.26935459       5.51524451       5.20614689      -1.30463184       0.13479253      -0.20762530      -1.62966681      -0.83300054       0.29282376      -0.00368511      -0.23603605
F        8.23103067       5.60728389       6.07530207      -0.70549872      -0.29287122       0.56845580      -0.91334361       0.39379531      -0.76795900      -0.01336801      -0.22097239
F        7.65824766       6.76513001       4.27513179      -1.30665476      -2.24956966      -0.61987626       0.44321784       0.39880857       0.52867413      -0.01124245      -0.25091559
H        5.40672127       6.40545891       7.12409142      -0.07920870       0.00008788       0.05018597      -0.00184587      -0.03908896       0.29475781       0.02756404      -0.02496121
H        7.79987631       7.86536604       6.94101732       0.26668586      -0.00705214      -0.03129777       0.21441969      -0.05218353      -0.17676549       0.01381629      -0.05873723
192
Lattice="14.05790476106759 0.0 0.0 0.0 14.05790476106759 0.0 0.0 0.0 14.05790476106759" Properties=species:S:1:pos:R:3:momenta:R:3:forces:R:3:charge:R:1:energies:R:1 Built=T with=T Packmol=T charge=0 spin=1 external_field="_JSON [0.0, 0.0, 0.0]" energy=-15.707457542419434 stress="-0.008983822539448738 0.0007273482042364776 0.0013492361176759005 0.0007273482042364776 -0.005934827961027622 0.0022768510971218348 0.0013492361176759005 0.0022768510971218348 -0.011348734609782696" dipole="-0.5570317506790161 -0.9360876083374023 0.17668572068214417" free_energy=-15.707457542419434 pbc="T T T"
O       13.15412929       5.72184880       6.90642270      -0.27653404      -0.24812390      -0.07831522       0.37302068       0.72013515      -0.20467857      -0.02855663      -0.07295985
C       12.36782163       4.60434597       6.67684679      -0.08914815      -0.14586744      -0.24705626      -0.20007549       1.11961138      -0.77162296       0.01397746      -0.25584793
C       10.91217338       4.89198303       7.12245266       0.21177544       0.18759376       0.10763255      -1.11128700       0.79082513       0.07283784       0.02273233      -0.10979578
F       10.55907243       6.02431991       6.47055050      -0.37394839      -0.41832059      -0.92877427       0.19258727      -0.70976734      -0.62697816      -0.01416222      -0.18791077
F       10.72647267       5.24271063       8.39631515      -1.31101395      -0.53998340       0.10108000       0.70780337      -0.42987123       0.36217111      -0.01056920      -0.19006547
F       10.02556961       3.88895690       6.88344343       0.54691513       0.20802958      -0.46221563       0.96347147       0.71836025      -0.33030510      -0.00987765      -0.25611979
C       13.01784517       3.43239644       7.30246439      -0.02675774      -0.01163877      -1.02089469       0.35709387      -0.49727634       1.87944293       0.02631911      -0.03582587
F       13.28855013       3.87000376       8.62455111       1.07271621      -0.27424943      -0.14052352       0.26564816      -1.22618735      -1.71556306      -0.01226888      -0.20232974
F       14.12750757       2.98416519       6.71231944       0.44362515       0.40004678      -0.74345635      -0.44579688       0.69287974       0.55608177      -0.00617106      -0.25598511
F       12.18374801       2.39723861       7.40749895       0.07379552      -0.76781899       0.00280481      -0.09448775      -0.37282860       0.19024310      -0.00540200      -0.25711599
H       13.41634641       5.82215678       7.83378932       0.00769169       0.06826652       0.04385080      -0.31315178      -0.27830431      -0.05539482       0.02377491      -0.04952069
H       12.33447596       4.50082190       5.58572909      -0.01998175      -0.05402789       0.08666364      -0.15159097      -0.25330350       0.13438766       0.01445564      -0.03896549
O        1.96691898       9.03165598       2.12717418       0.41548602       0.79367478      -0.11560428      -0.36630937      -0.36607337       0.17345148      -0.03028543      -0.14214641
C        3.00153616       9.89786753       2.46658241       0.02783198      -0.55748993       0.25914488      -0.17621283       0.28325388      -0.02941959       0.01285375      -0.25674903
C        2.68120533      11.30404505       1.87478267      -0.67117315       0.23009772      -0.47088953      -0.41879645       0.76266819       1.03835046       0.02270566      -0.08554428
F        1.37925853      11.62330396       2.25909548      -0.20365148       0.00716445       0.31842675       2.12302828      -0.01132207      -0.05946611      -0.01466644      -0.24777508
F        2.68651759      11.32828370       0.57451069       1.09878345      -0.09636917      -0.15021393      -0.07248672       0.04859215      -1.19459653      -0.00811444      -0.15802412
F        3.56476912      12.29533839       2.22078140      -1.00266140       0.00120138       0.58865987      -1.15393519      -1.05716312       0.41031721      -0.00930297      -0.21805067
C        4.35512912       9.25218681       2.09641621      -0.20456619      -0.12958946       0.48239913       0.48344350      -0.12416268       0.35998911       0.02185749      -0.13343421
F        4.44405881       8.71808385       0.86878348       0.48198506       0.28299606       0.26883981      -0.70180601      -0.10539035       0.35722658      -0.01032864      -0.24900702
F        4.57983480       8.28486459       3.00047035       0.85767509       0.71660025      -0.12775248      -0.30978325      -0.48427460      -0.30954486      -0.01172376      -0.24122165
F        5.38397290      10.06674257       2.19574403      -0.45686373       1.21019367      -1.08559068       0.17256835       0.80547428       0.01148256      -0.01065194      -0.21015531
H        2.00860818       8.74163766       1.20374845      -0.11652640      -0.02271553      -0.12526441       0.25515240       0.31113490       0.19893761       0.02072775      -0.05877046
H        2.99902375       9.97155878       3.56821843      -0.11098458      -0.01979364       0.09721165       0.08020142       0.18446660      -0.52370542       0.01228766      -0.04528572
O        7.44573276      12.41259343      13.44849684      -0.55164922       0.93914341       0.42096457       0.05239414      -0.01740640       0.05636809      -0.02990929      -0.07655629
C        7.93330946      12.55349372      12.16839652      -0.74062378       0.88203047       0.41914018      -1.57897031      -0.82818252      -0.64280069       0.00900890      -0.24545410
C        9.29866494      13.10321783      12.16132685      -0.18769074       0.53029109       0.18630000       1.00388932       0.35565987       0.75855744       0.02044832      -0.13287869
F       10.08838313      12.56633660      13.09399234      -0.53702932       1.40348154      -0.47835652      -0.12798703      -0.20424935       0.61727935      -0.01323580      -0.25405136
F        9.26193824      14.42057717      12.40931182       0.19837263       0.27813300      -0.90443842       0.01234362       0.53375691       0.16734479      -0.01113799      -0.25740916
F        9.89899910      12.87120148      11.02795854       0.11658861      -0.02748675      -0.64985186       0.32519293      -0.09808502      -1.58420801      -0.01111185      -0.18172508
C        6.89104578      13.39725378      11.39416238      -0.01780814       0.53699736       0.69078164      -0.54943383      -0.12093651       0.78723645       0.02170810      -0.13289037
F        6.63975537      14.52636460      12.11488707      -0.83384027       0.70937550       0.21156516       0.03097642      -0.57384020      -0.76151645      -0.01163405      -0.22945181
F        5.75047194      12.69658179      11.37854421      -0.21889082       0.54973055      -0.10422466      -0.35209510      -0.19897936       0.16169672      -0.01460300      -0.25962347
F        7.15056973      13.66511817      10.12629092      -0.35272417       1.59456648      -0.61688837       0.60066175       0.62031364       0.31050760      -0.00954031      -0.22380303
H        7.58103434      13.23309197      13.94147997       0.07485214       0.09018125       0.05764626      -0.12872037      -0.06892980      -0.14882228       0.02442425      -0.01289567
H        7.94034598      11.55950721      11.68852830       0.02487160      -0.03664129      -0.08039706       0.10948292       0.45919189       0.22451216       0.01017519      -0.04309942
O       13.20679192       8.54130404       1.70312878      -0.72643657       0.51441563      -0.25892317      -3.02837825       0.93055826      -0.30969119      -0.03108875      -0.09902734
C       12.17495803       8.81789982       2.65496126      -0.43325270       0.15164899      -0.47230956       0.56064236      -0.94308043      -1.10515654       0.01492541      -0.20381050
C       12.47313814       9.95872140       3.61951967       1.22176371      -0.13997535      -0.02307422      -0.01441826       1.93130147       0.20985551       0.02229355      -0.10548215
F       12.94288283      11.08736541       2.99708215       1.71891711       0.69299805      -2.59088237      -0.77071863      -1.32478499       0.12178271      -0.01318436      -0.22900142
F       13.35239072       9.76319372       4.60541603       1.25748085       0.73664501      -1.18947225      -0.06681552      -0.65929246      -0.10720129      -0.01201165      -0.25229889
F       11.27290953      10.24748164       4.18353724       1.20381396       1.11520806      -1.29327275       0.72684348      -0.07484156      -0.14057881      -0.01168198      -0.19452104
C       11.84456164       7.50521251       3.40151661      -0.12624138       1.27119545      -0.49322057       2.03498578       0.53805929       0.81703293       0.02314314      -0.04741379
F       12.78374061       7.21164913       4.38489983       0.37572565       0.50334038      -0.41390688      -1.24301088       0.70839494      -0.47691125      -0.01516816      -0.25450835
F       11.86704237       6.42177262       2.66422426       0.51672817       0.33573766      -1.64889951       0.10452284      -0.65873682      -1.42116010      -0.00786296      -0.21428671
F       10.64110787       7.61954362       3.86418522       0.74239834       0.13433805      -0.57583586      -1.49719775      -0.09489775       1.57983732      -0.00945544      -0.21937133
H       13.97808054       8.41076461       2.20319804      -0.01450904      -0.17833093       0.00165122       2.21104574      -0.19750609       1.03678620       0.02140579      -0.04694048
H       11.18763200       9.12780299       2.21025707       0.00066723       0.36046973       0.08583362       1.32871056      -0.31191090      -0.32859629       0.01361508      -0.02519645
O       10.61180117       4.73227201       0.75934016       0.32240809      -0.96255877      -0.43233880      -0.80394512      -1.56216955      -0.63289237      -0.02965484       0.02119750
C       10.41585417       3.43599783       1.36593530       0.09153173      -1.46328461      -0.28765236       0.63807142       1.16437316      -0.87965101       0.01388737      -0.16394718
C        9.31068183       3.74493451       2.37129058       0.51398008      -1.32514806       0.18266875      -1.03728175      -1.50141656      -0.09832706       0.02182288      -0.15470007
F        8.21052759       4.19331406       1.74392242       0.49821711      -0.84231088      -0.38969303       0.38543123       0.42404068      -0.49756306      -0.01145796      -0.26069582
F        9.66695042       4.61969672       3.26451414      -0.51443306      -1.23390899       0.59661385       0.61715668       1.10930550       0.92812455      -0.00901849      -0.26356715
F        8.87246238       2.66003778       3.01949063      -0.16641207      -1.30648092      -0.61848977       0.34151742      -0.81524587       0.36563769      -0.01050405      -0.25937280
C       11.76967865       2.78774483       1.85482970       0.94985684      -0.59161061       0.72954717      -0.74809963       0.38695794      -0.07317567       0.02413700      -0.10383153
F       12.54077214       3.70933751       2.49059478       0.71428279      -0.04936286       0.77671192      -0.61745083      -0.79819733       0.09321199      -0.00922552      -0.26974383
F       12.49810684       2.37811269       0.79626202       0.44796027      -0.57045782       0.57368977      -0.69338280      -0.02167838       0.90794671      -0.00980139      -0.23766649
F       11.49502856       1.72917606       2.66549626      -0.79009101      -0.81608941       0.41314809       0.76107913       1.17105532      -0.63708800      -0.00873366      -0.24577206
H       11.36702328       5.22710457       1.06767698      -0.02409258      -0.06543716       0.09175527       0.50036001      -0.20660184       0.49627200       0.02230164      -0.07384393
H        9.98415214       2.72171389       0.62260583       0.00235448       0.21371688      -0.31555629       0.37074235       0.61713153       0.38763809       0.01419505      -0.05033721
O        8.55851027       7.04432407      11.63280598       1.08136888      -0.74462920       0.47652833       0.45404926       1.30808210      -0.25490221      -0.02857279      -0.01887840
C        8.40983202       8.38855794      12.03378598       0.32532077      -0.46338063      -0.07473941       0.15134194      -0.79708153       0.04194557       0.01106813      -0.27209306
C        9.12830486       8.68923305      13.37058579       1.08052243      -1.15624162       0.74034627       0.29585668      -0.20445037       0.24090390       0.02194213      -0.13540888
F       10.41705564       8.30885406      13.26962934      -0.23950179      -0.83249518       0.31130095      -0.23696357      -0.15087703       0.01729961      -0.01311837      -0.23656085
F        8.61084642       7.95990926      14.36993940      -0.81958080       0.28547567       0.86682437      -0.18592957      -0.13375326       0.01461556      -0.01028940      -0.28088281
F        9.10363396       9.96806211      13.77162369       1.63320054      -0.23806133       0.74156186      -0.02305221      -0.42045292      -0.59135932      -0.01099303      -0.24366784
C        6.93812218       8.68985479      12.08061570       0.14197248      -0.48800896      -0.03528792      -0.64069384       0.40421373       0.02996928       0.02111943      -0.14467460
F        6.28410704       7.91836277      12.95259972       0.54016816       0.03914885       0.10713326       0.27776223      -0.50177431      -0.63090080      -0.01088174      -0.21556340
F        6.41160928       8.64466989      10.83706265       0.52872229       0.01421109       0.41013599      -0.01434325      -0.73240721       0.42274800      -0.01462251      -0.25342241
F        6.73152224       9.93135941      12.47099648      -0.53696211      -0.30519649       0.43910834      -0.12627193       1.33226299       0.64204168      -0.01018305      -0.19838333
H        8.59394133       6.46423785      12.38313079      -0.13441771      -0.05010566      -0.22711852      -0.02669567      -0.49966574       0.80229890       0.02476784      -0.04590150
H        8.81485118       9.02455268      11.24928107       0.04288833       0.01766342      -0.03425943       0.24052684       0.04944719       0.07027695       0.01211996      -0.05083908
O        3.74207146       1.27001177      11.98039165      -0.58697811       0.13857832      -0.84717331       1.22180355      -0.54483289       0.97888374      -0.02307765      -0.03715841
C        2.62775518       1.72484412      11.32755695      -0.41718540       0.37142995      -0.59168731      -0.27824715      -0.12069536       0.40129542       0.01160281      -0.22888231
C        2.85322373       1.63115021       9.85699655       0.39034429      -0.00946156      -0.63570126      -0.83740091      -0.06119025      -0.75124717       0.02369469      -0.11813452
F        3.38739892       0.47790869       9.57395467      -0.92514367      -0.30160267      -0.38080430       0.91725820      -1.82386446      -0.35381663      -0.00790260      -0.18374513
F        3.66379200       2.53275622       9.32804777      -0.72103566      -0.57725273       0.74156028      -0.05662445       0.62730455      -0.33165273      -0.00709223      -0.22296426
F        1.64022965       1.65964310       9.23811339       0.56178777       0.00835740      -0.49475156       0.54163152       0.82755280      -0.03465599      -0.01482523      -0.23568633
C        2.27373889       3.12867586      11.74708498       0.38396409      -0.15706594       0.08312179       0.18445887       0.06204000       0.63127828       0.02185261      -0.10557614
F        2.92348645       4.10304405      11.05209674      -0.74932143      -0.39794723      -0.09423659      -0.43855977      -0.56448340       1.02084792      -0.00910920      -0.24077614
F        2.54622375       3.18462804      13.06173950       0.09981899      -0.27471537      -0.40453400       0.57000494       0.62720227       0.07554077      -0.00905051      -0.21717665
F        0.98195364       3.31254836      11.65062292      -1.02481401       0.39698810       0.71805183      -1.06977761       0.52368951      -0.69627678      -0.01119203      -0.19753982
H        3.58918497       1.09898090      12.93976932      -0.05004752      -0.48589979       0.03783652      -0.06450956       0.34260362      -1.16580832       0.02822650      -0.03319672
H        1.76078268       1.09958868      11.51888315      -0.05866783      -0.17547147      -0.19783552      -0.35516348      -0.03682149       0.08997306       0.01353872      -0.03530488
O        2.32665140       6.92506456      10.84240975       0.09308343       0.76588523      -0.01088600      -0.51173186       0.26716089       0.40724340      -0.03103053      -0.04939169
C        1.97992407       7.47013867      12.10978322      -0.64094144      -0.48175874       0.20805619       1.90556026      -0.33371842      -1.71516275       0.01012665      -0.26552877
C        2.70294979       8.80969270      12.31035607       0.23496626      -0.46985947       1.11010890       0.70199716      -0.17428100       0.16730164       0.02238204      -0.13263175
F        2.49773442       9.68174025      11.29391926      -0.14013457      -0.94421749       0.50574800       0.53665137      -0.99511933       1.84473443      -0.01156667      -0.17790695
F        4.03623470       8.55368903      12.41962695      -0.43575063      -0.02796098       0.51176886      -1.09939182       0.50098741      -0.60771793      -0.01169936      -0.22351146
F        2.33830715       9.38536185      13.48431550      -0.69934874       0.47803660       0.84572033      -0.28186220      -0.20511316      -1.39029503      -0.00608065      -0.16615762
C        2.20535548       6.46757531      13.20618986       0.08008819       0.63651822      -0.07121874      -0.20084043      -1.44746888       0.12468822       0.02307016      -0.14340869
F        3.37423188       5.84813343      13.14623525      -1.12136832      -0.26969156       1.13068604       0.72607487       0.60592866       0.31724229      -0.00783967      -0.23697644
F        1.30994965       5.45474356      13.12135088      -0.54396505      -0.07280037       1.51430540      -0.40245098       0.90479183      -0.03185008      -0.01345174      -0.21448737
F        2.03404405       7.03408106      14.40594200      -0.29171676       0.38736916       0.79585787       0.12516421      -0.25184315       0.37795025      -0.00428156      -0.24062161
H        3.23876418       6.60261794      10.77064358       0.07628322       0.11472332      -0.06144901      -0.10207111       0.18183973       0.55124187       0.02126773      -0.08160233
H        0.94544572       7.60597914      12.10467152       0.20706470      -0.00916324       0.02620793      -1.61250782       0.54210550      -0.19653638       0.01094113      -0.02227996
O        4.12802570      14.12355205       6.82865114       0.51766010       1.91243243       0.16476830      -0.25019619      -0.38541925       0.02185921      -0.02616290      -0.10846803
C        4.53960746      12.85363648       6.39773258      -0.55402065       0.97263126       0.29184830       1.16652584       1.03735340       1.37796700       0.00832580      -0.22505058
C        6.05004912      12.85342446       6.61173107      -0.15464355       1.58566114       0.73359653       0.51956207       0.24152075       1.06594205       0.02078898      -0.15553245
F        6.30270289      12.72614797       7.94462992      -0.14955459       1.04015249       0.63422355      -0.48958969      -0.06173816      -0.45432347      -0.01498307      -0.24536324
F        6.55590178      14.02806425       6.25038319      -0.00964739       0.78387285       1.47829901       0.28438258       0.37669528      -0.27000186      -0.00969800      -0.25487483
F        6.75800592      11.91979893       5.99423499       0.26020603       1.23020789       0.75028530      -0.22389665      -0.30312359      -0.27289119      -0.01054509      -0.22975501
C        4.19303708      12.63087390       5.00377529      -0.69974933       0.92140447      -0.30130571       0.43293586      -0.16323672      -0.84152246       0.02118809      -0.14082509
F        4.83452162      13.40738968       4.15619428      -0.16430526       1.91776252       0.52942987       0.24714029       0.81307805      -0.28205761      -0.00801472      -0.19827315
F        2.90809207      12.82086661       4.82249541       0.33310866       2.88977657       0.16649087      -1.10922229      -0.29385918      -0.65245581      -0.00945416      -0.21834557
F        4.54961135      11.35397770       4.74859515      -0.87798608       1.40917360      -0.14003136      -0.63493234      -0.51582921      -0.60223848      -0.01322051      -0.21813904
H        3.47545188      13.98859630       7.51807703      -0.34053352       0.07435516      -0.32868298      -0.24970055       0.16111191       0.05776067       0.02029333      -0.04466330
H        4.08592229      12.01941343       6.89937509      -0.06634980       0.34742354      -0.22516400       0.14386252      -0.15853080       0.54098016       0.00821845      -0.01104125
O       11.56126068      12.88999935       8.87709547       1.07812848      -0.15509097      -0.10005896      -0.18648976      -1.19385159      -0.10229393      -0.02825503      -0.02322991
C       10.78027046      11.86233194       8.33326843      -0.51919197       0.37222799      -0.24386910      -0.68035024       0.20657577       0.60236382       0.00924721      -0.21878636
C       11.41511822      11.03838906       7.18430990      -0.01548235       0.27131938       0.44044416       0.61298567      -0.65036219      -0.11666351       0.01932812      -0.14697175
F       12.48328333      10.31645429       7.55388328      -0.56288871       0.23213008      -1.40528659      -0.09563649       0.76856345       0.05622923      -0.01396073      -0.07153188
F       11.86544338      11.76458319       6.15329145       0.68070471       0.81391092       0.41810496      -0.33885762       0.65988386       0.28332588      -0.01137516      -0.24528986
F       10.53127536      10.13672437       6.73296998      -0.16220543       1.88226297      -1.53130765      -0.32554054       0.22305571       0.03201080      -0.01373379      -0.24740729
C        9.38838965      12.38588276       7.84837308      -0.25034154       0.82256645       0.27013705       2.14377856      -0.91662896       0.29342651       0.02228518      -0.05550254
F        9.47564816      12.61011387       6.55379635      -0.26508617      -0.57341089       0.10557951      -0.61436278       0.82377517      -1.27220619      -0.00762576      -0.21652624
F        9.12558100      13.53208045       8.46574024       0.43034712      -0.32081771       0.35485206      -0.89592230      -0.45305201      -0.13075426      -0.00841431      -0.23191011
F        8.49686060      11.39831212       8.01730423      -1.07467173       0.33023139       0.72897038      -0.34794575       0.68345487       0.61262929      -0.01220457      -0.23261718
H       11.67317587      13.58150123       8.23945581      -0.08289054      -0.16193082       0.00699605       0.13228010       0.76817578      -0.67603880       0.02469248      -0.04085101
H       10.51462248      11.18895982       9.16703860       0.17667960      -0.11645522       0.11120574       0.52783823       0.05088195      -0.43194777       0.01001053      -0.04479031
O       14.11502879       8.73332865      10.38001805      -0.27205742      -0.16907651      -0.28229141      -0.10066904      -0.24322821       1.18274021      -0.02794222      -0.04541921
C       12.84451937       8.78501015      10.93511406      -0.33801787      -0.20757177      -0.34668385      -0.39920676      -0.38245016      -0.23833078       0.01031828      -0.15494603
C       11.90749939       8.07156055       9.90700528      -0.65325527       0.13898481       0.42496692       0.61436981      -0.68881214       0.91499853       0.02261404      -0.06931068
F       12.29642438       6.78244584       9.89744778      -0.47816788      -0.47420373      -0.08969512       0.01759542       0.40468597       0.02362964      -0.01237661      -0.18678294
F       12.10632563       8.47018362       8.65888253       0.95417531       0.57663362       1.01592085      -0.62579113       0.05803618       0.27275035      -0.00804647      -0.15920205
F       10.62120849       8.07413371      10.23662197       0.22794750      -0.02881373      -1.55360256      -0.06889718       0.61495781      -0.34607333      -0.01002487      -0.26023361
C       12.58304993      10.18757834      11.53700946      -0.50202223      -0.32929436       0.61097988       0.11967258      -0.14634939       0.16833411       0.02083407      -0.13443284
F       12.37402606      11.15473838      10.65842132       0.43133400      -1.01564065       1.11003934       0.53075200       0.20346679      -0.76002038      -0.01021662      -0.23004496
F       13.64746002      10.47625193      12.30046291      -0.26880936      -0.74390337       0.34074421       0.20358273       0.06608197      -0.23165490      -0.01230543      -0.24983120
F       11.54530542      10.24899365      12.34534357       0.48804137      -0.46334852       0.41600538      -0.92522997      -0.47049797       0.44812626      -0.01052356      -0.20140895
H       14.02053842       8.86516113       9.45357777       0.20095700      -0.13165219       0.10821841       0.22088309       0.27261105      -1.42185032       0.02316208      -0.02032080
H       12.83193951       8.11997966      11.79513823      -0.12098351      -0.06548185       0.05875111      -0.12411725      -0.09762411       0.29014325       0.01255441      -0.02447236
O        1.98706149      12.13636815       7.10620258      -0.59193113      -0.34156299       0.45654024       1.31200254       0.23856771      -0.13375068      -0.02053660      -0.02982095
C        2.10162764      11.43439435       8.30893777      -0.42824641      -0.54748982      -0.24539762       1.11702263      -0.10924125      -1.16636932       0.01442221      -0.13724849
C        2.07584480       9.93898027       7.96990234      -0.12854855       0.05664862      -0.62214490      -1.53832924       0.24380128       0.41106117       0.02243767      -0.10498084
F        3.03045671       9.78456136       7.11270086      -0.36347766       0.20818057      -0.51079709       1.67561018      -0.78787744      -1.21112692      -0.00729184      -0.20589699
F        0.92589079       9.58401555       7.32919334       0.15644361      -0.56796812       0.16730320       0.11843467       0.05379779       0.50587571      -0.01161721      -0.28506991
F        2.24345479       9.11217405       8.99719917       0.43121176       1.53327265      -0.40240301       0.08667303       0.12216110      -0.55986780      -0.00906297      -0.18874893
C        1.04718719      11.96728606       9.14600291      -0.02812308       0.54824864      -0.26205994      -0.69503677       0.21137711       1.59379435       0.02140875      -0.06714552
F       -0.08387524      11.94015622       8.45762120      -1.06196538       1.03278450       0.70428618      -0.58235055       0.22412327       0.31973633      -0.00828120      -0.16759750
F        1.25468644      13.25752923       9.51350379       0.98856509       0.03119573       0.35718948      -0.28311795      -1.30231750       0.08501134      -0.01238985      -0.25620434
F        0.95880605      11.16683116      10.21452437       0.21164409       0.22692301      -0.20585607      -0.48793080       1.07277393       0.25458708      -0.01042039      -0.16876386
H        1.10401006      12.06147037       6.74416988       0.06643584      -0.09646915       0.02377090      -0.43007582      -0.13857020      -0.06728005       0.02761687      -0.03078439
H        3.08264595      11.57976251       8.79456043      -0.17835840       0.08629095       0.03925061      -0.24297602       0.31233138      -0.31929886       0.01478206      -0.04171678
O        8.77961190      11.19166821       4.07704157       0.30738390       1.01653400       0.45386891       0.06584476       0.05830555      -0.08732954      -0.02985580      -0.06333091
C        8.68764041      12.39039977       3.36762432       0.10110338       0.75242306      -0.02309307       0.79670441       0.01338439      -0.21950173       0.01142533      -0.27610549
C        7.53503964      12.27108702       2.38614708      -0.35288142      -0.38763777      -0.30294487      -0.30122584      -0.27748397       1.76068914       0.02353841      -0.11636582
F        6.45474880      12.00034614       3.11270720       0.22047295       0.10779647      -0.33507174      -0.13898891       0.17080291       0.07844511      -0.01117852      -0.13949758
F        7.70576985      11.25278458       1.57943150       1.29764886      -0.24208636      -0.38050619       0.43501878      -0.71704131      -0.76605910      -0.00989879      -0.19225420
F        7.28199184      13.38157268       1.71546413       0.21480864      -0.41841276      -0.43146410      -0.03055626       0.93200850      -0.42290545      -0.00511456      -0.21782249
C       10.04098969      12.73867692       2.68630020      -0.12330476       0.19162015      -0.23579580      -0.11531398      -0.37315321      -0.56327915       0.02057779      -0.16097403
F       10.56942227      11.70227835       1.97789488       0.16532621      -0.43253705      -0.31930677      -0.58342934       0.23863409       0.45754990      -0.01231283      -0.26471677
F       10.91895030      13.11555391       3.59335786       0.42510575       0.76310792      -1.09775817       0.44570243      -0.09683795       0.59895486      -0.01083062      -0.25184843
F        9.94165197      13.74701111       1.81203696      -0.33674912      -0.62936415      -1.41008714      -0.47422919       0.25139919      -0.22399069      -0.01136475      -0.25356644
H        8.74478198      10.44634257       3.45524884      -0.00605269       0.03426239       0.03764736       0.04841091       0.19818462       0.16684964       0.02498636      -0.03512418
H        8.46441407      13.20151006       4.07620604       0.09705190      -0.18069829      -0.17483436       0.05471660      -0.22760585      -0.19001478       0.01461631      -0.05361132
O        6.84552287       3.75963107       8.91008377      -0.10686647      -0.85477492      -0.49990980      -0.47936636      -0.36602506       1.24909949      -0.03057799      -0.08758538
C        6.30423044       4.02071563      10.23219138      -0.71185840      -1.73110458       0.02866585       1.11864960      -0.74852276      -2.31937194       0.01159275      -0.21963039
C        5.85482604       5.42786838      10.17674263      -0.87127108      -1.21550300       0.13037212      -0.64125651       1.51145685       1.20026600       0.02287276      -0.11888118
F        4.82862729       5.61079202       9.31292958      -0.25621729      -0.67892112       0.53259511       0.28903338      -0.11845438       0.54432374      -0.01043506      -0.24480456
F        6.85623571       6.27680471       9.85844883      -0.68209397      -1.34123379      -0.09934862      -0.86663741      -0.98208815       0.18105996      -0.01118889      -0.14272444
F        5.40730920       5.79161966      11.41612993      -1.06260807      -0.93470340       0.83825395      -0.11772604       0.20820078      -0.74176675      -0.01194822      -0.25432304
C        7.36541309       3.76044071      11.29410320       0.58416913      -0.48377145      -0.19673380      -0.54427439      -0.36335808      -1.14491546       0.02261337      -0.15839548
F        8.45209341       4.48313938      11.04683993      -0.66024322      -1.16032239       0.37294550       0.35001796       0.05172700       0.41783881      -0.00982488      -0.21290141
F        7.66112624       2.46592533      11.19300317       0.28866640      -0.18763832      -0.64224857       0.65778881       0.03197775       0.24311057      -0.01153305      -0.21612172
F        6.94327582       4.00200457      12.52749359      -1.33655926      -1.13908631       1.15816591       0.06858905       0.08977276       0.51591492      -0.00905681      -0.28141066
H        7.33159772       4.54099700       8.62484416      -0.24245127      -0.08706921      -0.08762554       0.23496854       0.09170698      -0.06875110       0.02257742      -0.05389848
H        5.51973896       3.28287303      10.37505768      -0.05266051      -0.09844638      -0.04488834      -0.28004333       0.37215710       0.14230929       0.01192023      -0.06183723
O       10.53347416       3.24288424      10.03712314      -0.07862389      -0.58620908       0.71069011       1.69496655      -0.04669577       0.48266122      -0.03047743      -0.02357799
C       11.08700879       3.20095236      11.35943783       0.20840669      -0.62777667       0.52145673       0.26241210      -1.37472332      -1.02120650       0.01083184      -0.23082909
C       11.83456429       4.50275234      11.69066272       0.78704587      -0.07719858       0.81616927       2.04270911      -0.65826243       1.20094705       0.02057970      -0.10361799
F       10.94229182       5.46247687      11.68890516       0.68592680      -0.30086460      -0.24071220      -0.02783360       0.75369972       0.05478492      -0.01009801      -0.23824421
F       12.90622974       4.82616440      10.90949111       1.63520628       0.19678695      -0.62808711      -1.42184436      -0.80490243       0.10841055      -0.01430126      -0.13601008
F       12.44358597       4.43956748      12.93086629       0.56912429      -1.27344597      -0.29577524      -0.94942081      -0.13945439      -0.73621845      -0.01512778      -0.21677175
C       11.92657208       1.90149410      11.34238968       0.88735327       0.06249443       0.40214381       0.63319200       0.24373165      -0.36037388       0.02107040      -0.10738232
F       12.90139560       1.98377237      10.43959962       2.23791275       0.55962316       0.15300018       0.88020748       0.54317790      -1.07314193      -0.01259500      -0.22853073
F       11.17547178       0.89824877      10.90408582       0.95394433      -1.88452786       0.24312017      -0.19612093      -0.09030189       0.59940296      -0.01179671      -0.19217929
F       12.56096486       1.57710635      12.46086153       0.92817540      -0.56189162      -1.07263143      -0.63551426      -0.16460876       0.72030163      -0.01063835      -0.24878982
H       11.32610153       3.07430411       9.44433667       0.03213480      -0.21926768       0.05531871      -1.45681727       0.36077082       0.76523823       0.02148357      -0.03449085
H       10.30977094       3.00689281      12.11737667      -0.01721655      -0.06954065       0.22637438       0.05156915       0.55349767      -0.41622275       0.01225625      -0.05512889
O        6.19534633       6.76239245       7.53559251       0.01179474      -0.71363091      -0.02708376       0.66269058       0.91291511      -0.40172550      -0.02540112      -0.04603731
C        6.89686226       7.44638353       6.50517550       0.03405908      -0.06841571      -0.10722283      -0.55490410      -0.97389168       0.58761901       0.01526032      -0.24073511
C        6.03000400       8.54693890       5.94679755      -0.12866918       0.41732009      -0.02555740       0.33461928       1.53410518      -0.77667910       0.02224250      -0.12078832
F        5.72024029       9.54026972       6.77814581       0.16982874       0.14917847       0.56720048       0.08732493      -0.39554915       1.10439265      -0.01201254      -0.22701697
F        4.86281907       8.03285349       5.54454450      -0.59267562       0.53090474      -0.02303834       0.07003105      -0.07842034      -0.40572980      -0.00846980      -0.25789380
F        6.68341282       9.19582798       4.94973054       0.27054259      -0.89595524       0.49290130      -0.42517051      -0.90246075      -0.25597078      -0.01262753      -0.24430154
C        7.21870792       6.33719047       5.50046206       0.12096047      -0.12449421       0.35301137       1.37057471      -0.61067891      -1.43352234       0.02333151      -0.08485033
F        6.22599175       5.51410088       5.20396779      -1.99151349      -0.17816103       0.09139987      -0.95659769      -0.31444669       0.91347289      -0.00590663      -0.23809510
F        8.20642470       5.60235760       6.08534188      -1.19814800      -0.09435150       0.22110535      -0.91666663       0.31398401      -0.61025882      -0.01207433      -0.21996537
F        7.62752212       6.71011679       4.26343849      -1.05333350      -1.98012955      -0.25925448       0.63988525       0.70180947       0.82953173      -0.01252648      -0.23464867
H        5.37478104       6.40548603       7.17349293      -0.05828019       0.00185709       0.11650180      -0.03046155       0.00559518      -0.10762399       0.02730588      -0.03759509
H        7.86358159       7.83012008       6.88098448      -0.08015306      -0.13905556      -0.20527107      -0.63424456      -0.06626365      -0.05495260       0.01430548      -0.06118365
192
Lattice="14.05790476106759 0.0 0.0 0.0 14.05790476106759 0.0 0.0 0.0 14.05790476106759" Properties=species:S:1:pos:R:3:momenta:R:3:forces:R:3:charge:R:1:energies:R:1 Built=T with=T Packmol=T charge=0 spin=1 external_field="_JSON [0.0, 0.0, 0.0]" energy=-15.942503929138184 stress="-0.008545096032321453 0.0009707712451927364 0.0006121551850810647 0.0009707712451927364 -0.006920929998159409 0.003384751034900546 0.0006121551850810647 0.003384751034900546 -0.010772417299449444" dipole="-0.4967438578605652 -0.9962534308433533 0.4219323396682739" free_energy=-15.942503929138184 pbc="T T T"
O       13.14916362       5.72018120       6.90288180      -0.05493776       0.13425918      -0.21278543       0.31777689       0.67435694      -0.80886853      -0.02850606      -0.08485571
C       12.36199438       4.60953870       6.66448143      -0.20087679       0.35806487      -0.28365445      -0.26833200       0.61759007       0.03457130       0.01389383      -0.26477590
C       10.90914775       4.90592581       7.12675526      -0.33807452       0.44649401       0.07555262      -0.86201793       0.22246477      -0.24937467       0.02237891      -0.12383344
F       10.55078802       6.00948366       6.44327271      -0.27137297      -0.69744985      -1.15552666       0.14046824      -0.32958883      -0.32011098      -0.01349695      -0.21066570
F       10.69747727       5.22666876       8.40079407      -0.92376865      -0.67204528       0.23389761       0.80576038      -0.08387265       0.21933116      -0.01013934      -0.20620696
F       10.04528480       3.89822127       6.86928008       0.94622853       0.47545503      -0.63777211       0.58253765       0.31721377      -0.38629690      -0.01011736      -0.26108971
C       13.02050109       3.42560402       7.28363672       0.14104825      -0.31498816       0.14806091       0.18479523      -0.43435344       2.44251919       0.02603445      -0.04323106
F       13.31732022       3.85516610       8.60896903       1.13426401      -0.86792933      -1.07859105       0.04518106      -1.16444707      -1.88279521      -0.01383577      -0.20323092
F       14.13572758       2.99864656       6.69617641       0.18462522       0.70371917      -0.52176449      -0.54340643       0.49876398       0.35941666      -0.00601332      -0.25890765
F       12.18601222       2.37621875       7.40820754       0.13302880      -0.82074958       0.03555318       0.28677019       0.07206370      -0.00419040      -0.00635314      -0.26950777
H       13.37601265       5.81521344       7.83107049      -0.15661012      -0.08976642      -0.01036062      -0.15185566      -0.20760669       0.36381805       0.02360069      -0.04879031
H       12.30574090       4.45185333       5.59079328      -0.09339127      -0.12095806      -0.10191914      -0.09185047       0.06551746      -0.22120188       0.01426520      -0.04450691
O        1.97445719       9.04989033       2.12217174       0.01239919       0.35162711      -0.14139259      -1.10360289      -0.92277592       0.84438848      -0.02963384      -0.13168156
C        3.00022281       9.88288843       2.47607073      -0.09567701      -0.07397604       0.12431336      -0.22789651       1.48149991      -0.90780073       0.01200535      -0.21975797
C        2.65372312      11.31744589       1.86899788      -0.56806308       0.33120398       0.20495253       0.83842015      -0.36716592       1.25336444       0.02210214      -0.09083644
F        1.38649905      11.62359717       2.26618856       0.70536544       0.02668377       0.20996518       1.42150068       0.12206970      -0.30491984      -0.01243421      -0.26845783
F        2.71366894      11.32650266       0.56286709       0.97306068      -0.02617156      -0.72372728      -0.41388494       0.23273841      -0.87998563      -0.00857067      -0.16865750
F        3.53191061      12.28955842       2.23850405      -1.51434161      -0.40511716       0.78326395      -0.85543120      -0.53601557       0.42438594      -0.00935218      -0.22962220
C        4.35352422       9.24855023       2.11657397       0.15293529       0.02266198       0.42243425       0.79709214       0.72217715      -0.59756863       0.02182611      -0.13353395
F        4.45159035       8.72443398       0.87808029       0.08704136       0.19794493       0.45193047      -0.86428165      -0.23025393       0.37279093      -0.01117999      -0.24746603
F        4.60052819       8.29930046       2.99642293       0.76424354       0.36666241      -0.13824124      -0.05436494      -0.87706143       0.24868545      -0.00931506      -0.23867831
F        5.37252008      10.10243849       2.16840198      -0.45484182       1.52167402      -1.00429458      -0.13056889       0.46092841       0.31071281      -0.01175087      -0.21747309
H        1.98935387       8.78434123       1.20790628       0.04493774       0.17117601       0.05838533       0.33517653       0.05299877      -0.63737369       0.02093244      -0.05303499
H        2.96335434       9.98144635       3.55113332      -0.02420250       0.05659569      -0.08968698       0.21316619       0.13854189       0.30549482       0.01176667      -0.04214344
O        7.42918345      12.44214887      13.46238394      -0.54121769       0.94504530       0.45956986      -0.10829062      -0.41739386      -0.18701416      -0.02983772      -0.07833020
C        7.89349126      12.57879949      12.17757504      -1.03276796       0.41992819       0.05901892       0.45082051      -0.13146953      -0.32519034       0.00926843      -0.26356372
C        9.29909324      13.12667181      12.17089342       0.13162067       0.57301774       0.14193502       0.11389139      -0.15658583      -0.89626300       0.02039515      -0.13522212
F       10.07465342      12.60041154      13.08674244      -0.48585173       1.20018436      -0.04131420       0.33375654      -0.58498222       1.10393071      -0.01167459      -0.24692637
F        9.26708001      14.43270663      12.38723908       0.19983193       0.71009269      -0.79607815       0.01589989       1.12987161       0.24502988      -0.01017769      -0.25021195
F        9.90253021      12.87002005      11.00357166       0.10135582      -0.05681560      -1.13553231      -0.33686149      -0.01380162      -0.38174832      -0.01345763      -0.20088407
C        6.88256663      13.41923975      11.42342266      -0.43950879       0.56422537       0.58220027      -1.04870689       0.18533686      -1.09522331       0.02190220      -0.13799565
F        6.61846246      14.54148878      12.11603481      -0.81406435       0.48356649      -0.09730776       0.01647234      -0.29382318      -0.45701590      -0.01014429      -0.22934875
F        5.74303534      12.70984079      11.37695752      -0.34739948       0.48605772      -0.01837934      -0.24763040      -0.07636960       0.16158956      -0.01474803      -0.25562730
F        7.14495430      13.70930096      10.11563770      -0.09510700       1.78722043      -0.09541424       0.43718785       0.19480056       1.65072620      -0.01231121      -0.22485098
H        7.59744872      13.25235793      13.94592947      -0.00424632       0.02344576      -0.01046096      -0.10115317       0.25684232       0.14180744       0.02457949      -0.00535690
H        7.95196434      11.61689562      11.69242489      -0.00416316       0.19562091       0.07191906      -0.19891351      -0.38198578      -0.03863395       0.01077171      -0.04390001
O       13.17571691       8.56098207       1.69865681      -0.87034018       0.65575525       0.09450828       1.47136831      -0.22849853       0.84138870      -0.03123794      -0.07569076
C       12.16914640       8.82006639       2.62895197       0.33947154       0.06565510      -0.65719757       2.59977341       0.43963382       0.49440098       0.01387807      -0.24908468
C       12.51980619       9.97357976       3.61526959       0.98549125       0.84566563      -0.31568751      -0.89059711       1.71411526      -1.33784485       0.02158582      -0.05680090
F       12.98212003      11.09539442       2.93237358       1.31421316      -0.10057641      -2.36767170      -0.79746431      -1.68282270       0.68281633      -0.01490475      -0.22952425
F       13.38564666       9.77814868       4.57537715       1.35984785       0.43037999      -1.08236774       0.45761281      -0.53451729       0.49150270      -0.00941700      -0.25399745
F       11.30904716      10.27601284       4.14991435       1.59616782       1.10563331      -1.27954624       0.79027361       0.09189063       0.19055405      -0.01159180      -0.19023558
C       11.85864783       7.55344352       3.38741878       0.72378890       0.88557815      -0.23798109       0.96583694      -1.86933470       0.31297299       0.02360573      -0.04989877
F       12.78525868       7.22985600       4.37018895      -0.25575887       0.92437376      -0.75048338      -1.21515322       0.94064790      -0.79664654      -0.01408107      -0.25145429
F       11.88109629       6.42945297       2.61495418       0.57337910       0.37361203      -2.07168563       0.14052701       0.72166711      -0.34467253      -0.01071516      -0.22834000
F       10.65042894       7.62268583       3.85934542       0.01305117       0.11770577       0.17919721      -1.10061729       0.01569312       1.31810021      -0.00908975      -0.22721988
H       14.02717102       8.33914916       2.20645982      -0.14722336      -0.03429266      -0.19217219      -1.50322485       0.59047657      -1.03372347       0.02336914      -0.04844619
H       11.29430244       9.25053049       2.19106407       0.25746973       0.14695018      -0.21853756      -0.60428059      -0.33598641      -0.88068014       0.01357717      -0.03046990
O       10.61922778       4.69279199       0.74373891       0.30460080      -1.52309170      -0.49326292       0.68970793      -0.68636513       0.35652572      -0.03138075      -0.03232603
C       10.42780878       3.39367783       1.34741532       0.51988828      -0.48965268      -0.52053845       0.90424967       2.46654797       0.16542307       0.01359810      -0.16119909
C        9.31967188       3.68079441       2.37605846      -0.07850487      -1.66226712       0.02026211      -1.10348451       0.26335189      -0.47365713       0.02198400      -0.15362896
F        8.22670503       4.17343230       1.73127452       0.77676925      -0.72918377      -0.56577015       0.67234349       0.01979474      -0.22339438      -0.01279145      -0.25786304
F        9.65772094       4.59299516       3.28439270      -0.20483526      -0.92018152       0.87316820       0.55995113       0.05905122       0.13029464      -0.01081848      -0.27859133
F        8.87003902       2.62019610       3.00653595      -0.03639814      -1.80881285      -0.35884193       0.16179290      -1.21524191       0.65707964      -0.00775375      -0.25177622
C       11.79670502       2.76785092       1.88066524       0.28832417      -0.36977953       0.46485528      -1.74535191       0.52588493      -0.89685804       0.02447505      -0.05689202
F       12.55501350       3.70232502       2.51119443       0.37894950      -0.51048430       0.81596188      -0.72298741      -1.01360261       0.08319352      -0.00811514      -0.26653120
F       12.50636993       2.36285279       0.81682903       0.23378372      -0.62489753       1.00730546      -0.18414836      -0.20284900       0.79384142      -0.00919921      -0.24195068
F       11.48038699       1.71532301       2.67275634      -0.31702957      -0.26779375       0.17479004       1.06712270       1.02712023      -0.32384667      -0.00780181      -0.24128211
H       11.37237039       5.15928213       1.15249873      -0.05491666      -0.23105160       0.19991473      -0.48956415      -0.28544712      -0.07671718       0.02150293      -0.07499155
H       10.01750737       2.83925168       0.52129658       0.08973218       0.12573188      -0.13093651      -0.09912889      -0.98848087       0.13980390       0.01402945      -0.03405266
O        8.59507574       7.03199673      11.64285186       1.29344006      -0.26925368       0.34880501       0.32629758      -0.56482142       1.03129089      -0.02864493       0.00322343
C        8.42593927       8.36352068      12.03292378       0.46989621      -0.70953060       0.09904943       0.23544185      -0.20771308       0.84041041       0.01010156      -0.26330891
C        9.16773260       8.64573244      13.40009444       0.66432425      -0.84616309       0.63004222      -1.86542296       1.28132761      -0.61532468       0.02123717      -0.10953073
F       10.41241699       8.28498392      13.27831354      -0.00060487      -1.06835892       0.38103712       1.15713739      -0.80012786       0.26628783      -0.00970444      -0.22806516
F        8.58928198       7.96582531      14.39277509      -0.81771538       0.15129146       0.91215302       0.18286362      -0.37973267       0.16041461      -0.00989937      -0.28974968
F        9.14584944       9.95789594      13.78680115       1.63676618      -0.58819739       0.42809689       0.03042193      -0.90543431      -0.64828533      -0.01409854      -0.24964370
C        6.93973578       8.67698656      12.08079453       0.00688295      -0.07909248       0.07423942       0.17881227       1.14072990       0.39126176       0.02091618      -0.14700446
F        6.29906778       7.91519368      12.95189099       0.58526559      -0.31766168      -0.13910611      -0.09696066      -0.90086102      -0.36127943      -0.01015426      -0.21987027
F        6.42462965       8.64009387      10.84931599       0.45562218      -0.37369356       0.49782002      -0.28163877      -0.79988742      -0.05032241      -0.01338411      -0.25656885
F        6.71757112       9.93079729      12.48592796      -0.51699320       0.21566944       0.69448040       0.17846678       0.78032100       0.38871840      -0.01209426      -0.21906389
H        8.52088358       6.37597073      12.39291227      -0.16728218      -0.11153955       0.05950660      -0.00999106       1.26613116      -0.90868169       0.02608787      -0.04464024
H        8.85174392       9.01671106      11.26179972       0.09244584      -0.07135464       0.09899660       0.06280985      -0.19028836       0.21133298       0.01174398      -0.05409260
O        3.73299613       1.26984831      11.96207872      -0.00576014      -0.07200864      -0.57923607       1.18347359       0.32282674      -1.35541534      -0.02193951      -0.01524311
C        2.60599265       1.73195051      11.30728623      -0.63458853      -0.13614767      -0.42076678      -0.09669922      -1.38491106       0.16574484       0.01168054      -0.20264195
C        2.85737472       1.62835579       9.82881104      -0.23598954      -0.17988846      -0.61733665      -1.39881933      -0.67005676       0.71982622       0.02307649      -0.11396365
F        3.37000900       0.45841131       9.56169243      -0.40922214      -1.18107293      -0.56915230       1.04798388      -1.52231002      -0.37392247      -0.00876204      -0.18975548
F        3.64754036       2.52404689       9.34299082      -0.44449465      -0.02874699       0.34445951       1.02394009       1.41760731      -1.15597522      -0.00522882      -0.20906003
F        1.65682466       1.66518099       9.22396823       0.66100928       0.41772346      -0.64809247      -0.19186294       0.80111212      -0.61982834      -0.01449371      -0.23580557
C        2.28365654       3.12358024      11.75617622      -0.05734793      -0.08396563       0.33441228      -1.70156276       0.14707021       0.30066726       0.02189764      -0.11866150
F        2.90212720       4.08994358      11.05567937      -0.87288964      -0.58238670       0.35112899      -0.08342137      -0.16919173       0.77986342      -0.00809816      -0.24544431
F        2.55276297       3.18147114      13.05239355       0.41413984       0.02738691      -0.29043189       0.66527796       0.59089410       0.40959579      -0.00799373      -0.21710846
F        0.95180916       3.32542232      11.66505635      -1.19672727       0.57142652       0.41369324       0.24372959       0.19781128      -0.51108068      -0.01413944      -0.21215916
H        3.55375681       0.91410694      12.81152824      -0.13255033      -0.33704555      -0.32977960      -0.46446651      -0.38598296       1.18132150       0.02695364      -0.03671422
H        1.73551221       1.05975250      11.43804445       0.00399391       0.06621610      -0.11273629       0.16859169       0.55603498       0.34400228       0.01285497      -0.03311860
O        2.32660909       6.94960556      10.84481592      -0.10794278       0.81766418       0.15863903      -0.55554551       0.04402796       0.27542695      -0.02942108      -0.09259221
C        1.97380047       7.45141668      12.10244219       0.02434015      -0.29145385      -0.49581820      -0.94926965       1.23510146      -0.83482808       0.00960168      -0.27722764
C        2.71540389       8.79003155      12.35373810       0.25756222      -0.46680926       0.93027182      -0.68288082       0.12092651      -0.80605334       0.02194720      -0.13879298
F        2.49749238       9.65107511      11.31886354       0.11587657      -1.40938609       1.40701635       0.46724778      -0.77416718       1.64599848      -0.01387191      -0.19137642
F        4.01968053       8.55566303      12.42989933      -0.75381744       0.15886809       0.32094007      -0.02414481       0.23608331      -0.14920159      -0.00862006      -0.22779647
F        2.31892849       9.39584037      13.49748003      -0.78287618       0.30927967       0.18736339      -0.08351503      -0.48077878      -1.21380663      -0.00596400      -0.16934404
C        2.20300960       6.47508572      13.20856242      -0.28265316      -0.30510701       0.26222647      -1.22844172      -1.88655174       1.01295543       0.02294963      -0.12794779
F        3.35105754       5.84503708      13.17694997      -0.62512997       0.01830460       1.22694035       1.26912773       0.47221091       0.10027444      -0.00640828      -0.22591788
F        1.29373658       5.45929295      13.15990593      -0.70220162       0.42890506       1.45528546      -0.31345889       0.96006393      -0.18173613      -0.01459975      -0.21064742
F        2.02753418       7.04275455      14.42752571      -0.20347682       0.29053840       0.81928105       0.22121836      -0.16781087      -0.26566726      -0.00600977      -0.24518274
H        3.25055741       6.68172708      10.80476375       0.00922652       0.18747674       0.17626609       0.23714665      -0.04440552       0.26684162       0.02184539      -0.07091582
H        0.85919972       7.65875764      12.09482165      -0.22426026       0.15258022      -0.05300107       1.47086954      -0.19967343      -0.05516659       0.01037825      -0.02846258
O        4.13925107      14.17923570       6.83589773       0.12800304       1.72773634       0.35833938      -1.11301482      -0.21702696       0.52590138      -0.02596414      -0.12877178
C        4.53319286      12.90985774       6.41499159       0.19288863       1.66481221       0.49729463       0.71643245      -0.06513388       0.60769546       0.00693991      -0.22915784
C        6.04769334      12.91347472       6.65038536       0.01004936       1.20250483       1.09438049       0.17964871      -1.50711977       0.30889308       0.02091810      -0.15138189
F        6.29573528      12.75284105       7.95900908      -0.38248128       1.03086892       0.52337863      -0.41167456       0.01244370       0.09244049      -0.01354189      -0.23873386
F        6.55820064      14.05308826       6.28629047       0.21996575       1.23636939       1.28144146       0.66412616       1.37366617      -0.47505543      -0.00799790      -0.24158700
F        6.76211688      11.95102177       6.01253016       0.01528289       1.23178326       0.68887878      -0.73609698       0.26007611       0.01672878      -0.01343090      -0.24155027
C        4.17438968      12.66853441       4.98800395      -0.11504897       0.94965588      -0.33287039       1.57121754       0.19742619       0.76314354       0.02098568      -0.13721818
F        4.83212425      13.46168853       4.16735757      -0.01187675       2.26271340       0.30799326       0.35813436       0.57885844      -0.58746576      -0.00804180      -0.21738675
F        2.90726181      12.89356840       4.82219287      -0.45394629       2.72897037      -0.20109092      -1.76700091      -0.35234165      -0.78077996      -0.00858119      -0.21637450
F        4.52264351      11.38736225       4.74100550      -1.21463834       1.19078294      -0.45288304      -0.71577489      -0.29557776      -0.66725630      -0.01273504      -0.23616819
H        3.31099615      14.05413470       7.33751171      -0.26552546       0.20687334      -0.45850227       0.41538024       0.28301838      -0.38615936       0.02100781      -0.04054635
H        4.02880774      12.07852190       6.92144400      -0.11098658      -0.04374787       0.27689524       0.71141231       0.34669232       0.21575809       0.00735585      -0.00925646
O       11.59143424      12.87735573       8.87115933       0.86709130      -0.45824334      -0.48891266      -0.52322549       0.71402788      -1.97564662      -0.02891148      -0.00680274
C       10.75761240      11.87546992       8.33334862      -0.42014568       0.22434859       0.23205828       1.28870833      -0.35833156       0.47148579       0.00930192      -0.23677588
C       11.41859851      11.04577389       7.19652186       0.11979899       0.17338180       0.05721865      -0.15215595       0.33463216      -1.31103706       0.01889257      -0.13106732
F       12.46928376      10.32605332       7.51941897      -0.46900905       0.45321352      -1.20520985       0.50553471       0.08919505       0.71699661      -0.01253952      -0.07149011
F       11.88079297      11.79019122       6.16604146       0.50623336       1.18106917       0.56865579      -0.34613466       0.83685440       0.28938159      -0.01366013      -0.24465263
F       10.52467618      10.18604122       6.69398589      -0.35805044       1.90221706      -1.47241818      -0.44774738      -0.13470259       0.17113803      -0.01394776      -0.24490276
C        9.39703740      12.40421685       7.86120375       0.56849896      -0.02895929       0.31543247       0.89831758      -2.13319850      -0.19101055       0.02313258      -0.07562423
F        9.46495926      12.60088471       6.54923986      -0.55129668      -0.13661524      -0.40415865      -0.49323666       0.87106442      -0.63361079      -0.00817472      -0.21417871
F        9.13055513      13.52321752       8.47468297      -0.05032682      -0.29452583       0.35304803      -0.95040751       0.37348709       0.05474982      -0.00639773      -0.21918285
F        8.46844809      11.41237661       8.03983952      -1.05890303       0.79357080       1.00526221       0.41894767       1.11378634       0.50731540      -0.01429080      -0.23484407
H       11.65569909      13.59135360       8.18144302       0.00164940       0.02652666      -0.05691152       0.10436817      -0.73792738       1.01946831       0.02525468      -0.03341203
H       10.63586136      11.16589353       9.14549745       0.24045518       0.00796195      -0.15286902      -0.39193502      -0.08653923       0.07858114       0.01005556      -0.04373174
O       14.10604327       8.72631894      10.37942773      -0.30645455      -0.25797019      -0.04163515       0.01757976      -0.02597311      -1.14647126      -0.02788214       0.01022190
C       12.82706614       8.77109037      10.92357053      -0.49640671      -0.47589999      -0.13250338      -0.15542413      -0.39214563       0.75799656       0.00931267      -0.14319132
C       11.89209183       8.06910836       9.92973651      -0.01018959      -0.27379541       0.58575337       1.66429782      -0.86864340      -0.29756272       0.02189252      -0.08051670
F       12.28391250       6.77336772       9.89545454      -0.49502153      -0.21811502      -0.05712436      -0.04699777       0.52519715       0.11302145      -0.01320441      -0.18487969
F       12.12691711       8.48567883       8.68609695       0.63963450       0.62873568       1.06318425      -0.60837716       0.14226981      -0.04016765      -0.00978732      -0.17706445
F       10.62371012       8.07733394      10.19548821      -0.13333866       0.27534020      -1.58329874      -1.23069799       0.60463893       0.18833202      -0.00770719      -0.24027582
C       12.56787299      10.17081273      11.56070327      -0.16398507      -0.52252014       0.48139652       1.01508212      -0.51518512      -0.61233455       0.02071314      -0.12820989
F       12.38789475      11.13114571      10.68129222       0.61710551      -0.76903366       0.63213104       0.23995417       0.68055123      -1.08115053      -0.01015293      -0.22955319
F       13.64217316      10.45725270      12.30827039      -0.12939036      -0.73525903       0.28000946       0.33491364      -0.05238296      -0.02921413      -0.01307144      -0.25277472
F       11.54991742      10.23402810      12.36050397      -0.19137876      -0.69211697       0.80068127      -1.62956893      -0.45076081       0.96216917      -0.00902956      -0.19571756
H       14.12117724       8.82629227       9.38360551       0.16380638      -0.07072974      -0.04378456      -0.39720690      -0.10283142       1.68853688       0.02406725      -0.04365758
H       12.77469378       8.10525431      11.81176738      -0.08272761       0.03083453      -0.04466232       0.24664193       0.17620897      -0.30738163       0.01257850      -0.01727082
O        1.97851061      12.12868608       7.11694426      -0.11585223      -0.14238883       0.11410410      -0.13622946       0.46143591      -1.52134252      -0.01957903      -0.04737025
C        2.09021077      11.41445284       8.28916006      -0.23927887      -0.32666578      -0.63688497      -0.04984879       1.10995126      -0.12363771       0.01359680      -0.14171940
C        2.05797078       9.94412997       7.94972890      -0.62265658       0.19761399      -0.36682276      -0.10998373       0.27011606       0.39252570       0.02255063      -0.11639543
F        3.03152789       9.78502038       7.09154649       0.40260107      -0.16422409      -1.10773399       1.17031693      -0.68544859      -1.01305020      -0.00847512      -0.22089884
F        0.92942249       9.56943335       7.33583376       0.06090866      -0.57153207       0.30912524      -0.54152304      -0.08154105       0.06156514      -0.00889149      -0.28751591
F        2.25515703       9.15139378       8.98431333       0.47182185       1.45654162      -0.54956457       0.06445099      -0.40275836      -0.02204214      -0.00851287      -0.18809569
C        1.03848356      11.98788711       9.15049100      -0.38191623       0.36056469       0.41939191      -0.52490604      -0.94956076       0.87308061       0.02128431      -0.06508712
F       -0.11401170      11.96847609       8.47798376      -1.23158167       1.16356208       0.87804707      -0.13054042       0.29456872       0.40647531      -0.00896706      -0.18699621
F        1.27833293      13.25068668       9.52301340       0.83617394      -0.52069938       0.37604441      -0.33518562      -0.83182418       0.05493714      -0.01058878      -0.25233319
F        0.96113103      11.17952419      10.21098031      -0.03614282       0.74254824      -0.04673168      -0.54125720       0.92207187       0.51391667      -0.01114515      -0.17734438
H        1.08103277      12.00205436       6.74105274      -0.04219445      -0.12194733       0.00028826       0.63085049       0.13782047       0.22176574       0.02809291      -0.02376352
H        3.02221636      11.64684510       8.79081029       0.00534714       0.15271748      -0.03278278       0.54049861      -0.14157231      -0.11491372       0.01481997      -0.03278773
O        8.78971110      11.22349477       4.09066960       0.35948512       1.08927903       0.46442557       0.16813736       0.33447474       0.18792449      -0.03005499      -0.06429800
C        8.70029786      12.41051743       3.35670079       0.47526224       0.15954914      -0.52479841       0.25715527      -0.71008438      -0.26591343       0.01154543      -0.27736929
C        7.52220933      12.25461600       2.39039659      -0.16907868      -0.36189285       0.43490588       0.95636624       0.38721141       0.87251711       0.02387697      -0.11754972
F        6.45849009      12.00356570       3.10488771       0.02876927       0.11533533      -0.25202603      -0.61189657      -0.13786662       0.28468594      -0.00906405      -0.14269005
F        7.74132324      11.24235371       1.56558995       1.41975946      -0.53484613      -0.63987907       0.04471209      -0.36651045      -0.17062300      -0.01047783      -0.20981893
F        7.28696540      13.37639959       1.70180588       0.16168199      -0.01300901      -0.60138479      -0.13113727       0.56731910      -0.14476462      -0.00611352      -0.20958337
C       10.03670286      12.74216884       2.67002816      -0.03765758      -0.01876162      -0.56964090       0.46044600      -0.34952590      -0.68124855       0.02072707      -0.16750528
F       10.56957250      11.69317625       1.97297721      -0.16133115      -0.25841677      -0.05305402      -0.67406183       0.39482597       0.55337447      -0.01265424      -0.25906518
F       10.93220767      13.13460039       3.56838736       0.57129547       0.70418060      -0.85961131       0.10138666      -0.16672727       0.28932446      -0.01141952      -0.25522739
F        9.93006166      13.73242801       1.77436392      -0.55303878      -0.49989359      -1.49373613      -0.39378685       0.23756360      -0.10548551      -0.01131877      -0.25270197
H        8.74879093      10.47814253       3.48627378       0.02346111       0.04839853       0.05434038       0.06497943      -0.25594321      -0.16056089       0.02469107      -0.03524956
H        8.48509916      13.20287007       4.06278463      -0.02640506       0.24139365       0.15031408      -0.08159931       0.29614383       0.05364148       0.01485074      -0.05041330
O        6.83688779       3.72759497       8.90493754      -0.41330173      -1.17847906       0.10554153      -0.15711239       0.01031792       0.64369959      -0.02997071      -0.08434673
C        6.28768644       3.94985095      10.21110112      -0.12356178      -1.56155446      -0.98908233       0.80798769       1.28640115      -1.46188605       0.01125214      -0.25772238
C        5.81644434       5.39236549      10.19466937      -0.90910687      -0.58355243       0.73351823       0.49917117       0.78659558       1.04208755       0.02246191      -0.13163112
F        4.82247696       5.59244754       9.32937855      -0.27676234      -0.73743726       0.70888389      -0.39469847      -0.09286510       0.17877693      -0.00937736      -0.24482144
F        6.83270393       6.23532276       9.85782163      -1.13921846      -1.86791396       0.07827643      -0.88311464      -0.99834490       0.51361769      -0.01206485      -0.15377253
F        5.37943176       5.76826071      11.43232738      -1.08699245      -0.88635840       0.40532852      -0.03474284       0.03192560      -0.85717827      -0.01155533      -0.26589829
C        7.37622370       3.73618075      11.27880739      -0.20172678      -0.71719433      -0.45285273      -2.26502109      -0.52273124       0.03073820       0.02259999      -0.11310862
F        8.43878358       4.45504985      11.05883395      -0.32530674      -0.96021909       0.54412026       0.85111153       0.66438556       0.29714349      -0.00773670      -0.20101775
F        7.67344993       2.45970168      11.17835468       0.68606591      -0.35403822      -0.47652899       0.91187495      -0.68862712       0.41517448      -0.01044025      -0.19696809
F        6.91072027       3.97261867      12.55722806      -1.13136394      -1.15251808       1.01363385       0.66863096      -0.13876554      -1.02484131      -0.01282016      -0.28923947
H        7.25871276       4.54803279       8.56770208      -0.11228330       0.03769569      -0.09922603      -0.24393333      -0.57252389       0.39899245       0.02302721      -0.05655773
H        5.46298219       3.25920147      10.37396499      -0.14573812      -0.02240870       0.03640605       0.13128443       0.09270349       0.09334717       0.01165274      -0.06986264
O       10.53907935       3.22530950      10.06666087       0.16358016      -0.49273422       1.41663727      -0.95420140       0.55723619       2.35960174      -0.02948918      -0.05176575
C       11.09780673       3.16498680      11.37307787       0.38968099      -1.00700538       0.14852768       1.08547425       0.06641320      -0.99059278       0.01159520      -0.24406137
C       11.88396059       4.49199190      11.72884482       1.50141202      -0.45926727       0.85102424       0.53938884      -0.79003006      -1.19601357       0.02008596      -0.09894006
F       10.96084594       5.45862735      11.68364521       0.80119739      -0.04820026      -0.14086532       0.58719587       0.15185843       0.35757980      -0.01196760      -0.25301793
F       12.93840910       4.82573316      10.89571459       0.83538436      -0.23964960      -0.38065248      -1.65077889      -0.92229241       0.79377943      -0.01584475      -0.13566118
F       12.45348297       4.40639053      12.92042155       0.25966932      -1.27186785      -0.41341836      -0.18725730       0.11203916       0.45298940      -0.01019957      -0.22348775
C       11.96690689       1.90214340      11.34993044       1.03094570      -0.13023255      -0.13783179      -0.01750589      -0.94150883      -1.58591092       0.02156353      -0.09339614
F       12.96227878       2.00136483      10.43790275       2.37778517       0.78596904      -0.23766747      -0.23790117       0.35684991      -0.52057385      -0.01334201      -0.23912415
F       11.20122865       0.85190640      10.91433090       1.12136382      -1.60247269       0.54612460       0.80853653       1.08252561       0.55862564      -0.01452101      -0.20677502
F       12.58211569       1.56128161      12.44015563       0.75434261      -0.66941551      -0.44971700      -0.07994363      -0.25230747       1.66144717      -0.00860747      -0.22802930
H       11.24465221       2.99578901       9.49753367      -0.08894187      -0.17528194      -0.06042705       1.14527082      -0.31578082      -1.34672356       0.02097536      -0.02796210
H       10.33599803       3.03551301      12.14497941       0.10755381       0.15078911      -0.09840511      -0.12921347       0.14067794      -0.25279686       0.01229259      -0.06026200
O        6.20100400       6.74757492       7.53229477       0.33470696      -0.26289602      -0.17421337       0.45514137       0.80588585      -0.22023216      -0.02528562      -0.05405387
C        6.88396099       7.43173613       6.50244413      -0.75487135      -0.63369418      -0.10168015      -1.37636161      -0.72117758      -0.22063963       0.01446116      -0.22834629
C        6.02769019       8.57394140       5.94070211      -0.00451648       0.74423374      -0.18877491       0.08870347      -0.34803391       0.21904542       0.02200014      -0.12573288
F        5.72517723       9.54190515       6.79924616       0.21378041      -0.00854934       1.03731481       0.11111720      -0.23317455       0.77221501      -0.01145785      -0.24318171
F        4.84846433       8.04669589       5.54161542      -0.50130806       0.56838309      -0.19608393       0.26397923       0.26326141      -0.31539518      -0.01023737      -0.26561573
F        6.68815225       9.16849158       4.95962958       0.11975640      -1.14883122       0.21881865      -0.14247921      -0.07262608      -0.89806962      -0.01006764      -0.25242290
C        7.22914571       6.32436576       5.49865608       0.18038936      -0.50823223      -0.44605015      -1.11529458      -0.68438846      -1.48627472       0.02286601      -0.08539408
F        6.17078689       5.50883738       5.21286420      -2.19484597      -0.18895074       0.61117918       0.04330782       0.16642541       1.09030616      -0.00998587      -0.25089744
F        8.17118622       5.60068804       6.08783249      -1.45472632      -0.09517735      -0.00099375      -0.05669140      -0.40797275      -0.28417018      -0.00902390      -0.21478596
F        7.60506673       6.66386666       4.26144756      -0.65670135      -1.58358972       0.06707718       0.96042329       0.86747068       0.36882102      -0.01124506      -0.23583296
H        5.35086934       6.41300024       7.20806770      -0.01339060       0.04234443       0.02039306       0.22097921       0.13642593      -0.18955369       0.02711112      -0.04097706
H        7.84080877       7.79821337       6.82800934       0.08059019       0.05205837       0.04800718       0.24037053       0.36681119       0.57678050       0.01404076      -0.04998756
192
Lattice="14.05790476106759 0.0 0.0 0.0 14.05790476106759 0.0 0.0 0.0 14.05790476106759" Properties=species:S:1:pos:R:3:momenta:R:3:forces:R:3:charge:R:1:energies:R:1 Built=T with=T Packmol=T charge=0 spin=1 external_field="_JSON [0.0, 0.0, 0.0]" energy=-17.014057159423828 stress="-0.009461099281907082 -0.0009092750842683017 -0.0013277750695124269 -0.0009092750842683017 -0.008266624994575977 0.006765584461390972 -0.0013277750695124269 0.006765584461390972 -0.011142446659505367" dipole="-0.5258243083953857 -1.158125400543213 0.4804143011569977" free_energy=-17.014057159423828 pbc="T T T"
O       13.14952969       5.72852190       6.89130954       0.07586929       0.38044601      -0.42657111       0.22361818       0.30901590       0.31359717      -0.02913791      -0.12988067
C       12.35078101       4.62560995       6.65098558      -0.34898029       0.32468387      -0.37277346      -0.27630532      -0.58133173       0.13650280       0.01243550      -0.23051721
C       10.89065172       4.92435128       7.12613324      -0.45939730       0.40971177      -0.12866056       0.40429276      -0.31335971      -0.51910955       0.02167949      -0.11803669
F       10.54395263       5.99095442       6.41191665      -0.28886994      -0.67221497      -1.25305671      -0.23629139       0.42539123      -0.12494443      -0.01220358      -0.22244672
F       10.67854899       5.20967615       8.40807075      -0.55109921      -0.61018597       0.31991001       0.67881405       0.29687908       0.10455220      -0.00986219      -0.22810963
F       10.07187987       3.91113914       6.85029519       1.04726043       0.46671618      -0.83331368      -0.17050898      -0.36385727      -0.42612073      -0.00949706      -0.26331890
C       13.02623536       3.41205149       7.30914231       0.09057075      -0.25764443       0.92796476      -0.40275884       0.60872078       0.41172343       0.02446773      -0.10140149
F       13.34687485       3.82588036       8.57121977       1.15820761      -1.36980662      -1.72971182       0.13302821      -0.83776140      -0.55072212      -0.00940573      -0.22759314
F       14.13724579       3.01920423       6.68481685      -0.05751881       0.85601009      -0.36237965      -0.43260244       0.14400247       0.28484082      -0.00740684      -0.27025062
F       12.19153207       2.35564505       7.40926636       0.29852291      -0.77186474       0.05862174       0.35168317       0.06341917       0.13686056      -0.00666114      -0.28769973
H       13.29113615       5.76238877       7.85899617      -0.18252463      -0.09445629       0.02979350       0.01198379       0.20048288      -0.53615314       0.02348750      -0.03290597
H       12.25939451       4.41878003       5.56999133      -0.07850634       0.00627266       0.06990945       0.11829915       0.30361959       0.35543942       0.01348166      -0.05207776
O        1.96719915       9.05383283       2.12364136      -0.43105189      -0.10689544       0.05472077      -0.47020051      -0.93141717      -0.84195644      -0.03160649      -0.17207506
C        2.99472927       9.89510098       2.47191000      -0.15491108       0.65049801      -0.22711118      -0.00444070       1.23252654       0.16369590       0.01085731      -0.20940645
C        2.64220828      11.32388511       1.88527614       0.06046149      -0.08343658       0.46129470       1.49531662      -1.15910614      -0.28015956       0.02168108      -0.11495505
F        1.41098934      11.62549052       2.26978035       1.07764569       0.13341269       0.07635919       0.10451375       0.28019586      -0.21051787      -0.01003586      -0.26794058
F        2.73566119      11.32760929       0.54106582       0.71485898       0.12055553      -0.86397955      -0.56705290       0.33707055       0.28942555      -0.01173253      -0.19011709
F        3.48898723      12.27734352       2.26168098      -1.73225780      -0.47334054       1.02115829       0.01601682       0.25379321       0.57372820      -0.00781427      -0.23079860
C        4.36599596       9.25831258       2.12602605       0.39764644       0.47223579       0.01993605       0.10625150       0.93360925      -0.84566730       0.02194099      -0.13801944
F        4.44845718       8.72788614       0.89176278      -0.31991884       0.06321637       0.58699826      -0.76017827      -0.29845309       0.14957529      -0.01137759      -0.24739912
F        4.62033937       8.30337056       2.99497563       0.77995006      -0.02473300       0.03140577       0.09184338      -0.55106342       0.31247589      -0.00869835      -0.24575871
F        5.35991305      10.14391665       2.14497389      -0.51435875       1.66199774      -0.79212223      -0.07152206       0.17667829       0.49624571      -0.01154076      -0.22304220
H        2.03916345       8.86382336       1.16101751       0.12114432       0.17030849      -0.08152969      -0.11320986       0.09219770       0.87933946       0.02090728      -0.05017403
H        2.97443948      10.02053407       3.56336887       0.06224425       0.08568253       0.08235393       0.11802688      -0.06673622      -0.25320071       0.01133275      -0.04534137
O        7.41177187      12.46790467      13.47455055      -0.57550683       0.79383560       0.34423177       0.06011544       0.14578623      -0.15999718      -0.03082343      -0.08605761
C        7.86073534      12.59915109      12.17945371      -0.48546110       0.54171075       0.02898665       1.44585872      -0.40211695      -0.31210899       0.00887565      -0.26097888
C        9.30229776      13.14742573      12.16462577      -0.03286066       0.42155975      -0.48541925      -0.57563013      -0.39839080      -1.34516513       0.02056526      -0.12821656
F       10.06473062      12.62738755      13.09265271      -0.27831922       0.88774567       0.47457937       0.36947697      -0.56336594       0.81967247      -0.01124299      -0.25141588
F        9.27244605      14.45814432      12.36811957       0.21900698       1.23491419      -0.69351304       0.06099330       0.87167126       0.10984666      -0.01013796      -0.25007311
F        9.90221210      12.86872454      10.97412198      -0.14906271      -0.03194403      -1.06403629      -0.62447804       0.12385900       0.55771828      -0.01453386      -0.20642240
C        6.85518409      13.44379800      11.43316651      -0.84539403       0.61464583      -0.14215239      -0.41221875      -0.06639501      -1.53950989       0.02172512      -0.14416133
F        6.59721355      14.55311601      12.11151825      -0.84813941       0.45869061      -0.21690304      -0.21271279       0.21942355      -0.03841931      -0.00908436      -0.22675562
F        5.73202296      12.72193634      11.37723191      -0.52963434       0.44884039       0.02523566      -0.55205441      -0.07992896      -0.01142055      -0.01427093      -0.25887251
F        7.14481695      13.75598873      10.12460281       0.06522470       1.80310568       0.79910449       0.20726673      -0.04464363       1.79213524      -0.01346340      -0.23215334
H        7.58302064      13.29296128      13.95784441      -0.06660030       0.08070046       0.02207132      -0.20438020      -0.31373712      -0.19627285       0.02469182      -0.00447853
H        7.92281534      11.61796145      11.69909269      -0.12002341      -0.13636243      -0.02366584      -0.24687053       0.14362393       0.14806911       0.01055507      -0.04822178
O       13.15290964       8.58112184       1.69775917      -0.77867237       0.70311697      -0.44861022       0.78259200      -0.04129230      -2.09637904      -0.02985703      -0.09761000
C       12.20349478       8.83222046       2.60837031       1.09169687       0.63675614      -0.36194466      -0.09131551       1.59003651       0.50287819       0.01242150      -0.19902179
C       12.55026409      10.02016304       3.58669839       0.51158676       1.28179620      -1.09638020      -0.80664569      -0.08252750      -1.53009021       0.02069771      -0.08308098
F       13.01144254      11.08333684       2.87592726       0.97910415      -0.76109967      -2.00096328      -0.48517436      -0.83755910       0.63632280      -0.01231091      -0.24994430
F       13.42368221       9.78657944       4.55064853       1.56385234       0.25461217      -0.85220917       0.25997630      -0.13983308       0.22886351      -0.01031423      -0.27352557
F       11.35450503      10.30580260       4.11879488       1.88071120       1.22866826      -1.10129387       0.33372852       0.46755773       0.50282174      -0.01063252      -0.19628802
C       11.89026737       7.56830099       3.37985058       0.64581814      -0.15244138      -0.16740574      -1.13157213      -1.78866172      -0.13366009       0.02362416      -0.08300550
F       12.77212983       7.25918340       4.34633927      -0.69857927       1.30731507      -1.05121958      -0.48402652       0.50808090      -0.28568995      -0.01006917      -0.25764692
F       11.89684243       6.44524680       2.56102657       0.64483565       0.88753451      -2.04297379       0.14788865       1.21548605       0.32886982      -0.01194377      -0.23549418
F       10.64687320       7.62589970       3.87057355      -0.17125630       0.12910533       0.61839817       0.27686244      -0.01022471       0.48302528      -0.01155124      -0.25936297
H       13.97034995       8.33905578       2.09998763       0.25805201      -0.06549615      -0.05935856       1.32952523      -0.20969038       0.56112128       0.02249179      -0.04747067
H       11.35280448       9.26440307       2.02727095       0.06617692      -0.14182514      -0.30425638       0.14282754      -0.82419336       0.75294614       0.01296787      -0.02878692
O       10.63316554       4.64132631       0.73110721       0.58879391      -1.79850190      -0.34936519       0.69703782      -0.20446050       0.22629574      -0.02943789      -0.10747615
C       10.45372294       3.39349765       1.32852047       0.61112987       0.28202351      -0.41714062      -0.63827413       0.17940746       0.15750429       0.01264680      -0.18820386
C        9.30832731       3.62137541       2.37210436      -0.39123604      -1.13226095      -0.20142109      -0.09370565       1.58000958      -0.32113773       0.02269544      -0.12567097
F        8.25075848       4.15398409       1.71578070       1.06186260      -0.79979789      -0.61530862       0.41728705      -0.28183758      -0.02172916      -0.01153022      -0.25854659
F        9.65533311       4.56733502       3.30603308      -0.00805117      -1.14149231       0.74363375       0.22405562      -0.87908071      -0.55484533      -0.01366404      -0.27991432
F        8.86975264       2.56576397       3.00144904       0.00475048      -2.38338915      -0.04855675       0.05137980      -1.01108074       0.48702726      -0.00605122      -0.25489393
C       11.79124483       2.75863039       1.89006872      -0.51588987      -0.06847543       0.00369726      -1.28707516       0.67351431      -0.79842246       0.02396093      -0.07932712
F       12.56007912       3.68289392       2.53274775       0.00791189      -0.97862942       0.84890391      -0.78797299      -0.85832906       0.06232462      -0.00855551      -0.27267975
F       12.51199581       2.34517448       0.84701890       0.22368094      -0.74997718       1.29015368       0.08723064      -0.29882342       0.35288203      -0.00947376      -0.24455127
F       11.47866880       1.71442897       2.67578322       0.16017249       0.17711394       0.07904896       0.78657430       0.77057987      -0.08293316      -0.00771985      -0.24979939
H       11.32343809       5.06528284       1.24854698      -0.08447784      -0.06154273       0.20647579       0.05975155       0.70766717      -0.05484374       0.02138641      -0.05028658
H       10.05403837       2.78058503       0.49583768       0.09139104      -0.30982616       0.10017353       0.20782970      -0.39880309       0.88612270       0.01355491      -0.03176849
O        8.63677965       7.02099916      11.65856289       1.44116978      -0.25491643       0.45366921       0.48419648       1.21398914      -1.06446707      -0.02823319      -0.05391870
C        8.44575401       8.33444874      12.04804457       0.46858861      -0.64284886       0.65705854      -0.09960473       0.65816766       1.02168941       0.01007164      -0.25354090
C        9.17403224       8.62507352      13.41881589      -0.33475150      -0.17998382       0.28808602      -1.62524307       1.10484493      -0.59230202       0.02115783      -0.10902397
F       10.42052093       8.25168718      13.29027006       0.60523722      -1.51578486       0.55928095       0.90763015      -0.92398757       0.46048680      -0.01005177      -0.22768249
F        8.56997866       7.96726815      14.41723451      -0.65541376      -0.03444414       0.96960656       0.41917700      -0.32170987       0.04934293      -0.00998661      -0.29331335
F        9.18801702       9.93694728      13.79378389       1.60896834      -1.02097259       0.11490924      -0.14800699      -0.78127223      -0.61279333      -0.01412612      -0.24739349
C        6.94427879       8.68513906      12.08823168       0.25703360       0.45062864       0.29200439       0.68201202       0.82336903       0.42706576       0.02134121      -0.14553168
F        6.31299910       7.90117339      12.94647271       0.47883071      -0.75853345      -0.26656697      -0.25609037      -0.81141347      -0.20226173      -0.01005050      -0.22886413
F        6.43429720       8.62573979      10.86128974       0.28879940      -0.71615048       0.41869197      -0.31935963      -0.56248754      -0.16270481      -0.01256262      -0.26542869
F        6.70577705       9.94012180      12.50575784      -0.38248013       0.45989816       0.81977853       0.33203277       0.23631550       0.16015765      -0.01184311      -0.23276737
H        8.43614847       6.42746706      12.35401393      -0.22142694       0.08337795       0.01061898      -0.43298712      -1.08647954       1.28563917       0.02518035      -0.03889108
H        8.90995955       8.97887136      11.30996217       0.14702882      -0.05548270       0.06668091       0.04441085       0.11573490      -0.12924094       0.01138435      -0.05105190
O        3.73842967       1.26845602      11.93869300       0.20547835      -0.17805764      -0.64436003      -0.45843619      -1.11903846       1.34692168      -0.02102568      -0.01233563
C        2.58472934       1.71707830      11.29085229      -0.31995128      -0.47920401      -0.37973015       0.77381855      -0.20443027       0.23027021       0.01179421      -0.21332172
C        2.83717137       1.61330486       9.81232886      -0.63439780      -0.55946747      -0.19155756      -0.03021008      -0.72515321       0.69870198       0.02262807      -0.13823217
F        3.36525328       0.42084780       9.54497128      -0.00098087      -1.61297276      -0.70722097       0.54807013      -0.20736015      -0.17595911      -0.01047998      -0.21210276
F        3.64266946       2.53143398       9.34455213       0.04017471       0.53110141      -0.19777264       0.71571028       0.61441153      -0.86317480      -0.00657492      -0.22620049
F        1.67083160       1.68059328       9.20215193       0.35786463       0.75291086      -1.07674736      -0.95592558       0.55164516      -1.07523096      -0.01251049      -0.23379955
C        2.26328545       3.12039849      11.77053605      -0.91567867      -0.10628912       0.31088487      -1.45035887      -0.24937384      -0.36509910       0.02173564      -0.13358565
F        2.87955879       4.07477014      11.06909664      -0.86015804      -0.55736212       0.66347725       0.06152529       0.23199259       0.50630546      -0.00838916      -0.24827138
F        2.56727229       3.18573754      13.04816664       0.68376559       0.29203711      -0.01834176       0.37846199       0.46289906       0.62148672      -0.00736160      -0.22790237
F        0.92378927       3.34091348      11.67310225      -0.93927475       0.61011079       0.23414513       0.62763703      -0.00277716      -0.20482452      -0.01439533      -0.22352847
H        3.46262303       0.72610638      12.73105144      -0.12995781      -0.28727953      -0.27477472       0.64648449       0.92039943      -1.23376954       0.02755034      -0.01946758
H        1.71006896       1.10721208      11.43835521      -0.16931365       0.04191237       0.12461577      -0.39077818      -0.35237253       0.44589967       0.01270874      -0.03477526
O        2.32171457       6.97370207      10.85060495      -0.07470020       0.69932428       0.17658626       0.87585312      -0.52377331      -0.19786546      -0.02884184      -0.13491057
C        1.96278711       7.45264562      12.08126948      -0.40205253       0.29140873      -0.34824096       0.91055721       0.52386814       1.41256261       0.00826121      -0.26545268
C        2.71553986       8.77195607      12.38194434      -0.29871666      -0.43420990       0.42698962      -1.25329912      -0.07863119      -1.05655575       0.02136645      -0.12634353
F        2.50283865       9.61156460      11.36342764       0.26696090      -1.56371084       1.93474858       0.09918888       0.21337953       0.39068240      -0.01377088      -0.19818826
F        4.00288291       8.56049097      12.43821334      -0.45449719       0.18383274       0.35789807       1.05665541      -0.13229407       0.28542247      -0.00760149      -0.22412822
F        2.29831662       9.40043667      13.49567147      -0.81311072       0.03977908      -0.27791019      -0.10872810      -0.56898099      -0.62573105      -0.00479270      -0.16430433
C        2.17872566       6.44878065      13.22844345      -0.87024277      -0.82529294       0.65993587      -0.82658929      -0.04266852       0.45018402       0.02259856      -0.13584992
F        3.34325935       5.84780496      13.20892089       0.00896214       0.17249647       1.23506454       1.11464071       0.19713262      -0.02364819      -0.00650187      -0.24091923
F        1.27306079       5.47497917      13.19614426      -0.93058978       0.70995934       1.34449176      -0.72708952       0.07088564      -0.21262226      -0.01160596      -0.22128627
F        2.02363130       7.04908150      14.44618591      -0.10551466       0.19265511       0.60702544       0.13763611      -0.23681241      -0.47226256      -0.00766751      -0.25053656
H        3.27435800       6.76183238      10.89821317       0.02041845       0.14155445       0.15779690      -0.38700816      -0.09206641      -0.32497963       0.02254933      -0.04716057
H        0.93512140       7.69641941      12.06801245       0.31451635       0.03016349      -0.05264347      -1.09461081       0.13618141       0.00323173       0.00959154      -0.03048299
O        4.13719054      14.23176660       6.84916463      -0.20098966       1.72501252       0.46793534      -0.53933060       0.16394429       0.10741696      -0.02555110      -0.13841292
C        4.54346162      12.96937612       6.44284673       0.28547547       1.21873554       0.81156645       0.40522772      -0.40716037      -0.04492870       0.00744023      -0.26514778
C        6.04977557      12.94774669       6.69404259       0.10018698       0.53993905       0.93253204       0.28137794      -0.73053551      -0.97090942       0.02134866      -0.15168473
F        6.28376046      12.77937225       7.97483348      -0.52275890       1.01181395       0.76833678      -0.16735201      -0.09054482       0.90415925      -0.01129800      -0.22392708
F        6.56839499      14.09380606       6.31654215       0.56639556       1.88195557       1.07658936       0.65334713       1.03667915      -0.25535458      -0.00919876      -0.25061423
F        6.75725776      11.98487085       6.03080920      -0.40509479       1.39168519       0.73669661      -0.91195261       0.33923623       0.16424373      -0.01405406      -0.24908558
C        4.18304673      12.70971047       4.98524748       0.44201042       1.07533195       0.23322400       0.45554337       0.34104705       1.20359886       0.02155848      -0.15069914
F        4.83406068      13.52281195       4.17162876       0.15465214       2.42224971       0.04016397       0.27576074       0.08125139      -0.37383804      -0.00758780      -0.22822815
F        2.88647837      12.96135158       4.81256789      -1.03608788       2.49733347      -0.51342340      -0.39840302      -0.52963054      -0.43041682      -0.01031842      -0.23957014
F        4.48696268      11.41730313       4.72529156      -1.53253830       1.17354355      -0.74736330      -0.57914597       0.29629135      -0.49386874      -0.01164206      -0.24524452
H        3.20132153      14.17613441       7.09178049      -0.22043829       0.26943485      -0.52039624       0.13797534      -0.00001941      -0.06603479       0.02178725      -0.04571500
H        4.09560752      12.16172520       7.01817265       0.34197547       0.35381308       0.09403796       0.22902590       0.00112857      -0.08647951       0.00791582      -0.02430335
O       11.61318194      12.86618314       8.84526359       0.52428327      -0.45599050      -0.96321877      -0.76924163      -0.98111570       0.33602604      -0.02793819       0.00407200
C       10.75859468      11.88091934       8.34249418       0.53620574      -0.03115066       0.17510425       2.10087371      -1.19239056      -0.07064639       0.01034903      -0.23455833
C       11.41992094      11.05883460       7.18458747      -0.08209147       0.50199755      -0.63318810      -0.47557530       0.77368397      -1.22554231       0.01896788      -0.11835840
F       12.46128826      10.33698355       7.49363457      -0.13168554       0.35283228      -0.77493036       0.71771491      -0.37977454       0.88301378      -0.01227500      -0.07895394
F       11.89174003      11.82627756       6.18210256       0.34416227       1.62156680       0.65070268      -0.29991052       0.99232382       0.01833187      -0.01385285      -0.24612033
F       10.51257049      10.23361315       6.65716370      -0.57633018       1.75762410      -1.37614788      -0.42950821      -0.36140892       0.15441677      -0.01357337      -0.24643993
C        9.42230919      12.38460245       7.87043888       0.50358448      -0.80893493       0.10473087      -1.03122616      -0.72429365      -0.56701392       0.02338547      -0.12612130
F        9.44827301      12.60227052       6.53712925      -0.71307239       0.21369073      -0.44452476      -0.18748921       0.51782417       0.41401488      -0.00965941      -0.21474123
F        9.12417936      13.51757523       8.48367219      -0.39582134      -0.18150950       0.31555015      -0.39929053      -0.07837138      -0.25391033      -0.00791428      -0.22781321
F        8.44525452      11.43975561       8.06862303      -0.68685663       1.30319717       1.20508530       0.99166155       0.87505049       0.32583493      -0.01431169      -0.23833089
H       11.67291287      13.56801358       8.22294212       0.07823587       0.08056605       0.02451692       0.16972157       1.15757990      -0.91035724       0.02463229      -0.03483654
H       10.68262797      11.13123446       9.13085783      -0.06169810      -0.12163932       0.09178519      -0.56507760       0.21619450       0.11650620       0.01043284      -0.04229775
O       14.09667321       8.71742008      10.37752724      -0.32310694      -0.35544312       0.31728995      -0.12478738      -0.34326389       2.59420800      -0.02712374       0.03361394
C       12.80786109       8.75114213      10.92463232      -0.37081407      -0.43953253       0.17267674       0.67706370       0.23776796       0.73356205       0.01090472      -0.12128612
C       11.90534089       8.05065317       9.94692195       0.53348363      -0.57626703       0.18437133       0.21615881      -0.24435782      -1.11899829       0.02197492      -0.10139844
F       12.27114227       6.77029661       9.89487516      -0.47689449      -0.06207133       0.01629050       0.13623071       0.01312115       0.15598510      -0.01098541      -0.18072028
F       12.14007484       8.50281524       8.71282989       0.40390093       0.69540298       0.98561453      -0.30191493       0.13255252      -0.27593252      -0.01088235      -0.18731973
F       10.61261393       8.08803618      10.15657967      -0.68116359       0.53980465      -1.40468980      -0.74098009       0.45753664       0.44047970      -0.00868158      -0.24536847
C       12.56991267      10.14552594      11.57377074       0.19488763      -0.66929525       0.17160506       0.21735373      -0.00348739      -0.45171764       0.02157016      -0.14189258
F       12.40489019      11.11538385      10.69109323       0.68294308      -0.47370020       0.15148129       0.06708790       0.40612769      -0.78442103      -0.01032745      -0.23509327
F       13.64099065      10.43758218      12.31552346       0.03594866      -0.80066236       0.28617789       0.31153595      -0.23029622       0.03676928      -0.01244437      -0.25076273
F       11.53570966      10.21341907      12.38633388      -0.83462222      -0.89714434       1.13570539      -0.78517950      -0.39755633       0.24974139      -0.00973961      -0.21787949
H       14.14297829       8.79069753       9.45149495      -0.06952786      -0.04109912      -0.06201095      -0.41442323       0.21630463      -1.87104082       0.02304322      -0.04511002
H       12.76954019       8.10630539      11.79416627       0.06420383      -0.08151635       0.04154944       0.27634206      -0.39446023       0.40221444       0.01337607      -0.01061783
O        1.97406949      12.12842322       7.10831095      -0.07899520       0.15694291      -0.64473761       0.66281307       0.80409104      -1.30389857      -0.02041991      -0.07915352
C        2.08177070      11.41585740       8.26735981      -0.14163002       0.43587863      -0.34450656       0.23322412       1.56521010       0.83874172       0.01282608      -0.15429014
C        2.03800749       9.95410970       7.93615468      -0.22010125       0.27020060      -0.36169821       1.48866844       0.04469640      -0.36948967       0.02271002      -0.11484253
F        3.04667204       9.77706732       7.05834163       0.66525540      -0.42270491      -1.38802836      -0.06108800      -0.35529420      -0.16151686      -0.01146570      -0.25055319
F        0.92652889       9.55404799       7.34342210      -0.30833645      -0.61809200       0.25480886      -0.82899302      -0.08330648      -0.21373798      -0.00751581      -0.28290081
F        2.26764735       9.18563706       8.97115091       0.49311582       1.16884517      -0.42880731       0.05633985      -0.67816961       0.44869366      -0.00836018      -0.19310579
C        1.02032228      11.99136344       9.17100101      -0.44100922      -0.19724424       0.45142419       0.24203180      -1.03476739      -0.68972206       0.02114793      -0.07579755
F       -0.14572061      12.00019410       8.50339456      -1.18590212       1.27790529       1.09302701       0.28862527       0.16104229       0.48352504      -0.00974872      -0.19896950
F        1.29762745      13.23363899       9.53341299       0.65094016      -0.73502125       0.44269307      -0.39481151      -0.08859244       0.22539882      -0.01021818      -0.24257982
F        0.95652377      11.20312096      10.21454276      -0.32883558       1.01635620       0.38592288      -0.64700580       0.14052820       1.27478349      -0.00990647      -0.18506534
H        1.10840557      11.96367036       6.74630181       0.01714051      -0.04365608      -0.05543003      -0.67471373       0.08830667      -0.54379439       0.02687531      -0.01933051
H        3.04433603      11.67766555       8.74646614       0.01424774      -0.05876832      -0.15930698      -0.22252876      -0.50426996      -0.19843596       0.01443105      -0.02974048
O        8.80217334      11.25765124       4.10529509       0.45656479       1.06641334       0.45535236       0.23009424      -0.36012152      -0.10310011      -0.02952038      -0.06887889
C        8.71816106      12.41851351       3.34163078       0.34615848       0.32030538      -0.12111961      -0.35735160       0.33783635       0.81142265       0.01165898      -0.26549986
C        7.52665204      12.24514624       2.41058780       0.39804226      -0.08359103       0.40276735       1.10040164       0.60109699      -0.90568078       0.02448755      -0.11186208
F        6.45517317      12.00525248       3.10051330      -0.27154907       0.00611519      -0.08337711      -0.44334731      -0.24682900       0.31485438      -0.00756651      -0.14340629
F        7.77731401      11.22770816       1.55000189       1.33160340      -0.53805930      -0.48791038      -0.33623156       0.34593219       0.75952142      -0.01214070      -0.21656632
F        7.29047441      13.37812112       1.68681501       0.11851513       0.08927007      -0.50070078      -0.02542593      -0.11331887       0.53629404      -0.00746157      -0.19003509
C       10.04079114      12.73947725       2.64124589       0.24430141      -0.07252895      -0.79615039       0.53948486       0.12592201      -0.19134161       0.02088509      -0.18112899
F       10.56161023      11.68866764       1.97466093      -0.42969523      -0.11072833       0.15897331      -0.38133311       0.14995140       0.26485533      -0.01095220      -0.25624484
F       10.94665971      13.15140413       3.54698079       0.51450121       0.58550676      -0.83670411      -0.27735269      -0.28112182      -0.20251593      -0.01249690      -0.26126522
F        9.91365386      13.72082906       1.73551645      -0.69952265      -0.40466697      -1.49877524      -0.20034198       0.14773957       0.03044074      -0.01110006      -0.25524324
H        8.76986784      10.48860847       3.51034598       0.06708206       0.04244070       0.08447426       0.10845745       0.19102733       0.22050016       0.02516491      -0.03431474
H        8.49236206      13.25603938       4.05156287       0.08104997      -0.09696998      -0.25728988       0.20986174      -0.56614739      -0.66788465       0.01485580      -0.04724476
O        6.82348406       3.69095073       8.91077167      -0.49304085      -1.33501782       0.24246054      -0.41400015      -1.24076903       0.13988134      -0.02722055      -0.13123810
C        6.28567106       3.90275261      10.16376465      -0.08074247      -0.67334948      -1.11742754      -0.43566531       2.11410451       1.01146328       0.01103961      -0.24800681
C        5.78699033       5.37201739      10.23111544      -0.49297205      -0.51385070       0.93010417       0.94848633      -0.43959391      -0.35770157       0.02191737      -0.12425665
F        4.81162088       5.57303640       9.34826592      -0.59985576      -0.75800952       0.73808629      -0.84700632      -0.03009029       0.01456039      -0.01033896      -0.25016952
F        6.79879235       6.18219339       9.86348123      -1.42909519      -2.17607175       0.36930983      -0.23628698      -0.23096114       0.63686246      -0.01137117      -0.16744980
F        5.35105130       5.74561779      11.43849665      -1.11383283      -0.86227524       0.12947922      -0.10672245       0.05320085      -0.17488006      -0.00946827      -0.27503538
C        7.34728876       3.70283049      11.26315932      -1.09928526      -0.87324885      -0.26227052      -0.94703215      -0.06380695       0.64070499       0.02264351      -0.09758395
F        8.43461519       4.43450214      11.07474082      -0.07177195      -0.64635293       0.68801093      -0.02147915       0.46930891       0.32020578      -0.00974240      -0.21011750
F        7.69668319       2.44536071      11.16888380       1.08783823      -0.77059417      -0.25224802       0.64487714      -0.87952769       0.46110713      -0.00986732      -0.18892738
F        6.88605745       3.94163563      12.57454979      -0.77773525      -1.25784624       0.25109201       0.65517724      -0.31732303      -1.93722522      -0.01489426      -0.27454141
H        7.17863695       4.50295051       8.56425479      -0.14851731      -0.09436280       0.01831470       0.41926596       0.68436474      -0.27857760       0.02340228      -0.04687559
H        5.43361048       3.25848930      10.38939523       0.04061502      -0.00076666       0.00284598       0.30191493      -0.15391307      -0.18238094       0.01111109      -0.06375907
O       10.54415842       3.21156246      10.11742806       0.34608579      -0.48465882       1.55795854       0.76260561      -0.23419775      -1.14406157      -0.02898446      -0.05057789
C       11.12966941       3.12939256      11.36744554       1.18418896      -0.64961164      -0.36553094       1.28677332       1.08936393      -0.29888478       0.00966362      -0.25553399
C       11.94291352       4.46618873      11.74422874       1.20574774      -0.77445968      -0.22257722      -1.53839946      -0.46088955      -2.63701916       0.01908403      -0.07282588
F       10.98669427       5.45658634      11.68277585       1.24549694      -0.17411815       0.08609532       1.16815853      -0.62870347       0.50778329      -0.01576553      -0.25565434
F       12.95053702       4.81394080      10.89121029       0.15930215      -0.65772334       0.02483531      -0.97857040      -0.75691974       0.70809644      -0.01453307      -0.16111159
F       12.46117632       4.37457709      12.91599289       0.40778319      -1.18223698       0.17383467       0.66296726       0.18385965       1.64091313      -0.00748819      -0.20696630
C       12.00737401       1.88557053      11.32966820       0.92936801      -0.70142305      -0.77631927      -0.22372539      -1.20263064      -0.70011997       0.02149903      -0.10258320
F       13.02054819       2.02314450      10.42932848       2.08112442       0.86367668      -0.39859552      -0.81265283      -0.05934775      -0.19564763      -0.01271334      -0.24880619
F       11.23651180       0.81841174      10.93109788       1.64157701      -0.96981279       0.70879349       1.23530102       1.30839038       0.06079607      -0.01413606      -0.20885864
F       12.60176638       1.54257850      12.43907094       0.78154616      -0.76473744       0.33406123       0.12222627      -0.11079228       1.30002785      -0.00922330      -0.23950368
H       11.20720666       2.91857082       9.43314713      -0.27957885      -0.05625747       0.02578881      -0.99460059       0.51101261       0.94371557       0.02233266      -0.03880530
H       10.33755303       3.09804952      12.11934331      -0.07598170       0.06482252       0.01653805       0.16659808      -0.36627927       0.03121577       0.01184650      -0.05416688
O        6.21344487       6.74476875       7.52606283       0.42317849       0.04569803      -0.20290620      -0.22738439       0.37286788       0.11081368      -0.02531159      -0.10936496
C        6.85045122       7.40581190       6.49724373      -0.69133036      -0.49028237      -0.15156416       0.82470012       0.94688314      -0.24705864       0.01240340      -0.19727892
C        6.02663540       8.59463400       5.93868568      -0.08892705       0.14572853       0.15400414      -0.40431285      -1.79971266       0.96673024       0.02169924      -0.10427514
F        5.73164470       9.54042541       6.82980287       0.29831419      -0.10312534       1.28009205       0.25644454      -0.20569326       0.22846073      -0.01123299      -0.26106033
F        4.83729840       8.06376918       5.53469881      -0.36153259       0.77673677      -0.33136599       0.27376944       0.56470859      -0.22512317      -0.01144131      -0.26554632
F        6.69105523       9.14020631       4.95847365       0.12519761      -0.98041388      -0.33202968       0.09234193       0.61727792      -1.17428553      -0.00845786      -0.25509953
C        7.21960136       6.29946010       5.47015450      -0.74268984      -0.64146438      -0.81015945      -2.27303243       0.11133330       0.13233949       0.02282726      -0.06456542
F        6.11571782       5.50514383       5.23488652      -2.02670368      -0.09829645       1.05698621       0.49286872       0.15577796       0.68276596      -0.01094280      -0.26673642
F        8.13507142       5.59390997       6.08651080      -1.28816141      -0.48375111      -0.08931337       0.53154659      -1.06346977      -0.14510413      -0.00805551      -0.20605870
F        7.59460482       6.62859449       4.26351820      -0.14598277      -1.14591410       0.01137863       1.03677428       0.84488672      -0.59852666      -0.00872143      -0.24246602
H        5.35737693       6.44119508       7.19990267       0.00772481       0.05182611      -0.03879236      -0.10138581      -0.09588004       0.00762902       0.02696082      -0.03029542
H        7.81809744       7.82273541       6.87576543      -0.26340600      -0.01226441       0.07671114      -0.74337447      -0.31363636      -0.23033339       0.01295445      -0.04631682
192
Lattice="14.05790476106759 0.0 0.0 0.0 14.05790476106759 0.0 0.0 0.0 14.05790476106759" Properties=species:S:1:pos:R:3:momenta:R:3:forces:R:3:charge:R:1:energies:R:1 Built=T with=T Packmol=T charge=0 spin=1 external_field="_JSON [0.0, 0.0, 0.0]" energy=-17.523069381713867 stress="-0.006503359880298376 -0.0024741359520703554 -0.0019018418388441205 -0.0024741359520703554 -0.006887365132570267 0.00357988104224205 -0.0019018418388441205 0.00357988104224205 -0.010692854411900043" dipole="-0.7833061814308167 -1.199944019317627 -0.028001904487609863" free_energy=-17.523069381713867 pbc="T T T"
O       13.15223072       5.74095317       6.87987635       0.05412790       0.38044318      -0.39790373      -0.29121476      -0.25976458      -0.39430153      -0.02925253      -0.13936414
C       12.33510294       4.63257084       6.64357076      -0.38059904       0.02615258       0.11511904       0.15035020      -0.49903411       1.24591684       0.01194590      -0.20371503
C       10.87937827       4.93700950       7.11601938      -0.03654837       0.19774730      -0.34918216       1.06975842      -0.45696956      -0.33596742       0.02137831      -0.10004915
F       10.53439508       5.97767016       6.37934648      -0.46702119      -0.31742126      -1.24643613      -0.44453511       0.88056117       0.10011283      -0.01147886      -0.22002476
F       10.66843422       5.19636667       8.41615501      -0.23895152      -0.40530032       0.26485581       0.59030503       0.46664014      -0.38216448      -0.01001097      -0.24622966
F       10.09624161       3.91947786       6.82620944       0.78965992       0.13415763      -1.02560961      -0.73280895      -0.89736497      -0.39521310      -0.00883631      -0.25357831
C       13.02416601       3.40858468       7.34098142      -0.22180707       0.08081758       0.38889830      -0.76157451       0.54799622      -2.43354940       0.02332764      -0.08889327
F       13.37806270       3.78695866       8.52825164       1.27838390      -1.56963072      -1.39020019       0.43605649      -0.02247573       1.84979594      -0.00566058      -0.20620267
F       14.13320830       3.04151167       6.67702137      -0.25090787       0.84978660      -0.25722069      -0.39403120      -0.08213048       0.07636695      -0.00959355      -0.27489662
F       12.20126751       2.33612462       7.41201603       0.44482431      -0.73851759       0.16506480       0.24475153       0.04871978       0.27082309      -0.00752236      -0.30639228
H       13.22089536       5.75862619       7.83565340      -0.07331428       0.10768245      -0.01931173       0.36643204       0.53774965       0.47325996       0.02279530      -0.02317522
H       12.23587431       4.44255742       5.58770605      -0.01767681       0.06072456      -0.07688913       0.13870618      -0.02625375      -0.43618491       0.01350325      -0.05202681
O        1.95326148       9.04650986       2.12114469      -0.40012961      -0.25520616      -0.03439281       0.47071356       0.35187346       0.90665030      -0.02987877      -0.17572096
C        2.98959385       9.92879818       2.46823708      -0.06543571       0.83907131       0.05029858       0.35228705      -0.63904119       0.22465549       0.01190410      -0.21843971
C        2.65777674      11.30982157       1.89646351       0.62228844      -0.54486054      -0.00927737       0.58978897      -0.46902305      -1.42117012       0.02159956      -0.13092536
F        1.43709815      11.63045880       2.27057582       0.87260058       0.23243159      -0.01379871      -0.72320056       0.06553559      -0.20460762      -0.00985014      -0.24755062
F        2.75061232      11.33268905       0.52274933       0.45433350       0.26195300      -0.48577354      -0.41485155       0.22310346       1.09592390      -0.01367529      -0.19894660
F        3.44705421      12.26820434       2.29173328      -1.41489336      -0.18705822       1.30409163       1.15525341       0.81615162       0.60277843      -0.00642709      -0.20426302
C        4.38044322       9.28476943       2.11988774       0.24663830       0.75428124      -0.27109949      -0.64033210       0.15792106      -0.26855776       0.02212475      -0.13397911
F        4.43587607       8.72774700       0.90713562      -0.63406745      -0.06455174       0.57680148      -0.54632908      -0.19054165      -0.15018086      -0.01066540      -0.24483581
F        4.64079172       8.30124478       2.99687295       0.79136468      -0.05463170       0.07498090      -0.01876408       0.46141136      -0.16296910      -0.01056306      -0.25348535
F        5.34666281      10.18729118       2.12783147      -0.49348464       1.67579114      -0.53575931       0.12417609      -0.00928261       0.47033134      -0.01025009      -0.22055551
H        2.06994444       8.93475084       1.18545623      -0.00544979       0.06530190      -0.00825898      -0.27665263      -0.48780504      -0.93079817       0.02063506      -0.03772705
H        3.00890818      10.04977258       3.54849272       0.05766502       0.03763197      -0.10897332      -0.13104735      -0.03377611       0.11667096       0.01157095      -0.04821465
O        7.39506282      12.49233894      13.48198691      -0.50328964       0.73289931       0.06227931       0.20315951      -0.43332154      -0.98074824      -0.03174924      -0.09181372
C        7.85332074      12.61401850      12.17610269       0.03312023       0.22512780      -0.17709638       0.42298841       0.05433708      -0.13873370       0.00882448      -0.26728398
C        9.29609761      13.16084740      12.13465577      -0.23112207       0.25432458      -0.87277346      -0.13432691      -0.16669007      -0.09705827       0.02105749      -0.14051884
F       10.05887811      12.64742437      13.10789209      -0.22114300       0.69629756       0.61132874      -0.18461004      -0.15253630      -0.27296361      -0.01258849      -0.25971437
F        9.27841258      14.49342240      12.35035741       0.23823678       1.40521597      -0.70749537       0.01508104      -0.15966278      -0.22567600      -0.01120404      -0.25039488
F        9.89432770      12.86897598      10.95135959      -0.45804307       0.06019304      -0.67056050      -0.60550082       0.23245089       0.87408161      -0.01313267      -0.20644124
C        6.82095364      13.46660583      11.41529143      -0.72672860       0.47083362      -0.61477362       0.77988857      -0.41591012      -0.16081163       0.02130270      -0.15511654
F        6.57349761      14.56701522      12.10636412      -1.00485231       0.63060376      -0.16203800      -0.45445198       0.40269506       0.19966331      -0.00927831      -0.22592363
F        5.71420094      12.73284275      11.37722936      -0.86929800       0.39056368      -0.04914229      -0.81066030      -0.12133830      -0.29870218      -0.01348653      -0.27025422
F        7.14734298      13.80183596      10.15478734       0.11532042       1.73876057       1.44467665       0.03441321      -0.07258364       0.73372269      -0.01172194      -0.24581201
H        7.53183793      13.31245176      13.95319553      -0.12555232       0.07239915      -0.00587098      -0.03016495       0.37315482       0.11271586       0.02413948      -0.00742693
H        7.84674059      11.62331335      11.72459280      -0.15934946       0.15091049       0.11363534       0.12536074       0.07810285      -0.01171536       0.01025592      -0.04786910
O       13.15267941       8.59742011       1.67194596       0.99408175       0.30392237      -1.19025784       3.41033912      -0.65115494      -1.60971260      -0.03106984      -0.07687802
C       12.24101856       8.86845015       2.60026544       0.69322148       0.92814377       0.00530607      -0.77306724      -0.78112060       0.88162082       0.01037748      -0.18561774
C       12.56563856      10.06426706       3.53104701       0.31089187       0.71627839      -1.49046367       0.02957792      -1.96659923       0.04003099       0.02066180      -0.09692299
F       13.03462720      11.06168259       2.82736824       0.85957872      -0.78378044      -1.81100453       0.06617738       0.69587469      -0.05091351      -0.00848403      -0.24172628
F       13.46406737       9.79313845       4.52833717       1.50083625       0.28326505      -0.94957885      -0.42010719       0.23049845      -0.69188708      -0.01443600      -0.28645077
F       11.40340602      10.34114876       4.09426256       1.84320869       1.53023660      -0.77858032      -0.33310220       0.79296237       0.70767432      -0.00966495      -0.19859523
C       11.90183253       7.55169220       3.36897784      -0.11701948      -0.45512851      -0.42164919      -1.58924496       0.60631913      -0.79950845       0.02312505      -0.10045410
F       12.75346241       7.29396563       4.31985566      -0.65666925       1.30033696      -0.90527648       0.55705446      -0.45610344       0.78773838      -0.00781770      -0.24871674
F       11.91410644       6.47529110       2.51136124       0.67639292       1.40500513      -1.77842222      -0.01311379       0.88138455       0.55367124      -0.00934595      -0.25531572
F       10.64570578       7.62868037       3.88806003       0.11528402       0.06619022       0.68211135       0.71226513      -0.24251242      -0.14161433      -0.01381754      -0.27626228
H       14.03185046       8.34996626       2.04393478      -0.18475620       0.16503341      -0.23366097      -0.67057347       0.40908653      -0.18692128       0.02272851      -0.05724634
H       11.38671668       9.13087495       1.98987737      -0.01110421      -0.30230525       0.12111091      -0.75354689       0.34134141       0.47681937       0.01236250      -0.00785076
O       10.65859917       4.58955894       0.72225462       1.07658374      -1.45126778      -0.27393490       0.77389336       1.15031815      -0.38379011      -0.02685745      -0.11118984
C       10.46941956       3.39788535       1.31740654       0.13296942      -0.22774580       0.02155277      -0.96317935      -1.74073613       1.84951317       0.01270044      -0.20117576
C        9.29524196       3.59064902       2.36301598      -0.16501729      -0.42152764      -0.17600951       0.90904403       0.99483329       0.46937031       0.02293707      -0.10391197
F        8.27928268       4.13159738       1.69993363       1.08361854      -0.92568360      -0.61047520      -0.28938314      -0.23101871      -0.02675122      -0.00865151      -0.25428444
F        9.65583828       4.53164234       3.32096361       0.02239340      -1.63447552       0.39504844      -0.07211639      -1.10492516      -0.75468707      -0.01474380      -0.27636909
F        8.87045148       2.50027436       3.00190575       0.06393699      -2.58210796       0.02276478       0.22576952       0.13671747      -0.23805547      -0.00744089      -0.26900005
C       11.76211440       2.76234470       1.88495839      -0.77432967       0.23301403      -0.17163423       0.30627123       0.46924320       0.17554870       0.02239045      -0.13780484
F       12.55513028       3.65318485       2.55479310      -0.39533644      -1.27809466       0.84923865      -0.85486972      -0.38449448      -0.00671073      -0.01048821      -0.28304997
F       12.51825905       2.32414453       0.88122584       0.25188044      -0.86589715       1.30923947      -0.01274677      -0.18403424      -0.18664859      -0.01032448      -0.24228896
F       11.48649839       1.72313787       2.67768028       0.39124679       0.46480376       0.08317754       0.14700872       0.39820263       0.10998130      -0.00880488      -0.25675473
H       11.25176449       5.09563063       1.30593328      -0.24319332       0.14065075      -0.00577986      -0.28984329       0.24275182      -0.40393236       0.02270015      -0.05104670
H       10.11890095       2.62242056       0.62784759       0.14068607      -0.28669170       0.34104281      -0.17210717       0.24190515      -0.23974569       0.01352969      -0.03723887
O        8.68086710       7.01610481      11.67269202       1.28448154      -0.27049535       0.75257962      -0.99447292      -0.76086187       1.79834342      -0.02847554      -0.07091708
C        8.46434398       8.31923654      12.08066714       0.44624574      -0.03154247       0.83481024      -0.05032210       1.46795809      -0.16503432       0.00963100      -0.26314804
C        9.15151099       8.62455640      13.42678236      -0.57396695       0.03601157       0.16726177       0.63767904      -0.30497330       0.19559665       0.02123913      -0.14003652
F       10.43849088       8.20766290      13.30778412       0.65229942      -1.85382582       0.79996408      -0.64670426      -0.54070377       0.53322440      -0.01390252      -0.23064119
F        8.55592280       7.96484962      14.44186195      -0.42998316      -0.13033968       0.90932826       0.44374523      -0.05876676      -0.24962549      -0.01034752      -0.29191259
F        9.22770112       9.90701271      13.79311365       1.43230611      -1.23401395      -0.15279853      -0.46576676      -0.07934159      -0.45258811      -0.01186604      -0.23577917
C        6.96062939       8.70809484      12.10350905       0.49943067       0.57292459       0.42883220       0.18383954      -0.34452125       0.12574862       0.02194864      -0.14341089
F        6.32397910       7.87760230      12.93834957       0.38948772      -1.01565473      -0.36382073      -0.02591030      -0.24747004      -0.23082986      -0.01064835      -0.23372217
F        6.44026416       8.60467713      10.87163511       0.20154853      -0.87452176       0.41234318       0.02554139      -0.11615437       0.20756733      -0.01322686      -0.27288222
F        6.69818987       9.95255006      12.52749328      -0.19918965       0.47115644       0.84844382       0.39906126      -0.12921907       0.01428703      -0.01007380      -0.23829976
H        8.31657835       6.41876121      12.39315138      -0.15892521       0.06794413      -0.11236547       0.62967795       0.65918821      -1.27759099       0.02652618      -0.02953976
H        8.96870869       8.95690802      11.34532640       0.06853808      -0.04261624       0.10390380      -0.23508605       0.04776434       0.13718416       0.01096306      -0.04227671
O        3.74128817       1.25891325      11.92318100       0.02744293      -0.23042438      -0.61276600      -0.17447464       0.80449331      -0.88922429      -0.02023984      -0.02805845
C        2.57360409       1.69500799      11.28108584      -0.34251384      -0.59999688      -0.02268987      -0.53648120      -0.15540938       1.08591425       0.01304186      -0.19449954
C        2.81595414       1.58506204       9.80793597      -0.31408369      -0.76843820      -0.12073460       1.02950621      -0.10243796      -0.44579217       0.02267560      -0.15387002
F        3.36738976       0.38090273       9.52629028       0.11826548      -1.37742741      -0.71514840      -0.02339522       0.97487313       0.08149308      -0.01150518      -0.21064810
F        3.64629523       2.54587666       9.33575770       0.16691902       0.46880304      -0.41383008      -0.15043439      -0.78257036      -0.05705994      -0.00967190      -0.23232801
F        1.67365406       1.70264523       9.16778944      -0.12696176       0.91840023      -1.55870090      -0.82007712       0.15225820      -0.84484667      -0.01149959      -0.23989147
C        2.21683155       3.11304189      11.77867300      -1.20572049      -0.25559233       0.08592403       0.31554371      -0.28834605      -0.38628465       0.02195488      -0.15132536
F        2.85772620       4.06236433      11.08872840      -0.83595111      -0.39181113       0.82892153      -0.03355507       0.35951668       0.20459346      -0.00968682      -0.24495709
F        2.58602054       3.19555673      13.05112459       0.71357484       0.43970865       0.21469343      -0.24401858       0.14092004       0.24838877      -0.00825893      -0.24210334
F        0.90326399       3.35625050      11.67841702      -0.67406087       0.56373927       0.19772862       0.31881568      -0.14647131       0.04942000      -0.01188128      -0.22760208
H        3.45882908       0.62554371      12.55391171       0.04064594      -0.33992144      -0.19173018       0.05970053      -1.02630007       1.16044950       0.02624340      -0.01221117
H        1.65148274       1.11139349      11.52364450       0.03871533       0.01109111       0.16653809       0.80327404       0.00666194      -0.21981935       0.01317724      -0.03534584
O        2.32533240       6.99114305      10.85421017       0.23645869       0.45475332       0.06749175       0.20925410      -0.35484952      -0.08221312      -0.02875331      -0.15078685
C        1.95982503       7.46460732      12.08506012      -0.01059322       0.24015354       0.56155105      -1.51662862      -0.29539967       1.78314829       0.00771648      -0.23388553
C        2.69375294       8.75256812      12.39121023      -0.66852053      -0.52812149       0.11266093      -0.10384878      -0.25263393      -0.05369359       0.02051793      -0.12834197
F        2.50917090       9.57556387      11.41159967       0.17792822      -1.11117680       1.62764985      -0.43716377       1.51611936      -1.54455233      -0.01223176      -0.15549083
F        3.99820696       8.56368200      12.44980672       0.07910309       0.03887546       0.55614978       0.91076756      -0.42868510       0.51039922      -0.00975067      -0.22807045
F        2.27641652       9.39777538      13.48612241      -0.89277527      -0.24954384      -0.40073004      -0.26815978      -0.61557424       0.09267755      -0.00554294      -0.16571830
C        2.14058736       6.42194711      13.25704230      -0.85079083      -0.33628344       0.68063345       0.85716659       1.73644924      -0.23535839       0.02256960      -0.11673978
F        3.34863209       5.85324947      13.24030135       0.32085474       0.24252772       1.18444332       0.10017342       0.13228069      -0.10347062      -0.00858352      -0.26224959
F        1.24325485       5.49108110      13.22935231      -1.41503752       0.44536676       1.22332034      -1.21822679      -0.98310876      -0.20734611      -0.00814037      -0.21847087
F        2.02138841       7.05241011      14.45912793      -0.08437785       0.06242215       0.41136343      -0.06031403      -0.26585627      -0.26137733      -0.00876306      -0.25212210
H        3.26656584       6.80771650      10.92382562       0.03313510       0.02262884      -0.06090851       0.41632423      -0.33551046      -0.43450499       0.02238726      -0.03901483
H        0.87852700       7.74181685      12.04464716      -0.31223062       0.09308109      -0.02824970       0.94104439      -0.43838552       0.17444585       0.00889077      -0.01976451
O        4.12559580      14.28552308       6.86395852      -0.53767713       1.75831361       0.47101536      -0.30072713      -0.04111055      -0.14771469      -0.02533061      -0.12472712
C        4.56216384      13.02275059       6.46863736       0.59054409       1.39598621       0.44201204      -0.01455150      -0.33172640      -0.11693119       0.00871476      -0.25532761
C        6.05787187      12.96904014       6.71944957       0.31800147       0.65763891       0.28365196       0.53547233       1.13146544      -1.27770913       0.02153271      -0.15373386
F        6.26969744      12.80451423       8.00102132      -0.55060134       0.92659175       1.25654349       0.00024495      -0.14881314       0.92107671      -0.01065154      -0.21770211
F        6.58650475      14.14648203       6.34338541       0.81422521       2.10670805       1.02761933       0.43224165       0.05178838       0.09223091      -0.01134556      -0.26325333
F        6.74139089      12.02220694       6.05070682      -0.80105349       1.46793677       0.79316512      -0.67814225       0.02683085       0.06503872      -0.01212820      -0.25448477
C        4.20032964      12.75673079       5.00395666       0.28591597       1.21149947       0.58892145      -0.94477260       0.21832216       0.11501974       0.02245951      -0.13441685
F        4.83924442      13.58414597       4.17169781       0.22379837       2.26736292       0.02303386       0.01247772      -0.54045665       0.31484380      -0.00747700      -0.22838171
F        2.86097536      13.02188688       4.79786320      -0.80874728       2.17895217      -0.57459330       1.12948251      -0.57478261       0.15326795      -0.01274330      -0.22983715
F        4.44450264      11.45078389       4.70378314      -1.72655702       1.47244638      -0.87925795      -0.30724967       1.00344539      -0.06298059      -0.01154554      -0.24047776
H        3.15278661      14.29778911       6.83173862       0.04461685       0.21440297      -0.53237355       0.36608091      -0.16857490       0.06339286       0.02318529      -0.04917443
H        4.20422444      12.22505242       7.11469761       0.05155622      -0.10837787       0.27728950      -0.42420235      -0.17532435      -0.40993625       0.00924531      -0.01564029
O       11.62524639      12.85242165       8.81521346       0.32861560      -0.20849322      -1.07769310      -0.04387034       1.31328332      -0.33742267      -0.02649632       0.05362125
C       10.79610135      11.86531125       8.34848857       1.12144183      -0.69883171       0.03941927       0.07566575      -0.82947010      -0.98693401       0.01021834      -0.28226998
C       11.41358716      11.08481709       7.15058271      -0.16774345       0.69427980      -0.91809319       0.22455591      -0.08683816       0.07455795       0.01905429      -0.14424857
F       12.46159272      10.34372460       7.47846902       0.11066632       0.18259621      -0.44288262       0.19906062      -0.22091946       0.35119870      -0.01352719      -0.11050039
F       11.89880104      11.87440478       6.19806403       0.20589379       2.10243958       0.55043131      -0.25494537       1.04867148      -0.37233412      -0.01167249      -0.25372079
F       10.49535730      10.27637386       6.62250927      -0.73843491       1.54972753      -1.31592265      -0.24135134      -0.34432286      -0.00047043      -0.01292882      -0.24947776
C        9.43030579      12.35147202       7.86928882      -0.11131302      -0.65005170      -0.14525486      -1.05116153       1.20258808      -0.39667395       0.02247792      -0.13704866
F        9.42921836      12.61014603       6.52971199      -0.74792234       0.36270856      -0.09134848      -0.04535664       0.13367368       0.87900156      -0.01071807      -0.21583454
F        9.11283421      13.51098758       8.48944165      -0.43340291      -0.37072671       0.10930264       0.17572626      -0.59252334      -0.51179039      -0.01111547      -0.23608722
F        8.43397221      11.47717077       8.10120487      -0.20183369       1.51512192       1.29823368       0.80857468      -0.00838128       0.14543460      -0.01253173      -0.24324556
H       11.70852926      13.62853823       8.20717504       0.02319968      -0.05625129       0.05727401      -0.30681404      -1.04955673       0.48255926       0.02613179      -0.03946798
H       10.61388250      11.13491119       9.14696836      -0.15773596       0.13736764      -0.04383469       0.15640634       0.23854014      -0.10577767       0.01060660      -0.05503874
O       14.08679663       8.70533757      10.39283213      -0.30793657      -0.39198838       0.30720838       0.00354739       0.07737587      -1.23470855      -0.02707922      -0.00861347
C       12.80113285       8.73241219      10.94317127       0.06032259      -0.55686611       0.80707163       0.90348047      -0.65316248       1.53733885       0.01121696      -0.11947422
C       11.92250049       8.02835528       9.94460194       0.16593275      -0.42499396      -0.23309815      -1.45308876       0.81171709      -0.37766173       0.02241492      -0.10130528
F       12.26020407       6.76715526       9.89598004      -0.35544846      -0.23996161       0.05316859       0.29342461      -0.68994248      -0.03123496      -0.00834110      -0.17763880
F       12.14928635       8.52137469       8.73546315       0.33609013       0.73349281       0.72690305       0.03508216       0.06496595      -0.71763122      -0.00943762      -0.17745122
F       10.59282311       8.10426244      10.12334989      -0.76191311       0.69256379      -1.16521384       0.29017314       0.19918106       0.43839988      -0.01142654      -0.25165734
C       12.57595442      10.12040843      11.57876986       0.01623847      -0.51218082       0.13793589      -0.78626513       0.55183733       0.31934574       0.02203790      -0.15533635
F       12.42256643      11.10463181      10.69111913       0.67100010      -0.40464542      -0.10544071      -0.08566014      -0.16035819      -0.26099154      -0.01060303      -0.23949957
F       13.64353716      10.41535452      12.32304913       0.14298410      -0.92231559       0.29235937       0.09913712      -0.29131785       0.00177253      -0.01167313      -0.24618758
F       11.51212334      10.18815884      12.41470930      -0.88574625      -1.04143264       0.97061369       0.44540188      -0.23303697      -0.79903674      -0.01182626      -0.23077928
H       14.06145748       8.78175325       9.40104868      -0.23911286      -0.01682290       0.17799088      -0.10728274       0.00548527       1.38832486       0.02442842      -0.03485668
H       12.81972059       8.05356705      11.82574172       0.10657816      -0.06804827       0.02047788      -0.12703554       0.32285002      -0.30472642       0.01359041      -0.01394450
O        1.97293719      12.13889711       7.07814951      -0.12951374       0.50457550      -1.33154721      -0.61671668       0.63130528      -1.32028985      -0.02140995      -0.07891648
C        2.07492596      11.44415264       8.25761884      -0.25945578       0.80056229      -0.25649971      -0.41713038      -0.12295131      -0.57446510       0.01259438      -0.21946350
C        2.04462839       9.96520692       7.91640296       0.51336637       0.26056973      -0.62123811       1.15468967      -0.10979003      -0.59508365       0.02276531      -0.12363888
F        3.06143228       9.76466870       7.02311594       0.41527963      -0.51036530      -1.28843507      -0.80078280      -0.05124567       0.40442714      -0.01273919      -0.26402724
F        0.91417618       9.53801364       7.34863669      -0.59566107      -0.60184818       0.15611299      -0.22715764       0.15422499      -0.12617359      -0.00797258      -0.28749132
F        2.28085404       9.21135107       8.96322583       0.53690298       0.82780270      -0.18677658       0.16641861      -0.57993066       0.42224959      -0.00876067      -0.20185560
C        1.00620048      11.97647238       9.17978665      -0.23166382      -0.43028129      -0.04556726       0.45628810       0.13921811      -0.98261780       0.02097686      -0.10548326
F       -0.17343455      12.03336067       8.53447950      -0.92269133       1.25721100       1.30389811       0.70152533      -0.18248184       0.41702253      -0.01009216      -0.19669323
F        1.31178963      13.21519477       9.54633007       0.44365299      -0.66239078       0.55503550      -0.40102178       0.26135299       0.22052237      -0.01136020      -0.22751656
F        0.94399574      11.22827215      10.23352478      -0.63326002       0.86669552       1.09512964      -0.57697159      -0.59168005       1.44708955      -0.00886306      -0.18645419
H        1.09280470      11.96155521       6.68160592       0.05533483       0.05191062      -0.13685984       0.61405998       0.23115933       0.16547307       0.02705558      -0.03104819
H        3.05548729      11.61508031       8.67716427       0.08308541      -0.13671384      -0.06927319       0.25373161       0.18898883       0.40626213       0.01425894      -0.02962889
O        8.81792913      11.28855117       4.12022581       0.57050811       0.97995136       0.56796912       0.25110009      -0.07078277       0.42046893      -0.02918124      -0.07125908
C        8.73177106      12.42620763       3.33588191       0.37730745      -0.05612844      -0.29857326       0.22084381      -0.56925786      -0.51534063       0.01156104      -0.27700472
C        7.55054342      12.24672342       2.41476942       0.66846671       0.12921001      -0.23712433      -0.08229871       0.23879234      -1.38915515       0.02463494      -0.10843040
F        6.44732094      12.00414126       3.09960457      -0.24853254      -0.07640378      -0.02386920       0.58882678      -0.06612370      -0.12196995      -0.00878501      -0.15389870
F        7.80892540      11.21727781       1.54362206       1.09899635      -0.23317348       0.02923616      -0.50367200       0.77582735       1.18805933      -0.01300712      -0.21490596
F        7.29369834      13.37875659       1.67838022       0.14430845      -0.06802142      -0.12256094       0.13623223      -0.45245486       0.89379507      -0.00774063      -0.16958685
C       10.05413590      12.73909324       2.60935034       0.34744504       0.08412025      -0.70275895      -0.17195284       0.49750578       0.52887368       0.02097830      -0.17485440
F       10.54916821      11.68580337       1.97943186      -0.48902305      -0.15258320       0.16781745       0.13354056      -0.35080764      -0.23928121      -0.00887577      -0.25329357
F       10.95783254      13.16465050       3.52348386       0.34552027       0.44106935      -1.00316934      -0.32921526      -0.25464603      -0.49538648      -0.01275728      -0.26623631
F        9.89497785      13.71126838       1.69740466      -0.72215809      -0.33873459      -1.44073030       0.06337286       0.09530683       0.11276999      -0.01057503      -0.25921810
H        8.81431267      10.50823568       3.55709021       0.11237676      -0.00336832       0.07140993       0.07750811      -0.18560006      -0.11905473       0.02513907      -0.03615316
H        8.52439876      13.26216856       3.95898295       0.00882805       0.26913842       0.02128319      -0.18137859       0.76326841       0.72698092       0.01503455      -0.04211932
O        6.80762315       3.64449438       8.91546119      -0.44143466      -1.48469906      -0.07070889       0.56478924       0.77119929      -1.24264503      -0.02654481      -0.14255399
C        6.27679777       3.89505413      10.13558413      -0.38177399       0.19392242      -0.13092085      -0.81224078       0.86637425       2.56870222       0.01082832      -0.24357855
C        5.77416494       5.34468080      10.26065903      -0.21751689      -0.84707111       0.42738164      -0.03432282      -0.74345028      -1.39902687       0.02198937      -0.10193455
F        4.79073776       5.55328641       9.36733315      -1.01061425      -0.77530867       0.73711898      -0.82108563      -0.10994073       0.02454240      -0.01212377      -0.25462031
F        6.76269774       6.12699419       9.87678823      -1.27670009      -2.00778927       0.64463755       0.77767056       0.76994514       0.47051966      -0.00965418      -0.15743318
F        5.32179405       5.72377714      11.44229056      -1.14189510      -0.83233907       0.21219373      -0.03588774      -0.02652317       0.40123808      -0.00838810      -0.27093157
C        7.30151580       3.66814335      11.25959924      -0.93974619      -0.79834015       0.09462155       1.41648960       0.22525313       0.72665977       0.02288472      -0.10208718
F        8.43012496       4.41991443      11.09446260      -0.35972319      -0.51417002       0.83501012      -1.04151940       0.08339512       0.30615416      -0.01337466      -0.20768537
F        7.72729457       2.42098369      11.16516613       1.21856282      -1.06319286      -0.04453148      -0.06628873      -0.29157865       0.35430136      -0.01058617      -0.19210635
F        6.86957862       3.90706728      12.56821651      -0.52581898      -1.42238603      -0.73992656       0.30534711      -0.42156360      -1.96078026      -0.01333750      -0.27128968
H        7.14449608       4.49628654       8.54646091      -0.04891415      -0.10048114      -0.03927850      -0.08297601      -0.88147974       0.15128236       0.02415300      -0.03591922
H        5.45829682       3.22317071      10.36996249       0.01886641      -0.14703246      -0.07734294      -0.15722241      -0.16631395      -0.13196567       0.01126892      -0.05066193
O       10.55161507       3.19880526      10.16077367      -0.06766618      -0.25379106       1.34345627      -1.22220170       0.56683344      -0.93734998      -0.02814741      -0.02431972
C       11.18571123       3.11324873      11.35577570       1.49977476      -0.19239111      -0.13581755       0.65301657       0.46806210       0.52294558       0.00891253      -0.24831232
C       11.97396151       4.43184557      11.71401756       0.29695947      -0.85821031      -1.05385205      -1.75597024       0.09079851      -0.32208386       0.01904009      -0.13790737
F       11.02627325       5.44701523      11.68793077       1.80523750      -0.59877071       0.29605690       1.07976115      -1.03949964       0.32266334      -0.01725508      -0.25026172
F       12.95059254       4.79283639      10.89487240      -0.06768293      -0.95001684       0.18999378       0.06418397      -0.48188403      -0.10097957      -0.01156907      -0.17462121
F       12.47572753       4.34525486      12.92922743       0.69009049      -1.09162877       0.73789743       0.37294024       0.09923437       0.37306476      -0.01009881      -0.22874638
C       12.04436086       1.84781740      11.29708244       0.92557836      -1.03767671      -0.67028473       0.34260407       0.06176069       1.04332530       0.02143767      -0.11480389
F       13.06845487       2.04373244      10.41814556       1.61645644       0.67825500      -0.45735703      -0.89810312      -0.66292763      -0.09005198      -0.01217046      -0.25782797
F       11.28622000       0.80084089      10.94822255       2.17495033      -0.44438461       0.55652668       0.94124877       0.64996761      -0.64770961      -0.01059499      -0.21044193
F       12.62246364       1.52272484      12.45364951       0.81374519      -0.75480512       0.70500804       0.07664449       0.06908637       0.26636881      -0.01141843      -0.26086116
H       11.07737538       2.89603737       9.43065267      -0.08110967      -0.11948037      -0.21783414       0.55420899      -0.18347652      -0.49925056       0.02247401      -0.04547562
H       10.37668705       3.08149446      12.10274979       0.26963270      -0.13263967      -0.07500241       0.55672687      -0.37441474       0.15366967       0.01172550      -0.03551055
O        6.22138712       6.74715917       7.52138131       0.01134116       0.06170927      -0.07879128      -1.16869354      -0.17699637       0.39978036      -0.02530561      -0.11398817
C        6.82589096       7.39437482       6.48514225      -0.61036057      -0.11269596      -0.49646521      -0.05732959       0.57624125      -0.77601862       0.01151237      -0.18087849
C        6.01841572       8.58319879       5.95298415      -0.31339260      -0.63669644       0.47221832      -0.42061228      -1.02062976       0.12690289       0.02153484      -0.12173355
F        5.74132752       9.53592905       6.86289228       0.46546341      -0.27392174       1.23141401       0.44467840      -0.56412321      -0.33259714      -0.01149813      -0.26875809
F        4.82957947       8.08741806       5.52516362      -0.24531926       1.04831340      -0.38812792       0.15030360       0.53840232      -0.01696654      -0.01069602      -0.26066396
F        6.69436982       9.11902374       4.94394645       0.10039975      -0.67144757      -0.71204861      -0.26709226       0.46576166      -0.25428823      -0.00989673      -0.26530138
C        7.16918071       6.27622158       5.44375080      -1.60718433      -0.46279438      -0.38544973      -0.93819946       0.50272667       1.27133226       0.02306152      -0.07341371
F        6.06692953       5.50334398       5.26508795      -1.75067750      -0.05318101       1.22738634       0.42701182       0.00459229       0.08211065      -0.00768975      -0.27830499
F        8.10476567       5.57477875       6.08294672      -1.09943602      -0.97659612      -0.20516714       0.00774397      -0.86612093      -0.37065610      -0.00986518      -0.21426716
F        7.59664802       6.60405350       4.25893431       0.25765004      -0.77627382      -0.37676239       0.48781925       0.55228448      -0.73668635      -0.00784573      -0.25234288
H        5.35659802       6.45276980       7.19895565      -0.00217136      -0.00842687       0.06124683      -0.03976238      -0.15820941       0.30600166       0.02718947      -0.02094693
H        7.71023215       7.81282436       6.90165187       0.01058396       0.03254529       0.05583586       1.19183314       0.26004177      -0.06197960       0.01291416      -0.02646182
192
Lattice="14.05790476106759 0.0 0.0 0.0 14.05790476106759 0.0 0.0 0.0 14.05790476106759" Properties=species:S:1:pos:R:3:momenta:R:3:forces:R:3:charge:R:1:energies:R:1 Built=T with=T Packmol=T charge=0 spin=1 external_field="_JSON [0.0, 0.0, 0.0]" energy=-17.316858291625977 stress="-0.003588732797652483 -0.003478079801425338 -0.0015997933223843575 -0.003478079801425338 -0.004558646585792303 0.003207448637112975 -0.0015997933223843575 0.003207448637112975 -0.00648593669757247" dipole="-1.0414674282073975 -1.2180397510528564 -0.5637466907501221" free_energy=-17.316858291625977 pbc="T T T"
O       13.15146617       5.75007701       6.86770040      -0.10020823       0.21422986      -0.29720505      -0.27151176      -0.28527161       0.53546876      -0.02843683      -0.11220427
C       12.32278864       4.63026260       6.65530945      -0.18052616      -0.08299698       0.34811145       0.65035695       0.17355770       0.04705973       0.01311966      -0.23352720
C       10.88696751       4.94082496       7.09961260       0.33899100       0.00146007      -0.42625151       0.27449402      -0.31598642      -0.01479305       0.02171049      -0.11647771
F       10.51995310       5.97489731       6.34891405      -0.62881603       0.07891944      -1.07344897      -0.20229694       0.61495006       0.51126897      -0.01193130      -0.22204432
F       10.66606414       5.18896582       8.41901682       0.05693339      -0.17110699      -0.10141559       0.61644614       0.42988449      -1.09484398      -0.01059428      -0.24723884
F       10.11160178       3.91704849       6.79779930       0.40483561      -0.31448140      -1.15710207      -0.67584383      -0.83158964      -0.22917821      -0.00903297      -0.24803877
C       13.00879127       3.41501068       7.32969856      -0.47454198       0.17287567      -0.89641513      -0.10369365      -0.17050242      -1.96207786       0.02314960      -0.10675028
F       13.41347424       3.74813872       8.50716859       1.43677047      -1.39293916      -0.20939314       0.15539816       0.46603468       2.27541280      -0.00632449      -0.19055089
F       14.12424548       3.06250518       6.66988242      -0.44218852       0.76795564      -0.34488063      -0.39835790      -0.15930477      -0.53059745      -0.01032384      -0.25727546
F       12.21381261       2.31786324       7.41772698       0.51140869      -0.65566692       0.25841321       0.07942661       0.26898256       0.05598300      -0.00801963      -0.30676109
H       13.22161407       5.86403524       7.83714539       0.05120360       0.28552283      -0.08152198       0.09371389       0.10148442      -0.55351794       0.02318235      -0.04821887
H       12.24654253       4.46922493       5.56156025       0.06011452       0.04721336       0.06556889       0.11973479      -0.05920171       0.59353697       0.01401216      -0.04731696
O        1.94653146       9.04243464       2.12293714       0.00214533      -0.00145421       0.00227168       0.93659055       0.52026594      -0.44688570      -0.03029219      -0.15173961
C        2.99086960       9.94970087       2.46848428       0.12894791       0.06654043      -0.05037804       0.37301964      -2.04216242       0.05849121       0.01239887      -0.24082096
C        2.68407079      11.28843996       1.88209575       0.55571214      -0.36587164      -0.64938339      -0.69166791       1.12826729      -0.92737025       0.02135885      -0.13155977
F        1.45449267      11.63586947       2.26845730       0.47236341       0.14773542      -0.17200074      -0.75956559      -0.39399406      -0.47152174      -0.01189643      -0.22447543
F        2.76021259      11.34044290       0.51766248       0.31310225       0.32556047       0.08899330      -0.12142047       0.08291189       1.08457577      -0.01205166      -0.21316236
F        3.41984360      12.26875131       2.32826499      -0.64462877       0.21711855       1.48710121       1.73409939       0.69099653       0.20243068      -0.00689954      -0.17929734
C        4.38303139       9.31385588       2.10894941      -0.12269934       0.60154798      -0.19983063      -0.68393457      -0.64912641       0.49302754       0.02207367      -0.12462583
F        4.41666800       8.72532955       0.92031777      -0.83484720      -0.10421050       0.42100511      -0.35612160       0.02797809      -0.41514224      -0.00982019      -0.24008697
F        4.66059974       8.30466574       2.99681751       0.73010264       0.38055187      -0.10882713      -0.14622729       1.22174764      -0.52551502      -0.01291755      -0.24336612
F        5.33497181      10.22955665       2.11674071      -0.41656079       1.56831634      -0.33882000       0.05014799      -0.31399906       0.27874330      -0.00944879      -0.21651322
H        2.03077392       8.92107149       1.15015348      -0.15158172      -0.08281297       0.04734155      -0.19877762      -0.09032729       0.82512635       0.02102348      -0.05372564
H        3.01605861      10.07030519       3.55122813      -0.03435640       0.04855172       0.10526439      -0.20842186      -0.01131506      -0.02614680       0.01188505      -0.05222990
O        7.38219330      12.51347419      13.47732417      -0.31143303       0.71559316      -0.33009732       0.47260860       0.25324461      -0.67117304      -0.03220043      -0.09513997
C        7.85459985      12.63015714      12.17024895      -0.06164287       0.58297255      -0.10195753      -0.67622954       0.27373371      -0.05386349       0.00877239      -0.26071942
C        9.28728386      13.17111595      12.10350390      -0.16227000       0.28778929      -0.53886348       0.31561750       0.31438845       1.25152671       0.02160655      -0.12843910
F       10.05101375      12.66497611      13.11970310      -0.41987342       0.68343481       0.23441621      -0.59003502       0.11763559      -1.10616827      -0.01408584      -0.25384647
F        9.28443255      14.52620954      12.33020156       0.22233519       1.06227646      -0.87151121      -0.04450904      -0.99450731      -0.47567186      -0.01236608      -0.24456842
F        9.87925055      12.87201926      10.93945228      -0.68714622       0.17454818      -0.26891541      -0.36852348       0.23129378       0.67695218      -0.01094028      -0.20697227
C        6.80082582      13.48135601      11.39541646      -0.25439728       0.25215134      -0.20902122       0.84487027      -0.40578032       1.60776031       0.02115501      -0.13565525
F        6.54477022      14.58510426      12.10361369      -1.21910862       0.73921973      -0.04645424      -0.49374366       0.06311855       0.26313379      -0.01030011      -0.22401595
F        5.68724726      12.74223398      11.37355232      -1.18433536       0.34880122      -0.25190577      -0.45499250       0.03486356      -0.50770587      -0.01353118      -0.28655422
F        7.15053878      13.84600051      10.19295450       0.13807544       1.68394956       1.37757559       0.10539097       0.00447586      -0.80666816      -0.00938157      -0.23106043
H        7.46509464      13.36118196      13.94123662      -0.15318929       0.06177604      -0.08692991      -0.07050146      -0.24025421      -0.31255919       0.02443935      -0.01106036
H        7.79719301      11.63507552      11.74282386      -0.02287676      -0.11398365      -0.05187780       0.39310515      -0.04080994      -0.16743286       0.00999094      -0.04249740
O       13.19031081       8.60683858       1.62204099       1.23028824       0.36858630      -1.93919219       0.96477985       0.05225052      -0.13633728      -0.03174387      -0.12480760
C       12.26181084       8.89011232       2.60397898       0.27914887      -0.00656829      -0.01024003      -1.21311104      -2.47624159      -1.21215940       0.01061654      -0.15786430
C       12.58074215      10.07229579       3.47741584       0.47274026      -0.29579900      -1.00091849       0.58855945      -1.68885481       1.61497843       0.02147920      -0.09635298
F       13.05782437      11.04803817       2.77940429       0.95127631      -0.23493172      -1.93292306       0.26789767       1.15151811      -0.46310276      -0.00716304      -0.22345182
F       13.49879462       9.80209316       4.49827405       1.16051551       0.41170404      -1.41395270      -0.73072076       0.26828429      -1.18088770      -0.01750388      -0.27496246
F       11.44776507      10.38523026       4.07873186       1.57784549       1.86591784      -0.43412652      -0.46140867       0.65279186       0.58415449      -0.00952934      -0.20182164
C       11.88507796       7.54530500       3.34504491      -0.57737667       0.24606680      -0.69208258      -0.13473080       1.87898898      -0.16116415       0.02325686      -0.09384537
F       12.74116248       7.32282962       4.30270539      -0.28059083       0.88974245      -0.41071975       0.75368381      -0.98355484       0.94317240      -0.00892094      -0.24378288
F       11.93067499       6.51558283       2.46927696       0.57890406       1.66390927      -1.48549687      -0.33023587       0.32930335       0.46265006      -0.00686940      -0.26541319
F       10.65272780       7.62852372       3.90359320       0.39994088      -0.08598881       0.48498027       0.39725801      -0.34023297      -0.56497264      -0.01341720      -0.27789962
H       14.07462693       8.42172865       1.99921332       0.39643876       0.12148786       0.07387867      -0.41522482       0.29980895       0.02417472       0.02153692      -0.07069193
H       11.30416460       9.05623017       2.07510240      -0.21049964       0.02283365       0.20378450       0.48118153       0.71731186       0.09382307       0.01252805      -0.02062487
O       10.69335034       4.55264109       0.70739117       1.10566180      -1.00251265      -0.73894293      -0.19281417       0.64596742      -0.90454143      -0.02590866      -0.06196515
C       10.46674963       3.37244360       1.33912507      -0.22670644      -0.94915820       1.00509409      -0.53147107      -0.98883790       1.48696768       0.01335267      -0.19076030
C        9.29885999       3.57898020       2.36279048       0.34381990      -0.26439840       0.19853686       0.94827116      -0.37880239       0.88058931       0.02340586      -0.11252443
F        8.30391393       4.10685470       1.68409879       0.78720956      -0.97551191      -0.61169195      -0.70808673      -0.09107456       0.00955686      -0.00700692      -0.24425074
F        9.65567460       4.48339056       3.32661178      -0.04012817      -2.06558789       0.06593041      -0.13610686      -0.74371272      -0.47335884      -0.01254419      -0.28124666
F        8.87399983       2.43771799       2.99955987       0.22705181      -2.16727014      -0.24920466       0.43184963       1.22051513      -0.79243678      -0.01025650      -0.26648203
C       11.73939078       2.77400069       1.88330584      -0.22517553       0.26013138       0.16005132       1.65251362      -0.44947106       1.00707424       0.02154632      -0.15103915
F       12.53982123       3.61958321       2.57644017      -0.77165740      -1.25580804       0.82882088      -0.66222453       0.40085956       0.04408550      -0.01123933      -0.28460857
F       12.52407342       2.30145116       0.91254662       0.17798156      -0.86313099       1.08003002      -0.24871027       0.12605183      -0.59666824      -0.01111076      -0.23585135
F       11.49608727       1.73645353       2.68108938       0.30379789       0.51738588       0.20843544      -0.41704711      -0.18010536       0.45808622      -0.01015744      -0.24472603
H       11.12913944       5.19276192       1.29174406      -0.24494527       0.21895947      -0.01823034      -0.10450450      -0.25594461      -0.02815984       0.02299041      -0.07844926
H       10.14749765       2.52247355       0.71979914      -0.03819979      -0.08559160       0.00185717      -0.36284375       0.68737072      -0.68329626       0.01410410      -0.01452022
O        8.71506448       7.00970667      11.70243392       1.05111839       0.09163763       0.97092225      -0.16716209       1.47644854      -0.10412911      -0.02877340      -0.08851784
C        8.48055478       8.32987961      12.11121622       0.31617471       0.46247292       0.63369845      -0.38369909       0.47387454      -0.51881009       0.01107115      -0.26952302
C        9.14012092       8.61858207      13.43832922       0.11393503      -0.41312396       0.44969930       1.83982372      -1.33701456       0.81916773       0.02145261      -0.12497403
F       10.44898889       8.15758035      13.33150823       0.10333618      -1.99605991       1.03023544      -1.35813689      -0.26548681       0.49410036      -0.01684934      -0.22034860
F        8.54765920       7.96167382      14.46297227      -0.21355830      -0.09986980       0.70894816       0.39962420       0.12388264      -0.42466462      -0.01070112      -0.29086202
F        9.26099636       9.87686063      13.78694478       1.13565624      -1.02840180      -0.29743021      -0.56266958       0.75901961      -0.13405804      -0.01002142      -0.22145531
C        6.97975792       8.72432689      12.12104665       0.37095143       0.15312512       0.40618511      -0.58638078      -1.17131555      -0.14542626       0.02279684      -0.12402587
F        6.33451572       7.85136168      12.92756847       0.45065133      -0.96997690      -0.46577093       0.27407956       0.27724874      -0.17981344      -0.01122124      -0.22889000
F        6.44648949       8.58256219      10.88432113       0.31171449      -0.80068820       0.59454321       0.41021869       0.30965096       0.52301520      -0.01407014      -0.26885629
F        6.69575853       9.96308518      12.54898933       0.01395184       0.31429335       0.80407253       0.44019371      -0.49265322      -0.10747508      -0.00887039      -0.23938283
H        8.25861076       6.43115274      12.29729664      -0.20772210      -0.19702093      -0.06854409      -0.44783568      -0.89062178       0.61531776       0.02492032      -0.04050574
H        8.98695123       8.95841761      11.39258236       0.03271122       0.07285153       0.05526380       0.03719521       0.29620767      -0.22348376       0.01124299      -0.04109354
O        3.73860549       1.25027623      11.90593887      -0.21636961      -0.49873561      -0.34232850      -0.28847483      -0.80130345       0.87810344      -0.02064535      -0.01558756
C        2.55762780       1.67210300      11.28971959      -0.33707432      -0.46140363       0.37735966       0.49214989       0.43057621       0.36530057       0.01343156      -0.23252109
C        2.81261423       1.55569213       9.79618372       0.09950363      -0.60051537      -0.48626300       0.45492476       0.71234328      -0.85565460       0.02302688      -0.13257885
F        3.36952879       0.35326229       9.50880661       0.02598557      -0.72177325      -0.63014606      -0.28647283       1.47407651       0.16860346      -0.01112019      -0.19773869
F        3.64858120       2.55095157       9.32599237      -0.01611385      -0.13386603      -0.30628335      -0.47680536      -1.50958955       0.37370086      -0.01162636      -0.21865402
F        1.66698311       1.72605892       9.12398827      -0.31306861       0.85248037      -1.77152366       0.07349923      -0.33051738      -0.17182007      -0.01253640      -0.24964339
C        2.17687058       3.10062157      11.78004823      -0.63994452      -0.32930859       0.03194979       1.62638652      -0.02993626       0.21541445       0.02249443      -0.13560724
F        2.83600497       4.05450436      11.11043216      -0.84516341      -0.22367976       0.81746837      -0.04709898       0.27809015      -0.18500371      -0.01086229      -0.23730789
F        2.60139870       3.20693661      13.05705468       0.43117997       0.41235120       0.20523996      -0.79186416      -0.19908781      -0.21389067      -0.01013744      -0.24062917
F        0.88705912       3.36941505      11.68412829      -0.60892362       0.44002660       0.25514232      -0.02049399      -0.32968757       0.18896213      -0.00992817      -0.21799213
H        3.53043634       0.47113860      12.47428832       0.29201173      -0.09842705      -0.30177979       0.44809258       0.92286789      -0.58974510       0.02663599      -0.01707936
H        1.71008066       1.08329694      11.57611026       0.06956475      -0.19414009       0.05934106      -0.57525545      -0.68379766      -0.16101445       0.01372476      -0.04000434
O        2.33490473       7.00231231      10.85716669       0.39660164       0.27111460       0.16918511       0.15104078      -0.34591389       0.44681981      -0.02968330      -0.10323191
C        1.94099085       7.46760347      12.12071597      -0.73531294      -0.21365541       1.04786237       0.50891078      -1.72048795       0.23531653       0.00952351      -0.26887575
C        2.67095136       8.72969957      12.39837121      -0.32915745      -0.54900964       0.28529245       1.28755283       0.24334534       0.52422249       0.02045031      -0.11252297
F        2.51021866       9.55826850      11.44055883      -0.11431548      -0.20270863       0.54232163      -0.65804267       1.83479965      -2.42664361      -0.01176888      -0.11772346
F        4.00415937       8.56156024      12.46737424       0.30212525      -0.21496610       0.80346263      -0.01567918      -0.58507794       0.53554821      -0.01239701      -0.23099934
F        2.25161993       9.38773206      13.47787535      -1.03331638      -0.51356011      -0.18469061      -0.37128663      -0.47394836       0.73245639      -0.00463391      -0.15306664
C        2.11798873       6.42533063      13.28131554      -0.21738195       0.42707455       0.49464498       1.33370352       0.89927018      -0.38316905       0.02350359      -0.12257790
F        3.35513105       5.86053815      13.26969515       0.09848050       0.33485979       1.07926579      -0.90680242       0.29366100      -0.22141051      -0.01031026      -0.25899142
F        1.20019282       5.49629655      13.25926136      -1.85149133      -0.00179719       1.08813941      -0.48190314      -0.53802252      -0.23241223      -0.00785673      -0.23144262
F        2.01848345       7.05254556      14.46877810      -0.15223380      -0.03756575       0.37067889      -0.20718126      -0.09649628       0.16470385      -0.00693547      -0.23530427
H        3.28786556       6.79281411      10.85945476      -0.03039808      -0.05212488      -0.15619335      -0.40242109      -0.00635989       0.11399046       0.02185684      -0.06698255
H        0.90040423       7.72117521      12.05668843       0.28372655      -0.14445981       0.06942993      -0.41539973      -0.06431551       0.07393672       0.00984515      -0.02354818
O        4.11000736      14.33696625       6.87673792      -0.46278765       1.54605152       0.34448148      -0.08367109      -0.58831620      -0.39237702      -0.02544558      -0.11784671
C        4.58071122      13.06993357       6.49022509       0.25531194       0.89853748       0.60610086      -0.76300985      -0.50324839      -0.19660553       0.00950588      -0.24651000
C        6.07500316      13.00996703       6.72214569       0.47742776       1.38417178      -0.03455358       0.03872069       1.65573430       0.08847602       0.02155201      -0.15777160
F        6.25582910      12.82760905       8.03708708      -0.51599677       0.87772822       1.44835237       0.07458670       0.06809576      -0.06936705      -0.01258359      -0.22583973
F        6.60986657      14.19930417       6.37058594       0.98773563       1.93774955       1.08474492       0.38214144      -0.44760582       0.20382443      -0.01096817      -0.27109846
F        6.71767371      12.05909900       6.07075432      -0.98827252       1.35770908       0.73053123      -0.15263121      -0.30005625      -0.25230435      -0.00991734      -0.25122005
C        4.20058084      12.80710541       5.02448303      -0.28784769       1.23820693       0.32258934      -1.14704907       0.06375853      -0.99540514       0.02319895      -0.09891491
F        4.84455201      13.63780144       4.17547344       0.17023968       1.85708257       0.30614247      -0.18695045      -0.86075521       0.77254534      -0.00811339      -0.22889575
F        2.84898943      13.07428860       4.78522475      -0.08452490       1.89231851      -0.36766859       1.57445991      -0.36158642       0.58605033      -0.01289985      -0.20888045
F        4.39905120      11.49582302       4.68195464      -1.76426728       2.03663494      -0.77195854      -0.01622850       1.33867180       0.38404271      -0.01220279      -0.23088017
H        3.18115667      14.38563042       6.58605980       0.06933544       0.15864644      -0.46050611       0.30325291      -0.02848250       0.28776142       0.02424923      -0.04299577
H        4.21668511      12.24047890       7.12871844       0.02123173       0.22009632      -0.23875220      -0.17120400       0.41202864      -0.66307098       0.00947894      -0.01813459
O       11.63466178      12.84869623       8.78670072       0.27375539      -0.20075277      -0.64067014      -0.10992444      -0.07802381       0.90357518      -0.02623511       0.05705742
C       10.83518944      11.83606959       8.33541655       0.63579810      -0.60074768      -0.70292662      -1.82233882       0.68547416      -1.26106668       0.00967280      -0.24083436
C       11.41157489      11.10861107       7.11780714       0.11433689       0.40135963      -0.62120188       0.76921326      -0.89968103       0.84158236       0.01957492      -0.15005435
F       12.46444117      10.34770516       7.46784023       0.06975209       0.15096535      -0.43699324      -0.27980947       0.08416495      -0.34502056      -0.01434581      -0.13247733
F       11.90245130      11.93433084       6.20938129       0.07627948       2.50350426       0.31845926      -0.26049367       0.71898860      -0.46044222      -0.00990008      -0.26439482
F       10.47571764      10.31413890       6.58861905      -0.74518080       1.38546378      -1.31250864       0.18533035      -0.17986916      -0.09236395      -0.01255427      -0.24805416
C        9.41963950      12.34064637       7.86054626      -0.29641277       0.16410334      -0.24932786       0.28062049       1.75022304       0.00510850       0.02150580      -0.10282350
F        9.40971485      12.61982185       6.53266289      -0.76749400       0.37533676       0.29342361      -0.12740023       0.01048547       0.58539820      -0.01045538      -0.22233707
F        9.10360056      13.49808110       8.48911963      -0.25863518      -0.59495154      -0.12111013       0.45394123      -0.21244664      -0.36656281      -0.01245029      -0.23682384
F        8.43240741      11.51352160       8.13503966       0.01721639       1.21065503       1.30822546       0.06821615      -1.04328179       0.01852429      -0.01143259      -0.23502600
H       11.69348583      13.59292123       8.19649359      -0.06564070       0.07892623      -0.23199686      -0.13655449       0.38306239      -0.64635938       0.02577484      -0.04150259
H       10.57250788      11.17554555       9.15370169       0.01868192      -0.02687297       0.09001982       0.55520248      -0.39534277       0.05772633       0.01053064      -0.05161941
O       14.07743186       8.69335447      10.40330180      -0.29446936      -0.40720999       0.58162260      -0.00936620      -0.06240815       0.42620844      -0.02797539      -0.06218908
C       12.81038548       8.70459326      10.98656440       0.31557284      -0.74381661       1.16749061       0.01774593      -0.03993375      -0.09628274       0.01142384      -0.15626030
C       11.91385461       8.02118284       9.93553736      -0.56382464       0.08962517      -0.10918625      -1.19978666       1.01108313       0.83766240       0.02309369      -0.07570255
F       12.25273402       6.75642041       9.89662031      -0.24189516      -0.57221595      -0.02391562       0.06169267      -0.48607007      -0.28010944      -0.00741079      -0.19108830
F       12.15858377       8.54035893       8.74902562       0.39497445       0.72698318       0.31283964       0.17869338      -0.03026650      -0.84820461      -0.00776563      -0.17015247
F       10.57621561       8.12271644      10.09627955      -0.50136443       0.71706645      -0.93171188       0.56137526      -0.01058861       0.40627965      -0.01211721      -0.25027549
C       12.56839892      10.10559200      11.58914086      -0.36733603      -0.22463215       0.39222783      -0.58979255       0.41098744       0.60923451       0.02197385      -0.14467435
F       12.43872450      11.09223027      10.68779122       0.56004105      -0.58789430      -0.11529285      -0.31517830      -0.57146919       0.18196130      -0.01044955      -0.24026307
F       13.64717985      10.39013620      12.33054573       0.11391302      -1.01528004       0.29146641      -0.20152594      -0.14224376       0.05229954      -0.01162567      -0.23954232
F       11.49376066      10.16059356      12.43316682      -0.49760908      -1.06724770       0.42377798       0.91003561       0.04579182      -1.22507453      -0.01229143      -0.23267443
H       13.95205964       8.79199570       9.46238857      -0.17938956       0.08411610      -0.16700670       0.36155486       0.22670119      -0.66077447       0.02370074      -0.01337778
H       12.84617762       8.03882184      11.83225563      -0.00715863      -0.05349077       0.09071413      -0.25108123      -0.30441332       0.57666504       0.01373117      -0.02628122
O        1.96897966      12.15934094       7.03244779       0.00195440       0.83007010      -1.50427592       0.60883528       0.62371367       0.17716934      -0.02077240      -0.07750823
C        2.06475629      11.47085421       8.23857978      -0.14191589       0.42002159      -0.72706571       0.59952587      -1.16447437      -1.25455225       0.01386545      -0.21384151
C        2.07207220       9.97349175       7.88649540       0.70771955       0.11871196      -0.79547894      -0.26754674      -0.41642708      -0.05628439       0.02290454      -0.13328134
F        3.06658946       9.75169443       6.99312989      -0.01803564      -0.48263574      -1.02734382      -0.84588009       0.07406160       0.45672727      -0.01093460      -0.27049804
F        0.89961069       9.52435614       7.35224609      -0.45434838      -0.42812991       0.13650821       0.68934220       0.47354597       0.03204300      -0.01070209      -0.28650329
F        2.29588863       9.22961201       8.96025874       0.63476402       0.61786635      -0.08336575       0.27823821      -0.19168490      -0.05829788      -0.01012995      -0.21545070
C        1.00018648      11.96369802       9.17184988      -0.10030989      -0.14001918      -0.23074143       0.02476089       0.80246317       0.31768069       0.02114100      -0.13688271
F       -0.19204682      12.06361170       8.56995332      -0.50429073       1.05705728       1.41654825       0.86828202      -0.49549705       0.14638217      -0.00993167      -0.18683413
F        1.32079364      13.20010108       9.56155413       0.26465985      -0.49988004       0.60635746      -0.26376781       0.33673415       0.03347947      -0.01214074      -0.20775783
F        0.92480689      11.24637897      10.26876766      -0.82012755       0.53822518       1.53343113      -0.21940385      -0.56360120       0.31818521      -0.00999656      -0.20037572
H        1.12440886      11.99453118       6.61217280      -0.04348920       0.04824098      -0.18743967      -0.46347585      -0.12616079      -0.13736641       0.02660597      -0.04398560
H        3.07713091      11.58773581       8.67560861      -0.07716985       0.04929666       0.02309742      -0.62551731       0.50157350      -0.01841937       0.01442144      -0.02699564
O        8.83709626      11.31614836       4.13935438       0.67587051       0.79760910       0.64999214       0.22723539      -0.24258427       0.14206451      -0.02908348      -0.07977661
C        8.74715431      12.43050041       3.32633319       0.33994355       0.44508835      -0.06192186      -0.18512754       1.49487102       0.70795429       0.01093311      -0.24776573
C        7.57314516      12.25308333       2.39420676       0.37641079       0.15264698      -0.66838330      -0.81209946      -0.11185462      -0.22054102       0.02411634      -0.12346824
F        6.44667604      12.00220655       3.09726314       0.25784799      -0.05884663      -0.18701667       1.32223153       0.10644127      -0.48506254      -0.01144650      -0.15674357
F        7.83371745      11.21618793       1.55138591       0.81663238       0.13691654       0.53726366      -0.53802603       0.65147114       0.80878305      -0.01217100      -0.22271493
F        7.29839527      13.37430709       1.68065334       0.21941434      -0.25740792       0.27321251       0.14525080      -0.23757622       0.60730487      -0.00639414      -0.16085450
C       10.06411102      12.74789067       2.58787510       0.09657885       0.33787009      -0.32715756      -0.70412946       0.40083531       0.77592820       0.02087273      -0.17214042
F       10.53842158      11.67893419       1.98131043      -0.31896673      -0.39182004      -0.04616296       0.41533208      -0.51344973      -0.52944064      -0.00840339      -0.25018197
F       10.96491325      13.17458507       3.49450543       0.21903828       0.34175891      -1.23870632      -0.13133675      -0.08236332      -0.51529109      -0.01195413      -0.26723301
F        9.87740898      13.70309233       1.66149041      -0.61972357      -0.29755588      -1.32855227       0.27189371       0.04917653       0.21815921      -0.01013041      -0.26114762
H        8.87530236      10.51372536       3.59659607       0.13319229       0.05840193       0.10970724       0.02889537       0.13541666       0.06163170       0.02514241      -0.03853095
H        8.53560424      13.34757343       3.96230275       0.06833912      -0.08470564      -0.11929360       0.17545298      -1.13534617      -0.54947621       0.01436676      -0.04249728
O        6.79642375       3.60310719       8.90741151      -0.38240427      -1.32271188      -0.29771619      -0.37832290      -0.15309069       0.37128910      -0.02724350      -0.13612269
C        6.25365911       3.90157736      10.15363090      -0.68890136      -0.09835116       0.89113976      -0.08470561      -1.74847066       1.18523467       0.01132455      -0.25786844
C        5.76064935       5.30552404      10.26477820      -0.53446935      -0.98181428      -0.17270500      -1.12238598       0.25685275      -0.80429989       0.02277299      -0.10158861
F        4.76012823       5.53247983       9.38616763      -1.33895991      -0.84507743       0.70911623      -0.62536949      -0.24750236      -0.10224323      -0.01194603      -0.25658384
F        6.73658778       6.08204738       9.89559491      -0.70019548      -1.42737797       0.78485739       1.30623817       1.28675735       0.17987807      -0.00915923      -0.14603280
F        5.29287123       5.70178520      11.45011748      -1.07513781      -0.89151388       0.37346817       0.19932766      -0.30127272       0.18642029      -0.00912143      -0.26856339
C        7.28192688       3.63800942      11.26933035       0.03952587      -0.68165265       0.32700927       2.15809488       0.15193816       0.07619189       0.02328503      -0.12703437
F        8.41367367       4.40711680      11.11749418      -0.91638051      -0.47438555       0.93406885      -1.11459243       0.09738099       0.16549709      -0.01471376      -0.20692325
F        7.75667922       2.39339463      11.16589350       1.01246896      -1.02325303       0.08610476      -0.57151592       0.27460599       0.18488029      -0.01179603      -0.19378167
F        6.85719936       3.86801379      12.53846035      -0.46542784      -1.59561889      -1.47572913      -0.10247399      -0.40146419      -0.95406550      -0.01039875      -0.27932888
H        7.13729815       4.40244088       8.51759681       0.08211237      -0.12499108      -0.14275202       0.49792954       0.60338575      -0.40788531       0.02302478      -0.05030037
H        5.46174626       3.16576270      10.32394649       0.00491044      -0.04154348      -0.08741681      -0.07965048       0.35374781       0.15633599       0.01203150      -0.04353876
O       10.54526060       3.19196613      10.18526384      -0.30213615      -0.22371056       0.21817124      -0.71076459       0.22615017      -1.28612053      -0.02817915      -0.01495387
C       11.25411884       3.10527808      11.35143964       1.77398178      -0.31939850      -0.12545279      -0.26774365      -1.00337672       0.04056238       0.00879714      -0.26451665
C       11.97244233       4.40026071      11.67811375      -0.24211364      -0.63243154      -0.49574540      -0.22814146       0.73180431       2.16286826       0.01947367      -0.17062873
F       11.07782255       5.42521526      11.69699898       2.11140927      -1.06973835       0.38643110       0.24746220      -0.84666950       0.10341330      -0.01561521      -0.24873917
F       12.95106900       4.76599124      10.89732526       0.15881916      -1.11153919      -0.05554978       0.72615600      -0.31455451      -0.77088588      -0.01028343      -0.16634189
F       12.49452138       4.31766631      12.94685570       0.72189499      -1.05563449       0.50653632      -0.12055957      -0.06152523      -1.06414998      -0.01495425      -0.22447509
C       12.08783781       1.81316575      11.28380326       1.26115449      -0.51003875       0.06407145       1.06867635       1.80642164       1.59318542       0.02169742      -0.09156417
F       13.10447950       2.05564128      10.40607717       1.19218287       0.20000511      -0.46671583      -0.64271885      -1.19822872       0.02298796      -0.01200447      -0.25694627
F       11.34625991       0.79136497      10.95708232       2.40888174      -0.36866681       0.08979394       0.25528583      -0.28881100      -1.13250434      -0.00820754      -0.19956547
F       12.64392527       1.50397343      12.47185468       0.85652482      -0.69138660       0.65851007       0.20724131       0.12498627      -0.27525961      -0.01231245      -0.26632553
H       11.01907473       2.87084439       9.40716313      -0.19066170       0.04082420       0.19147223       0.17244151       0.07430629       0.24730872       0.02297685      -0.05312468
H       10.51457448       2.98195447      12.13693230       0.23949563      -0.24788240       0.24006750      -0.04706893      -0.02374105       0.37248033       0.01182744      -0.03190560
O        6.21411790       6.74813280       7.52257924      -0.43683116       0.02407160       0.16667055      -0.64853626       0.06795423       0.53645867      -0.02520022      -0.08928909
C        6.80817783       7.39599915       6.46323629      -0.12547798       0.16018728      -0.44433480       1.34465373       0.14777972       0.68041354       0.01255666      -0.19872276
C        6.00279995       8.55390182       5.96905206      -0.41289735      -0.62966549       0.21930875       0.02137268       0.94563711      -1.00456762       0.02181191      -0.13380034
F        5.75627208       9.52433445       6.89132735       0.69521084      -0.65749875       0.93698708       0.51481259      -0.99310756      -0.71702564      -0.01216700      -0.26820421
F        4.82364611       8.11704574       5.51556478      -0.24175189       1.21640494      -0.34015905      -0.18932416       0.22879837       0.15370557      -0.00877061      -0.25023448
F        6.69422125       9.10387648       4.92656889      -0.14553281      -0.53250258      -0.54983300      -0.67976862       0.08853685       0.73498660      -0.01277861      -0.25833890
C        7.10303482       6.26279941       5.43997278      -1.43051346      -0.19569796       0.14863069       1.39778721       0.48301315       0.69547319       0.02344014      -0.08607841
F        6.02405862       5.50154810       5.29581820      -1.59881484      -0.10140427       1.10857095       0.03809090      -0.17757657      -0.41367123      -0.00410217      -0.26911986
F        8.07484278       5.54552076       6.07487984      -1.28154089      -1.23975715      -0.43101346      -0.79511595      -0.32726172      -0.52626103      -0.01265615      -0.21493654
F        7.60420867       6.58677183       4.24653448       0.24215618      -0.59596321      -0.49672293      -0.52650106       0.13403347       0.26430139      -0.00959361      -0.26102036
H        5.34053031       6.42925801       7.25735837      -0.06266781      -0.07688071       0.15797353      -0.01257430      -0.02272506       0.07243751       0.02744529      -0.03127410
H        7.76488034       7.81737300       6.87432576       0.04561174      -0.08111642      -0.23097938      -0.62121832      -0.46676078      -0.74361545       0.01317549      -0.03634988
