192
Lattice="14.05790476106759 0.0 0.0 0.0 14.05790476106759 0.0 0.0 0.0 14.05790476106759" Properties=species:S:1:pos:R:3:momenta:R:3:forces:R:3:charge:R:1:energies:R:1 Built=T with=T Packmol=T charge=0 spin=1 external_field="_JSON [0.0, 0.0, 0.0]" energy=-17.316858291625977 stress="-0.003588732797652483 -0.003478079801425338 -0.0015997933223843575 -0.003478079801425338 -0.004558646585792303 0.003207448637112975 -0.0015997933223843575 0.003207448637112975 -0.00648593669757247" dipole="-1.0414674282073975 -1.2180397510528564 -0.5637466907501221" free_energy=-17.316858291625977 pbc="T T T"
O       13.15146617       5.75007701       6.86770040      -0.10020823       0.21422986      -0.29720505      -0.27151176      -0.28527161       0.53546876      -0.02843683      -0.11220427
C       12.32278864       4.63026260       6.65530945      -0.18052616      -0.08299698       0.34811145       0.65035695       0.17355770       0.04705973       0.01311966      -0.23352720
C       10.88696751       4.94082496       7.09961260       0.33899100       0.00146007      -0.42625151       0.27449402      -0.31598642      -0.01479305       0.02171049      -0.11647771
F       10.51995310       5.97489731       6.34891405      -0.62881603       0.07891944      -1.07344897      -0.20229694       0.61495006       0.51126897      -0.01193130      -0.22204432
F       10.66606414       5.18896582       8.41901682       0.05693339      -0.17110699      -0.10141559       0.61644614       0.42988449      -1.09484398      -0.01059428      -0.24723884
F       10.11160178       3.91704849       6.79779930       0.40483561      -0.31448140      -1.15710207      -0.67584383      -0.83158964      -0.22917821      -0.00903297      -0.24803877
C       13.00879127       3.41501068       7.32969856      -0.47454198       0.17287567      -0.89641513      -0.10369365      -0.17050242      -1.96207786       0.02314960      -0.10675028
F       13.41347424       3.74813872       8.50716859       1.43677047      -1.39293916      -0.20939314       0.15539816       0.46603468       2.27541280      -0.00632449      -0.19055089
F       14.12424548       3.06250518       6.66988242      -0.44218852       0.76795564      -0.34488063      -0.39835790      -0.15930477      -0.53059745      -0.01032384      -0.25727546
F       12.21381261       2.31786324       7.41772698       0.51140869      -0.65566692       0.25841321       0.07942661       0.26898256       0.05598300      -0.00801963      -0.30676109
H       13.22161407       5.86403524       7.83714539       0.05120360       0.28552283      -0.08152198       0.09371389       0.10148442      -0.55351794       0.02318235      -0.04821887
H       12.24654253       4.46922493       5.56156025       0.06011452       0.04721336       0.06556889       0.11973479      -0.05920171       0.59353697       0.01401216      -0.04731696
O        1.94653146       9.04243464       2.12293714       0.00214533      -0.00145421       0.00227168       0.93659055       0.52026594      -0.44688570      -0.03029219      -0.15173961
C        2.99086960       9.94970087       2.46848428       0.12894791       0.06654043      -0.05037804       0.37301964      -2.04216242       0.05849121       0.01239887      -0.24082096
C        2.68407079      11.28843996       1.88209575       0.55571214      -0.36587164      -0.64938339      -0.69166791       1.12826729      -0.92737025       0.02135885      -0.13155977
F        1.45449267      11.63586947       2.26845730       0.47236341       0.14773542      -0.17200074      -0.75956559      -0.39399406      -0.47152174      -0.01189643      -0.22447543
F        2.76021259      11.34044290       0.51766248       0.31310225       0.32556047       0.08899330      -0.12142047       0.08291189       1.08457577      -0.01205166      -0.21316236
F        3.41984360      12.26875131       2.32826499      -0.64462877       0.21711855       1.48710121       1.73409939       0.69099653       0.20243068      -0.00689954      -0.17929734
C        4.38303139       9.31385588       2.10894941      -0.12269934       0.60154798      -0.19983063      -0.68393457      -0.64912641       0.49302754       0.02207367      -0.12462583
F        4.41666800       8.72532955       0.92031777      -0.83484720      -0.10421050       0.42100511      -0.35612160       0.02797809      -0.41514224      -0.00982019      -0.24008697
F        4.66059974       8.30466574       2.99681751       0.73010264       0.38055187      -0.10882713      -0.14622729       1.22174764      -0.52551502      -0.01291755      -0.24336612
F        5.33497181      10.22955665       2.11674071      -0.41656079       1.56831634      -0.33882000       0.05014799      -0.31399906       0.27874330      -0.00944879      -0.21651322
H        2.03077392       8.92107149       1.15015348      -0.15158172      -0.08281297       0.04734155      -0.19877762      -0.09032729       0.82512635       0.02102348      -0.05372564
H        3.01605861      10.07030519       3.55122813      -0.03435640       0.04855172       0.10526439      -0.20842186      -0.01131506      -0.02614680       0.01188505      -0.05222990
O        7.38219330      12.51347419      13.47732417      -0.31143303       0.71559316      -0.33009732       0.47260860       0.25324461      -0.67117304      -0.03220043      -0.09513997
C        7.85459985      12.63015714      12.17024895      -0.06164287       0.58297255      -0.10195753      -0.67622954       0.27373371      -0.05386349       0.00877239      -0.26071942
C        9.28728386      13.17111595      12.10350390      -0.16227000       0.28778929      -0.53886348       0.31561750       0.31438845       1.25152671       0.02160655      -0.12843910
F       10.05101375      12.66497611      13.11970310      -0.41987342       0.68343481       0.23441621      -0.59003502       0.11763559      -1.10616827      -0.01408584      -0.25384647
F        9.28443255      14.52620954      12.33020156       0.22233519       1.06227646      -0.87151121      -0.04450904      -0.99450731      -0.47567186      -0.01236608      -0.24456842
F        9.87925055      12.87201926      10.93945228      -0.68714622       0.17454818      -0.26891541      -0.36852348       0.23129378       0.67695218      -0.01094028      -0.20697227
C        6.80082582      13.48135601      11.39541646      -0.25439728       0.25215134      -0.20902122       0.84487027      -0.40578032       1.60776031       0.02115501      -0.13565525
F        6.54477022      14.58510426      12.10361369      -1.21910862       0.73921973      -0.04645424      -0.49374366       0.06311855       0.26313379      -0.01030011      -0.22401595
F        5.68724726      12.74223398      11.37355232      -1.18433536       0.34880122      -0.25190577      -0.45499250       0.03486356      -0.50770587      -0.01353118      -0.28655422
F        7.15053878      13.84600051      10.19295450       0.13807544       1.68394956       1.37757559       0.10539097       0.00447586      -0.80666816      -0.00938157      -0.23106043
H        7.46509464      13.36118196      13.94123662      -0.15318929       0.06177604      -0.08692991      -0.07050146      -0.24025421      -0.31255919       0.02443935      -0.01106036
H        7.79719301      11.63507552      11.74282386      -0.02287676      -0.11398365      -0.05187780       0.39310515      -0.04080994      -0.16743286       0.00999094      -0.04249740
O       13.19031081       8.60683858       1.62204099       1.23028824       0.36858630      -1.93919219       0.96477985       0.05225052      -0.13633728      -0.03174387      -0.12480760
C       12.26181084       8.89011232       2.60397898       0.27914887      -0.00656829      -0.01024003      -1.21311104      -2.47624159      -1.21215940       0.01061654      -0.15786430
C       12.58074215      10.07229579       3.47741584       0.47274026      -0.29579900      -1.00091849       0.58855945      -1.68885481       1.61497843       0.02147920      -0.09635298
F       13.05782437      11.04803817       2.77940429       0.95127631      -0.23493172      -1.93292306       0.26789767       1.15151811      -0.46310276      -0.00716304      -0.22345182
F       13.49879462       9.80209316       4.49827405       1.16051551       0.41170404      -1.41395270      -0.73072076       0.26828429      -1.18088770      -0.01750388      -0.27496246
F       11.44776507      10.38523026       4.07873186       1.57784549       1.86591784      -0.43412652      -0.46140867       0.65279186       0.58415449      -0.00952934      -0.20182164
C       11.88507796       7.54530500       3.34504491      -0.57737667       0.24606680      -0.69208258      -0.13473080       1.87898898      -0.16116415       0.02325686      -0.09384537
F       12.74116248       7.32282962       4.30270539      -0.28059083       0.88974245      -0.41071975       0.75368381      -0.98355484       0.94317240      -0.00892094      -0.24378288
F       11.93067499       6.51558283       2.46927696       0.57890406       1.66390927      -1.48549687      -0.33023587       0.32930335       0.46265006      -0.00686940      -0.26541319
F       10.65272780       7.62852372       3.90359320       0.39994088      -0.08598881       0.48498027       0.39725801      -0.34023297      -0.56497264      -0.01341720      -0.27789962
H       14.07462693       8.42172865       1.99921332       0.39643876       0.12148786       0.07387867      -0.41522482       0.29980895       0.02417472       0.02153692      -0.07069193
H       11.30416460       9.05623017       2.07510240      -0.21049964       0.02283365       0.20378450       0.48118153       0.71731186       0.09382307       0.01252805      -0.02062487
O       10.69335034       4.55264109       0.70739117       1.10566180      -1.00251265      -0.73894293      -0.19281417       0.64596742      -0.90454143      -0.02590866      -0.06196515
C       10.46674963       3.37244360       1.33912507      -0.22670644      -0.94915820       1.00509409      -0.53147107      -0.98883790       1.48696768       0.01335267      -0.19076030
C        9.29885999       3.57898020       2.36279048       0.34381990      -0.26439840       0.19853686       0.94827116      -0.37880239       0.88058931       0.02340586      -0.11252443
F        8.30391393       4.10685470       1.68409879       0.78720956      -0.97551191      -0.61169195      -0.70808673      -0.09107456       0.00955686      -0.00700692      -0.24425074
F        9.65567460       4.48339056       3.32661178      -0.04012817      -2.06558789       0.06593041      -0.13610686      -0.74371272      -0.47335884      -0.01254419      -0.28124666
F        8.87399983       2.43771799       2.99955987       0.22705181      -2.16727014      -0.24920466       0.43184963       1.22051513      -0.79243678      -0.01025650      -0.26648203
C       11.73939078       2.77400069       1.88330584      -0.22517553       0.26013138       0.16005132       1.65251362      -0.44947106       1.00707424       0.02154632      -0.15103915
F       12.53982123       3.61958321       2.57644017      -0.77165740      -1.25580804       0.82882088      -0.66222453       0.40085956       0.04408550      -0.01123933      -0.28460857
F       12.52407342       2.30145116       0.91254662       0.17798156      -0.86313099       1.08003002      -0.24871027       0.12605183      -0.59666824      -0.01111076      -0.23585135
F       11.49608727       1.73645353       2.68108938       0.30379789       0.51738588       0.20843544      -0.41704711      -0.18010536       0.45808622      -0.01015744      -0.24472603
H       11.12913944       5.19276192       1.29174406      -0.24494527       0.21895947      -0.01823034      -0.10450450      -0.25594461      -0.02815984       0.02299041      -0.07844926
H       10.14749765       2.52247355       0.71979914      -0.03819979      -0.08559160       0.00185717      -0.36284375       0.68737072      -0.68329626       0.01410410      -0.01452022
O        8.71506448       7.00970667      11.70243392       1.05111839       0.09163763       0.97092225      -0.16716209       1.47644854      -0.10412911      -0.02877340      -0.08851784
C        8.48055478       8.32987961      12.11121622       0.31617471       0.46247292       0.63369845      -0.38369909       0.47387454      -0.51881009       0.01107115      -0.26952302
C        9.14012092       8.61858207      13.43832922       0.11393503      -0.41312396       0.44969930       1.83982372      -1.33701456       0.81916773       0.02145261      -0.12497403
F       10.44898889       8.15758035      13.33150823       0.10333618      -1.99605991       1.03023544      -1.35813689      -0.26548681       0.49410036      -0.01684934      -0.22034860
F        8.54765920       7.96167382      14.46297227      -0.21355830      -0.09986980       0.70894816       0.39962420       0.12388264      -0.42466462      -0.01070112      -0.29086202
F        9.26099636       9.87686063      13.78694478       1.13565624      -1.02840180      -0.29743021      -0.56266958       0.75901961      -0.13405804      -0.01002142      -0.22145531
C        6.97975792       8.72432689      12.12104665       0.37095143       0.15312512       0.40618511      -0.58638078      -1.17131555      -0.14542626       0.02279684      -0.12402587
F        6.33451572       7.85136168      12.92756847       0.45065133      -0.96997690      -0.46577093       0.27407956       0.27724874      -0.17981344      -0.01122124      -0.22889000
F        6.44648949       8.58256219      10.88432113       0.31171449      -0.80068820       0.59454321       0.41021869       0.30965096       0.52301520      -0.01407014      -0.26885629
F        6.69575853       9.96308518      12.54898933       0.01395184       0.31429335       0.80407253       0.44019371      -0.49265322      -0.10747508      -0.00887039      -0.23938283
H        8.25861076       6.43115274      12.29729664      -0.20772210      -0.19702093      -0.06854409      -0.44783568      -0.89062178       0.61531776       0.02492032      -0.04050574
H        8.98695123       8.95841761      11.39258236       0.03271122       0.07285153       0.05526380       0.03719521       0.29620767      -0.22348376       0.01124299      -0.04109354
O        3.73860549       1.25027623      11.90593887      -0.21636961      -0.49873561      -0.34232850      -0.28847483      -0.80130345       0.87810344      -0.02064535      -0.01558756
C        2.55762780       1.67210300      11.28971959      -0.33707432      -0.46140363       0.37735966       0.49214989       0.43057621       0.36530057       0.01343156      -0.23252109
C        2.81261423       1.55569213       9.79618372       0.09950363      -0.60051537      -0.48626300       0.45492476       0.71234328      -0.85565460       0.02302688      -0.13257885
F        3.36952879       0.35326229       9.50880661       0.02598557      -0.72177325      -0.63014606      -0.28647283       1.47407651       0.16860346      -0.01112019      -0.19773869
F        3.64858120       2.55095157       9.32599237      -0.01611385      -0.13386603      -0.30628335      -0.47680536      -1.50958955       0.37370086      -0.01162636      -0.21865402
F        1.66698311       1.72605892       9.12398827      -0.31306861       0.85248037      -1.77152366       0.07349923      -0.33051738      -0.17182007      -0.01253640      -0.24964339
C        2.17687058       3.10062157      11.78004823      -0.63994452      -0.32930859       0.03194979       1.62638652      -0.02993626       0.21541445       0.02249443      -0.13560724
F        2.83600497       4.05450436      11.11043216      -0.84516341      -0.22367976       0.81746837      -0.04709898       0.27809015      -0.18500371      -0.01086229      -0.23730789
F        2.60139870       3.20693661      13.05705468       0.43117997       0.41235120       0.20523996      -0.79186416      -0.19908781      -0.21389067      -0.01013744      -0.24062917
F        0.88705912       3.36941505      11.68412829      -0.60892362       0.44002660       0.25514232      -0.02049399      -0.32968757       0.18896213      -0.00992817      -0.21799213
H        3.53043634       0.47113860      12.47428832       0.29201173      -0.09842705      -0.30177979       0.44809258       0.92286789      -0.58974510       0.02663599      -0.01707936
H        1.71008066       1.08329694      11.57611026       0.06956475      -0.19414009       0.05934106      -0.57525545      -0.68379766      -0.16101445       0.01372476      -0.04000434
O        2.33490473       7.00231231      10.85716669       0.39660164       0.27111460       0.16918511       0.15104078      -0.34591389       0.44681981      -0.02968330      -0.10323191
C        1.94099085       7.46760347      12.12071597      -0.73531294      -0.21365541       1.04786237       0.50891078      -1.72048795       0.23531653       0.00952351      -0.26887575
C        2.67095136       8.72969957      12.39837121      -0.32915745      -0.54900964       0.28529245       1.28755283       0.24334534       0.52422249       0.02045031      -0.11252297
F        2.51021866       9.55826850      11.44055883      -0.11431548      -0.20270863       0.54232163      -0.65804267       1.83479965      -2.42664361      -0.01176888      -0.11772346
F        4.00415937       8.56156024      12.46737424       0.30212525      -0.21496610       0.80346263      -0.01567918      -0.58507794       0.53554821      -0.01239701      -0.23099934
F        2.25161993       9.38773206      13.47787535      -1.03331638      -0.51356011      -0.18469061      -0.37128663      -0.47394836       0.73245639      -0.00463391      -0.15306664
C        2.11798873       6.42533063      13.28131554      -0.21738195       0.42707455       0.49464498       1.33370352       0.89927018      -0.38316905       0.02350359      -0.12257790
F        3.35513105       5.86053815      13.26969515       0.09848050       0.33485979       1.07926579      -0.90680242       0.29366100      -0.22141051      -0.01031026      -0.25899142
F        1.20019282       5.49629655      13.25926136      -1.85149133      -0.00179719       1.08813941      -0.48190314      -0.53802252      -0.23241223      -0.00785673      -0.23144262
F        2.01848345       7.05254556      14.46877810      -0.15223380      -0.03756575       0.37067889      -0.20718126      -0.09649628       0.16470385      -0.00693547      -0.23530427
H        3.28786556       6.79281411      10.85945476      -0.03039808      -0.05212488      -0.15619335      -0.40242109      -0.00635989       0.11399046       0.02185684      -0.06698255
H        0.90040423       7.72117521      12.05668843       0.28372655      -0.14445981       0.06942993      -0.41539973      -0.06431551       0.07393672       0.00984515      -0.02354818
O        4.11000736      14.33696625       6.87673792      -0.46278765       1.54605152       0.34448148      -0.08367109      -0.58831620      -0.39237702      -0.02544558      -0.11784671
C        4.58071122      13.06993357       6.49022509       0.25531194       0.89853748       0.60610086      -0.76300985      -0.50324839      -0.19660553       0.00950588      -0.24651000
C        6.07500316      13.00996703       6.72214569       0.47742776       1.38417178      -0.03455358       0.03872069       1.65573430       0.08847602       0.02155201      -0.15777160
F        6.25582910      12.82760905       8.03708708      -0.51599677       0.87772822       1.44835237       0.07458670       0.06809576      -0.06936705      -0.01258359      -0.22583973
F        6.60986657      14.19930417       6.37058594       0.98773563       1.93774955       1.08474492       0.38214144      -0.44760582       0.20382443      -0.01096817      -0.27109846
F        6.71767371      12.05909900       6.07075432      -0.98827252       1.35770908       0.73053123      -0.15263121      -0.30005625      -0.25230435      -0.00991734      -0.25122005
C        4.20058084      12.80710541       5.02448303      -0.28784769       1.23820693       0.32258934      -1.14704907       0.06375853      -0.99540514       0.02319895      -0.09891491
F        4.84455201      13.63780144       4.17547344       0.17023968       1.85708257       0.30614247      -0.18695045      -0.86075521       0.77254534      -0.00811339      -0.22889575
F        2.84898943      13.07428860       4.78522475      -0.08452490       1.89231851      -0.36766859       1.57445991      -0.36158642       0.58605033      -0.01289985      -0.20888045
F        4.39905120      11.49582302       4.68195464      -1.76426728       2.03663494      -0.77195854      -0.01622850       1.33867180       0.38404271      -0.01220279      -0.23088017
H        3.18115667      14.38563042       6.58605980       0.06933544       0.15864644      -0.46050611       0.30325291      -0.02848250       0.28776142       0.02424923      -0.04299577
H        4.21668511      12.24047890       7.12871844       0.02123173       0.22009632      -0.23875220      -0.17120400       0.41202864      -0.66307098       0.00947894      -0.01813459
O       11.63466178      12.84869623       8.78670072       0.27375539      -0.20075277      -0.64067014      -0.10992444      -0.07802381       0.90357518      -0.02623511       0.05705742
C       10.83518944      11.83606959       8.33541655       0.63579810      -0.60074768      -0.70292662      -1.82233882       0.68547416      -1.26106668       0.00967280      -0.24083436
C       11.41157489      11.10861107       7.11780714       0.11433689       0.40135963      -0.62120188       0.76921326      -0.89968103       0.84158236       0.01957492      -0.15005435
F       12.46444117      10.34770516       7.46784023       0.06975209       0.15096535      -0.43699324      -0.27980947       0.08416495      -0.34502056      -0.01434581      -0.13247733
F       11.90245130      11.93433084       6.20938129       0.07627948       2.50350426       0.31845926      -0.26049367       0.71898860      -0.46044222      -0.00990008      -0.26439482
F       10.47571764      10.31413890       6.58861905      -0.74518080       1.38546378      -1.31250864       0.18533035      -0.17986916      -0.09236395      -0.01255427      -0.24805416
C        9.41963950      12.34064637       7.86054626      -0.29641277       0.16410334      -0.24932786       0.28062049       1.75022304       0.00510850       0.02150580      -0.10282350
F        9.40971485      12.61982185       6.53266289      -0.76749400       0.37533676       0.29342361      -0.12740023       0.01048547       0.58539820      -0.01045538      -0.22233707
F        9.10360056      13.49808110       8.48911963      -0.25863518      -0.59495154      -0.12111013       0.45394123      -0.21244664      -0.36656281      -0.01245029      -0.23682384
F        8.43240741      11.51352160       8.13503966       0.01721639       1.21065503       1.30822546       0.06821615      -1.04328179       0.01852429      -0.01143259      -0.23502600
H       11.69348583      13.59292123       8.19649359      -0.06564070       0.07892623      -0.23199686      -0.13655449       0.38306239      -0.64635938       0.02577484      -0.04150259
H       10.57250788      11.17554555       9.15370169       0.01868192      -0.02687297       0.09001982       0.55520248      -0.39534277       0.05772633       0.01053064      -0.05161941
O       14.07743186       8.69335447      10.40330180      -0.29446936      -0.40720999       0.58162260      -0.00936620      -0.06240815       0.42620844      -0.02797539      -0.06218908
C       12.81038548       8.70459326      10.98656440       0.31557284      -0.74381661       1.16749061       0.01774593      -0.03993375      -0.09628274       0.01142384      -0.15626030
C       11.91385461       8.02118284       9.93553736      -0.56382464       0.08962517      -0.10918625      -1.19978666       1.01108313       0.83766240       0.02309369      -0.07570255
F       12.25273402       6.75642041       9.89662031      -0.24189516      -0.57221595      -0.02391562       0.06169267      -0.48607007      -0.28010944      -0.00741079      -0.19108830
F       12.15858377       8.54035893       8.74902562       0.39497445       0.72698318       0.31283964       0.17869338      -0.03026650      -0.84820461      -0.00776563      -0.17015247
F       10.57621561       8.12271644      10.09627955      -0.50136443       0.71706645      -0.93171188       0.56137526      -0.01058861       0.40627965      -0.01211721      -0.25027549
C       12.56839892      10.10559200      11.58914086      -0.36733603      -0.22463215       0.39222783      -0.58979255       0.41098744       0.60923451       0.02197385      -0.14467435
F       12.43872450      11.09223027      10.68779122       0.56004105      -0.58789430      -0.11529285      -0.31517830      -0.57146919       0.18196130      -0.01044955      -0.24026307
F       13.64717985      10.39013620      12.33054573       0.11391302      -1.01528004       0.29146641      -0.20152594      -0.14224376       0.05229954      -0.01162567      -0.23954232
F       11.49376066      10.16059356      12.43316682      -0.49760908      -1.06724770       0.42377798       0.91003561       0.04579182      -1.22507453      -0.01229143      -0.23267443
H       13.95205964       8.79199570       9.46238857      -0.17938956       0.08411610      -0.16700670       0.36155486       0.22670119      -0.66077447       0.02370074      -0.01337778
H       12.84617762       8.03882184      11.83225563      -0.00715863      -0.05349077       0.09071413      -0.25108123      -0.30441332       0.57666504       0.01373117      -0.02628122
O        1.96897966      12.15934094       7.03244779       0.00195440       0.83007010      -1.50427592       0.60883528       0.62371367       0.17716934      -0.02077240      -0.07750823
C        2.06475629      11.47085421       8.23857978      -0.14191589       0.42002159      -0.72706571       0.59952587      -1.16447437      -1.25455225       0.01386545      -0.21384151
C        2.07207220       9.97349175       7.88649540       0.70771955       0.11871196      -0.79547894      -0.26754674      -0.41642708      -0.05628439       0.02290454      -0.13328134
F        3.06658946       9.75169443       6.99312989      -0.01803564      -0.48263574      -1.02734382      -0.84588009       0.07406160       0.45672727      -0.01093460      -0.27049804
F        0.89961069       9.52435614       7.35224609      -0.45434838      -0.42812991       0.13650821       0.68934220       0.47354597       0.03204300      -0.01070209      -0.28650329
F        2.29588863       9.22961201       8.96025874       0.63476402       0.61786635      -0.08336575       0.27823821      -0.19168490      -0.05829788      -0.01012995      -0.21545070
C        1.00018648      11.96369802       9.17184988      -0.10030989      -0.14001918      -0.23074143       0.02476089       0.80246317       0.31768069       0.02114100      -0.13688271
F       -0.19204682      12.06361170       8.56995332      -0.50429073       1.05705728       1.41654825       0.86828202      -0.49549705       0.14638217      -0.00993167      -0.18683413
F        1.32079364      13.20010108       9.56155413       0.26465985      -0.49988004       0.60635746      -0.26376781       0.33673415       0.03347947      -0.01214074      -0.20775783
F        0.92480689      11.24637897      10.26876766      -0.82012755       0.53822518       1.53343113      -0.21940385      -0.56360120       0.31818521      -0.00999656      -0.20037572
H        1.12440886      11.99453118       6.61217280      -0.04348920       0.04824098      -0.18743967      -0.46347585      -0.12616079      -0.13736641       0.02660597      -0.04398560
H        3.07713091      11.58773581       8.67560861      -0.07716985       0.04929666       0.02309742      -0.62551731       0.50157350      -0.01841937       0.01442144      -0.02699564
O        8.83709626      11.31614836       4.13935438       0.67587051       0.79760910       0.64999214       0.22723539      -0.24258427       0.14206451      -0.02908348      -0.07977661
C        8.74715431      12.43050041       3.32633319       0.33994355       0.44508835      -0.06192186      -0.18512754       1.49487102       0.70795429       0.01093311      -0.24776573
C        7.57314516      12.25308333       2.39420676       0.37641079       0.15264698      -0.66838330      -0.81209946      -0.11185462      -0.22054102       0.02411634      -0.12346824
F        6.44667604      12.00220655       3.09726314       0.25784799      -0.05884663      -0.18701667       1.32223153       0.10644127      -0.48506254      -0.01144650      -0.15674357
F        7.83371745      11.21618793       1.55138591       0.81663238       0.13691654       0.53726366      -0.53802603       0.65147114       0.80878305      -0.01217100      -0.22271493
F        7.29839527      13.37430709       1.68065334       0.21941434      -0.25740792       0.27321251       0.14525080      -0.23757622       0.60730487      -0.00639414      -0.16085450
C       10.06411102      12.74789067       2.58787510       0.09657885       0.33787009      -0.32715756      -0.70412946       0.40083531       0.77592820       0.02087273      -0.17214042
F       10.53842158      11.67893419       1.98131043      -0.31896673      -0.39182004      -0.04616296       0.41533208      -0.51344973      -0.52944064      -0.00840339      -0.25018197
F       10.96491325      13.17458507       3.49450543       0.21903828       0.34175891      -1.23870632      -0.13133675      -0.08236332      -0.51529109      -0.01195413      -0.26723301
F        9.87740898      13.70309233       1.66149041      -0.61972357      -0.29755588      -1.32855227       0.27189371       0.04917653       0.21815921      -0.01013041      -0.26114762
H        8.87530236      10.51372536       3.59659607       0.13319229       0.05840193       0.10970724       0.02889537       0.13541666       0.06163170       0.02514241      -0.03853095
H        8.53560424      13.34757343       3.96230275       0.06833912      -0.08470564      -0.11929360       0.17545298      -1.13534617      -0.54947621       0.01436676      -0.04249728
O        6.79642375       3.60310719       8.90741151      -0.38240427      -1.32271188      -0.29771619      -0.37832290      -0.15309069       0.37128910      -0.02724350      -0.13612269
C        6.25365911       3.90157736      10.15363090      -0.68890136      -0.09835116       0.89113976      -0.08470561      -1.74847066       1.18523467       0.01132455      -0.25786844
C        5.76064935       5.30552404      10.26477820      -0.53446935      -0.98181428      -0.17270500      -1.12238598       0.25685275      -0.80429989       0.02277299      -0.10158861
F        4.76012823       5.53247983       9.38616763      -1.33895991      -0.84507743       0.70911623      -0.62536949      -0.24750236      -0.10224323      -0.01194603      -0.25658384
F        6.73658778       6.08204738       9.89559491      -0.70019548      -1.42737797       0.78485739       1.30623817       1.28675735       0.17987807      -0.00915923      -0.14603280
F        5.29287123       5.70178520      11.45011748      -1.07513781      -0.89151388       0.37346817       0.19932766      -0.30127272       0.18642029      -0.00912143      -0.26856339
C        7.28192688       3.63800942      11.26933035       0.03952587      -0.68165265       0.32700927       2.15809488       0.15193816       0.07619189       0.02328503      -0.12703437
F        8.41367367       4.40711680      11.11749418      -0.91638051      -0.47438555       0.93406885      -1.11459243       0.09738099       0.16549709      -0.01471376      -0.20692325
F        7.75667922       2.39339463      11.16589350       1.01246896      -1.02325303       0.08610476      -0.57151592       0.27460599       0.18488029      -0.01179603      -0.19378167
F        6.85719936       3.86801379      12.53846035      -0.46542784      -1.59561889      -1.47572913      -0.10247399      -0.40146419      -0.95406550      -0.01039875      -0.27932888
H        7.13729815       4.40244088       8.51759681       0.08211237      -0.12499108      -0.14275202       0.49792954       0.60338575      -0.40788531       0.02302478      -0.05030037
H        5.46174626       3.16576270      10.32394649       0.00491044      -0.04154348      -0.08741681      -0.07965048       0.35374781       0.15633599       0.01203150      -0.04353876
O       10.54526060       3.19196613      10.18526384      -0.30213615      -0.22371056       0.21817124      -0.71076459       0.22615017      -1.28612053      -0.02817915      -0.01495387
C       11.25411884       3.10527808      11.35143964       1.77398178      -0.31939850      -0.12545279      -0.26774365      -1.00337672       0.04056238       0.00879714      -0.26451665
C       11.97244233       4.40026071      11.67811375      -0.24211364      -0.63243154      -0.49574540      -0.22814146       0.73180431       2.16286826       0.01947367      -0.17062873
F       11.07782255       5.42521526      11.69699898       2.11140927      -1.06973835       0.38643110       0.24746220      -0.84666950       0.10341330      -0.01561521      -0.24873917
F       12.95106900       4.76599124      10.89732526       0.15881916      -1.11153919      -0.05554978       0.72615600      -0.31455451      -0.77088588      -0.01028343      -0.16634189
F       12.49452138       4.31766631      12.94685570       0.72189499      -1.05563449       0.50653632      -0.12055957      -0.06152523      -1.06414998      -0.01495425      -0.22447509
C       12.08783781       1.81316575      11.28380326       1.26115449      -0.51003875       0.06407145       1.06867635       1.80642164       1.59318542       0.02169742      -0.09156417
F       13.10447950       2.05564128      10.40607717       1.19218287       0.20000511      -0.46671583      -0.64271885      -1.19822872       0.02298796      -0.01200447      -0.25694627
F       11.34625991       0.79136497      10.95708232       2.40888174      -0.36866681       0.08979394       0.25528583      -0.28881100      -1.13250434      -0.00820754      -0.19956547
F       12.64392527       1.50397343      12.47185468       0.85652482      -0.69138660       0.65851007       0.20724131       0.12498627      -0.27525961      -0.01231245      -0.26632553
H       11.01907473       2.87084439       9.40716313      -0.19066170       0.04082420       0.19147223       0.17244151       0.07430629       0.24730872       0.02297685      -0.05312468
H       10.51457448       2.98195447      12.13693230       0.23949563      -0.24788240       0.24006750      -0.04706893      -0.02374105       0.37248033       0.01182744      -0.03190560
O        6.21411790       6.74813280       7.52257924      -0.43683116       0.02407160       0.16667055      -0.64853626       0.06795423       0.53645867      -0.02520022      -0.08928909
C        6.80817783       7.39599915       6.46323629      -0.12547798       0.16018728      -0.44433480       1.34465373       0.14777972       0.68041354       0.01255666      -0.19872276
C        6.00279995       8.55390182       5.96905206      -0.41289735      -0.62966549       0.21930875       0.02137268       0.94563711      -1.00456762       0.02181191      -0.13380034
F        5.75627208       9.52433445       6.89132735       0.69521084      -0.65749875       0.93698708       0.51481259      -0.99310756      -0.71702564      -0.01216700      -0.26820421
F        4.82364611       8.11704574       5.51556478      -0.24175189       1.21640494      -0.34015905      -0.18932416       0.22879837       0.15370557      -0.00877061      -0.25023448
F        6.69422125       9.10387648       4.92656889      -0.14553281      -0.53250258      -0.54983300      -0.67976862       0.08853685       0.73498660      -0.01277861      -0.25833890
C        7.10303482       6.26279941       5.43997278      -1.43051346      -0.19569796       0.14863069       1.39778721       0.48301315       0.69547319       0.02344014      -0.08607841
F        6.02405862       5.50154810       5.29581820      -1.59881484      -0.10140427       1.10857095       0.03809090      -0.17757657      -0.41367123      -0.00410217      -0.26911986
F        8.07484278       5.54552076       6.07487984      -1.28154089      -1.23975715      -0.43101346      -0.79511595      -0.32726172      -0.52626103      -0.01265615      -0.21493654
F        7.60420867       6.58677183       4.24653448       0.24215618      -0.59596321      -0.49672293      -0.52650106       0.13403347       0.26430139      -0.00959361      -0.26102036
H        5.34053031       6.42925801       7.25735837      -0.06266781      -0.07688071       0.15797353      -0.01257430      -0.02272506       0.07243751       0.02744529      -0.03127410
H        7.76488034       7.81737300       6.87432576       0.04561174      -0.08111642      -0.23097938      -0.62121832      -0.46676078      -0.74361545       0.01317549      -0.03634988
